<?xml version="1.0" encoding="ISO-8859-1"?>
<modeling>
 <generator>
  <i name="program" type="string">vasp </i>
  <i name="version" type="string">5.3.5  </i>
  <i name="subversion" type="string">31Mar14 (build Jun 17 2014 14:04:22) complex                          parallel </i>
  <i name="platform" type="string">LinuxIfort </i>
  <i name="date" type="string">2025 12 23 </i>
  <i name="time" type="string">03:18:23 </i>
 </generator>
 <incar>
  <i type="string" name="SYSTEM"> Al Random Displacement</i>
  <i type="string" name="PREC">normal</i>
  <i type="string" name="ALGO"> Fast</i>
  <i type="int" name="IBRION">    -1</i>
  <i type="int" name="NSW">     0</i>
  <i name="ENCUT">    300.00000000</i>
  <i type="string" name="LREAL"> Auto</i>
  <i type="int" name="ISMEAR">     1</i>
  <i name="SIGMA">      0.20000000</i>
  <i type="logical" name="LWAVE"> F  </i>
  <i type="logical" name="LCHARG"> F  </i>
 </incar>
 <kpoints>
  <generation param="Monkhorst-Pack">
   <v type="int" name="divisions">       4        4        4 </v>
   <v name="usershift">      0.00000000       0.00000000       0.00000000 </v>
   <v name="genvec1">      0.25000000       0.00000000       0.00000000 </v>
   <v name="genvec2">      0.00000000       0.25000000       0.00000000 </v>
   <v name="genvec3">      0.00000000       0.00000000       0.25000000 </v>
   <v name="shift">      0.50000000       0.50000000       0.50000000 </v>
  </generation>
  <varray name="kpointlist" >
   <v>       0.12500000       0.12500000       0.12500000 </v>
   <v>       0.12500000       0.00000000       0.00000000 </v>
   <v>       0.00000000       0.00000000      -0.12500000 </v>
   <v>       0.00000000       0.12500000       0.00000000 </v>
   <v>       0.37500000       0.12500000       0.12500000 </v>
   <v>       0.12500000       0.37500000       0.12500000 </v>
   <v>       0.12500000       0.12500000       0.37500000 </v>
   <v>       0.12500000       0.00000000      -0.25000000 </v>
   <v>       0.37500000       0.25000000       0.25000000 </v>
   <v>       0.12500000      -0.25000000       0.00000000 </v>
   <v>       0.00000000       0.25000000      -0.12500000 </v>
   <v>       0.25000000       0.00000000      -0.12500000 </v>
   <v>      -0.25000000      -0.25000000      -0.37500000 </v>
   <v>       0.25000000       0.37500000       0.25000000 </v>
   <v>       0.00000000       0.12500000      -0.25000000 </v>
   <v>      -0.25000000       0.12500000       0.00000000 </v>
   <v>      -0.37500000       0.12500000       0.12500000 </v>
   <v>       0.12500000      -0.37500000       0.12500000 </v>
   <v>       0.12500000       0.12500000      -0.37500000 </v>
   <v>       0.12500000       0.00000000       0.50000000 </v>
   <v>      -0.37500000       0.50000000       0.50000000 </v>
   <v>       0.12500000       0.50000000       0.00000000 </v>
   <v>       0.00000000       0.50000000      -0.12500000 </v>
   <v>       0.50000000       0.00000000      -0.12500000 </v>
   <v>       0.50000000       0.50000000       0.37500000 </v>
   <v>       0.50000000      -0.37500000       0.50000000 </v>
   <v>       0.00000000       0.12500000       0.50000000 </v>
   <v>       0.50000000       0.12500000       0.00000000 </v>
   <v>      -0.12500000       0.12500000       0.12500000 </v>
   <v>       0.12500000      -0.12500000       0.12500000 </v>
   <v>       0.12500000       0.12500000      -0.12500000 </v>
   <v>       0.12500000       0.00000000       0.25000000 </v>
   <v>      -0.12500000      -0.25000000      -0.25000000 </v>
   <v>       0.12500000       0.25000000       0.00000000 </v>
   <v>       0.00000000      -0.25000000      -0.12500000 </v>
   <v>      -0.25000000       0.00000000      -0.12500000 </v>
   <v>       0.25000000       0.25000000       0.12500000 </v>
   <v>      -0.25000000      -0.12500000      -0.25000000 </v>
   <v>       0.00000000       0.12500000       0.25000000 </v>
   <v>       0.25000000       0.12500000       0.00000000 </v>
   <v>       0.37500000       0.37500000       0.12500000 </v>
   <v>       0.12500000       0.37500000       0.37500000 </v>
   <v>       0.37500000       0.12500000       0.37500000 </v>
   <v>       0.37500000       0.25000000       0.00000000 </v>
   <v>       0.37500000       0.00000000       0.25000000 </v>
   <v>       0.12500000      -0.25000000      -0.25000000 </v>
   <v>       0.25000000       0.25000000      -0.12500000 </v>
   <v>       0.00000000      -0.25000000      -0.37500000 </v>
   <v>      -0.25000000       0.00000000      -0.37500000 </v>
   <v>       0.25000000       0.37500000       0.00000000 </v>
   <v>      -0.25000000       0.12500000      -0.25000000 </v>
   <v>       0.00000000       0.37500000       0.25000000 </v>
   <v>      -0.37500000       0.37500000       0.12500000 </v>
   <v>       0.12500000      -0.37500000       0.37500000 </v>
   <v>       0.37500000       0.12500000      -0.37500000 </v>
   <v>       0.37500000       0.25000000      -0.25000000 </v>
   <v>      -0.37500000       0.25000000       0.50000000 </v>
   <v>       0.12500000       0.50000000      -0.25000000 </v>
   <v>       0.25000000       0.50000000      -0.12500000 </v>
   <v>       0.25000000      -0.25000000      -0.37500000 </v>
   <v>       0.50000000      -0.25000000       0.37500000 </v>
   <v>       0.50000000      -0.37500000       0.25000000 </v>
   <v>      -0.25000000       0.12500000       0.50000000 </v>
   <v>      -0.25000000       0.37500000       0.25000000 </v>
   <v>      -0.12500000       0.25000000       0.50000000 </v>
   <v>      -0.37500000       0.25000000      -0.25000000 </v>
   <v>       0.37500000       0.50000000      -0.25000000 </v>
   <v>       0.25000000       0.50000000      -0.37500000 </v>
   <v>       0.50000000      -0.25000000       0.12500000 </v>
   <v>       0.25000000      -0.25000000       0.37500000 </v>
   <v>       0.50000000      -0.12500000       0.25000000 </v>
   <v>      -0.25000000      -0.37500000       0.25000000 </v>
   <v>      -0.25000000       0.37500000       0.50000000 </v>
   <v>       0.37500000      -0.12500000      -0.37500000 </v>
   <v>      -0.37500000       0.37500000      -0.12500000 </v>
   <v>      -0.12500000      -0.37500000       0.37500000 </v>
   <v>      -0.12500000       0.37500000       0.12500000 </v>
   <v>       0.12500000      -0.12500000       0.37500000 </v>
   <v>       0.37500000       0.12500000      -0.12500000 </v>
   <v>       0.37500000       0.25000000       0.50000000 </v>
   <v>      -0.12500000       0.50000000      -0.25000000 </v>
   <v>       0.12500000       0.25000000      -0.25000000 </v>
   <v>       0.25000000      -0.25000000      -0.12500000 </v>
   <v>       0.50000000      -0.25000000      -0.37500000 </v>
   <v>       0.25000000       0.50000000       0.12500000 </v>
   <v>      -0.25000000      -0.12500000       0.50000000 </v>
   <v>      -0.25000000       0.12500000       0.25000000 </v>
   <v>       0.50000000       0.37500000       0.25000000 </v>
   <v>      -0.12500000       0.25000000      -0.25000000 </v>
   <v>      -0.37500000       0.50000000      -0.25000000 </v>
   <v>       0.12500000       0.25000000       0.50000000 </v>
   <v>       0.50000000      -0.25000000      -0.12500000 </v>
   <v>       0.25000000      -0.25000000       0.12500000 </v>
   <v>       0.25000000       0.50000000       0.37500000 </v>
   <v>      -0.25000000      -0.12500000       0.25000000 </v>
   <v>      -0.25000000      -0.37500000       0.50000000 </v>
   <v>       0.50000000       0.12500000       0.25000000 </v>
   <v>       0.12500000      -0.12500000      -0.37500000 </v>
   <v>      -0.37500000       0.12500000      -0.12500000 </v>
   <v>      -0.12500000      -0.37500000       0.12500000 </v>
   <v>      -0.37500000      -0.37500000       0.12500000 </v>
   <v>       0.12500000      -0.37500000      -0.37500000 </v>
   <v>      -0.37500000       0.12500000      -0.37500000 </v>
   <v>      -0.37500000       0.50000000       0.00000000 </v>
   <v>      -0.37500000       0.00000000       0.50000000 </v>
   <v>       0.12500000       0.50000000       0.50000000 </v>
   <v>       0.50000000       0.50000000      -0.12500000 </v>
   <v>       0.00000000       0.50000000       0.37500000 </v>
   <v>       0.50000000       0.00000000       0.37500000 </v>
   <v>       0.50000000      -0.37500000       0.00000000 </v>
   <v>       0.50000000       0.12500000       0.50000000 </v>
   <v>       0.00000000      -0.37500000       0.50000000 </v>
   <v>       0.37500000       0.37500000       0.37500000 </v>
   <v>       0.37500000       0.00000000       0.00000000 </v>
   <v>       0.00000000       0.00000000      -0.37500000 </v>
   <v>       0.00000000       0.37500000       0.00000000 </v>
   <v>      -0.37500000       0.37500000       0.37500000 </v>
   <v>       0.37500000      -0.37500000       0.37500000 </v>
   <v>       0.37500000       0.37500000      -0.37500000 </v>
   <v>       0.37500000       0.00000000      -0.25000000 </v>
   <v>      -0.37500000       0.25000000       0.25000000 </v>
   <v>       0.37500000      -0.25000000       0.00000000 </v>
   <v>       0.00000000       0.25000000      -0.37500000 </v>
   <v>       0.25000000       0.00000000      -0.37500000 </v>
   <v>      -0.25000000      -0.25000000       0.37500000 </v>
   <v>       0.25000000      -0.37500000       0.25000000 </v>
   <v>       0.00000000       0.37500000      -0.25000000 </v>
   <v>      -0.25000000       0.37500000       0.00000000 </v>
  </varray>
  <varray name="weights" >
   <v>       0.00781250 </v>
   <v>       0.00781250 </v>
   <v>       0.00781250 </v>
   <v>       0.00781250 </v>
   <v>       0.00781250 </v>
   <v>       0.00781250 </v>
   <v>       0.00781250 </v>
   <v>       0.00781250 </v>
   <v>       0.00781250 </v>
   <v>       0.00781250 </v>
   <v>       0.00781250 </v>
   <v>       0.00781250 </v>
   <v>       0.00781250 </v>
   <v>       0.00781250 </v>
   <v>       0.00781250 </v>
   <v>       0.00781250 </v>
   <v>       0.00781250 </v>
   <v>       0.00781250 </v>
   <v>       0.00781250 </v>
   <v>       0.00781250 </v>
   <v>       0.00781250 </v>
   <v>       0.00781250 </v>
   <v>       0.00781250 </v>
   <v>       0.00781250 </v>
   <v>       0.00781250 </v>
   <v>       0.00781250 </v>
   <v>       0.00781250 </v>
   <v>       0.00781250 </v>
   <v>       0.00781250 </v>
   <v>       0.00781250 </v>
   <v>       0.00781250 </v>
   <v>       0.00781250 </v>
   <v>       0.00781250 </v>
   <v>       0.00781250 </v>
   <v>       0.00781250 </v>
   <v>       0.00781250 </v>
   <v>       0.00781250 </v>
   <v>       0.00781250 </v>
   <v>       0.00781250 </v>
   <v>       0.00781250 </v>
   <v>       0.00781250 </v>
   <v>       0.00781250 </v>
   <v>       0.00781250 </v>
   <v>       0.00781250 </v>
   <v>       0.00781250 </v>
   <v>       0.00781250 </v>
   <v>       0.00781250 </v>
   <v>       0.00781250 </v>
   <v>       0.00781250 </v>
   <v>       0.00781250 </v>
   <v>       0.00781250 </v>
   <v>       0.00781250 </v>
   <v>       0.00781250 </v>
   <v>       0.00781250 </v>
   <v>       0.00781250 </v>
   <v>       0.00781250 </v>
   <v>       0.00781250 </v>
   <v>       0.00781250 </v>
   <v>       0.00781250 </v>
   <v>       0.00781250 </v>
   <v>       0.00781250 </v>
   <v>       0.00781250 </v>
   <v>       0.00781250 </v>
   <v>       0.00781250 </v>
   <v>       0.00781250 </v>
   <v>       0.00781250 </v>
   <v>       0.00781250 </v>
   <v>       0.00781250 </v>
   <v>       0.00781250 </v>
   <v>       0.00781250 </v>
   <v>       0.00781250 </v>
   <v>       0.00781250 </v>
   <v>       0.00781250 </v>
   <v>       0.00781250 </v>
   <v>       0.00781250 </v>
   <v>       0.00781250 </v>
   <v>       0.00781250 </v>
   <v>       0.00781250 </v>
   <v>       0.00781250 </v>
   <v>       0.00781250 </v>
   <v>       0.00781250 </v>
   <v>       0.00781250 </v>
   <v>       0.00781250 </v>
   <v>       0.00781250 </v>
   <v>       0.00781250 </v>
   <v>       0.00781250 </v>
   <v>       0.00781250 </v>
   <v>       0.00781250 </v>
   <v>       0.00781250 </v>
   <v>       0.00781250 </v>
   <v>       0.00781250 </v>
   <v>       0.00781250 </v>
   <v>       0.00781250 </v>
   <v>       0.00781250 </v>
   <v>       0.00781250 </v>
   <v>       0.00781250 </v>
   <v>       0.00781250 </v>
   <v>       0.00781250 </v>
   <v>       0.00781250 </v>
   <v>       0.00781250 </v>
   <v>       0.00781250 </v>
   <v>       0.00781250 </v>
   <v>       0.00781250 </v>
   <v>       0.00781250 </v>
   <v>       0.00781250 </v>
   <v>       0.00781250 </v>
   <v>       0.00781250 </v>
   <v>       0.00781250 </v>
   <v>       0.00781250 </v>
   <v>       0.00781250 </v>
   <v>       0.00781250 </v>
   <v>       0.00781250 </v>
   <v>       0.00781250 </v>
   <v>       0.00781250 </v>
   <v>       0.00781250 </v>
   <v>       0.00781250 </v>
   <v>       0.00781250 </v>
   <v>       0.00781250 </v>
   <v>       0.00781250 </v>
   <v>       0.00781250 </v>
   <v>       0.00781250 </v>
   <v>       0.00781250 </v>
   <v>       0.00781250 </v>
   <v>       0.00781250 </v>
   <v>       0.00781250 </v>
   <v>       0.00781250 </v>
   <v>       0.00781250 </v>
   <v>       0.00781250 </v>
  </varray>
 </kpoints>
 <parameters>
  <separator name="general" >
   <i type="string" name="SYSTEM">Al Random Displacement</i>
   <i type="logical" name="LCOMPAT"> F  </i>
  </separator>
  <separator name="electronic" >
   <i type="string" name="PREC">normal</i>
   <i name="ENMAX">    300.00000000</i>
   <i name="ENAUG">    291.05200000</i>
   <i name="EDIFF">      0.00010000</i>
   <i type="int" name="IALGO">    68</i>
   <i type="int" name="IWAVPR">    10</i>
   <i type="int" name="NBANDS">    64</i>
   <i name="NELECT">     81.00000000</i>
   <i type="int" name="TURBO">     0</i>
   <i type="int" name="IRESTART">     0</i>
   <i type="int" name="NREBOOT">     0</i>
   <i type="int" name="NMIN">     0</i>
   <i name="EREF">      0.00000000</i>
   <separator name="electronic smearing" >
    <i type="int" name="ISMEAR">     1</i>
    <i name="SIGMA">      0.20000000</i>
    <i name="KSPACING">      0.50000000</i>
    <i type="logical" name="KGAMMA"> T  </i>
   </separator>
   <separator name="electronic projectors" >
    <i type="logical" name="LREAL"> T  </i>
    <v name="ROPT">     -0.00050000</v>
    <i type="int" name="LMAXPAW">  -100</i>
    <i type="int" name="LMAXMIX">     2</i>
    <i type="logical" name="NLSPLINE"> F  </i>
   </separator>
   <separator name="electronic startup" >
    <i type="int" name="ISTART">     0</i>
    <i type="int" name="ICHARG">     2</i>
    <i type="int" name="INIWAV">     1</i>
   </separator>
   <separator name="electronic spin" >
    <i type="int" name="ISPIN">     1</i>
    <i type="logical" name="LNONCOLLINEAR"> F  </i>
    <v name="MAGMOM">      1.00000000      1.00000000      1.00000000      1.00000000      1.00000000      1.00000000      1.00000000      1.00000000      1.00000000      1.00000000      1.00000000      1.00000000      1.00000000      1.00000000      1.00000000      1.00000000      1.00000000      1.00000000      1.00000000      1.00000000
      1.00000000      1.00000000      1.00000000      1.00000000      1.00000000      1.00000000      1.00000000</v>
    <i name="NUPDOWN">     -1.00000000</i>
    <i type="logical" name="LSORBIT"> F  </i>
    <v name="SAXIS">      0.00000000      0.00000000      1.00000000</v>
    <i type="logical" name="LSPIRAL"> F  </i>
    <v name="QSPIRAL">      0.00000000      0.00000000      0.00000000</v>
    <i type="logical" name="LZEROZ"> F  </i>
   </separator>
   <separator name="electronic exchange-correlation" >
    <i type="logical" name="LASPH"> F  </i>
    <i type="logical" name="LMETAGGA"> F  </i>
   </separator>
   <separator name="electronic convergence" >
    <i type="int" name="NELM">    60</i>
    <i type="int" name="NELMDL">    -5</i>
    <i type="int" name="NELMIN">     2</i>
    <i name="ENINI">    300.00000000</i>
    <separator name="electronic convergence detail" >
     <i type="logical" name="LDIAG"> T  </i>
     <i type="logical" name="LSUBROT"> F  </i>
     <i name="WEIMIN">      0.00000000</i>
     <i name="EBREAK">      0.00000039</i>
     <i name="DEPER">      0.30000000</i>
     <i type="int" name="NRMM">     4</i>
     <i name="TIME">      0.40000000</i>
    </separator>
   </separator>
   <separator name="electronic mixer" >
    <i name="AMIX">      0.40000000</i>
    <i name="BMIX">      1.00000000</i>
    <i name="AMIN">      0.10000000</i>
    <i name="AMIX_MAG">      1.60000000</i>
    <i name="BMIX_MAG">      1.00000000</i>
    <separator name="electronic mixer details" >
     <i type="int" name="IMIX">     4</i>
     <i type="int" name="MAXMIX">   -45</i>
     <i name="WC">    100.00000000</i>
     <i type="int" name="INIMIX">     1</i>
     <i type="int" name="MIXPRE">     1</i>
     <i type="int" name="MREMOVE">     5</i>
    </separator>
   </separator>
   <separator name="electronic dipolcorrection" >
    <i type="logical" name="LDIPOL"> F  </i>
    <i type="logical" name="LMONO"> F  </i>
    <i type="int" name="IDIPOL">     0</i>
    <i name="EPSILON">      1.00000000</i>
    <v name="DIPOL">   -100.00000000   -100.00000000   -100.00000000</v>
    <i name="EFIELD">      0.00000000</i>
   </separator>
  </separator>
  <separator name="grids" >
   <i type="int" name="NGX">    36</i>
   <i type="int" name="NGY">    36</i>
   <i type="int" name="NGZ">    36</i>
   <i type="int" name="NGXF">    72</i>
   <i type="int" name="NGYF">    72</i>
   <i type="int" name="NGZF">    72</i>
   <i type="logical" name="ADDGRID"> F  </i>
  </separator>
  <separator name="ionic" >
   <i type="int" name="NSW">     0</i>
   <i type="int" name="IBRION">    -1</i>
   <i type="int" name="ISIF">     2</i>
   <i name="PSTRESS">      0.00000000</i>
   <i name="EDIFFG">      0.00100000</i>
   <i type="int" name="NFREE">     0</i>
   <i name="POTIM">      0.50000000</i>
   <i name="SMASS">     -3.00000000</i>
   <i name="SCALEE">      1.00000000</i>
  </separator>
  <separator name="ionic md" >
   <i name="TEBEG">      0.00010000</i>
   <i name="TEEND">      0.00010000</i>
   <i type="int" name="NBLOCK">     1</i>
   <i type="int" name="KBLOCK">     1</i>
   <i type="int" name="NPACO">   256</i>
   <i name="APACO">     16.00000000</i>
  </separator>
  <separator name="symmetry" >
   <i type="int" name="ISYM">     2</i>
   <i name="SYMPREC">      0.00001000</i>
  </separator>
  <separator name="dos" >
   <i type="logical" name="LORBIT"> F  </i>
   <v name="RWIGS">     -1.00000000</v>
   <i type="int" name="NEDOS">   301</i>
   <i name="EMIN">     10.00000000</i>
   <i name="EMAX">    -10.00000000</i>
   <i name="EFERMI">      0.00000000</i>
  </separator>
  <separator name="writing" >
   <i type="int" name="NWRITE">     2</i>
   <i type="logical" name="LWAVE"> F  </i>
   <i type="logical" name="LCHARG"> F  </i>
   <i type="logical" name="LPARD"> F  </i>
   <i type="logical" name="LVTOT"> F  </i>
   <i type="logical" name="LVHAR"> F  </i>
   <i type="logical" name="LELF"> F  </i>
   <i type="logical" name="LOPTICS"> F  </i>
   <v name="STM">      0.00000000      0.00000000      0.00000000      0.00000000      0.00000000      0.00000000      0.00000000</v>
  </separator>
  <separator name="performance" >
   <i type="int" name="NPAR">    16</i>
   <i type="int" name="NSIM">     4</i>
   <i type="int" name="NBLK">    -1</i>
   <i type="logical" name="LPLANE"> T  </i>
   <i type="logical" name="LSCALAPACK"> F  </i>
   <i type="logical" name="LSCAAWARE"> F  </i>
   <i type="logical" name="LSCALU"> F  </i>
   <i type="logical" name="LASYNC"> F  </i>
   <i type="logical" name="LORBITALREAL"> F  </i>
  </separator>
  <separator name="miscellaneous" >
   <i type="int" name="IDIOT">     3</i>
   <i type="logical" name="LMUSIC"> F  </i>
   <v name="POMASS">     26.98100000</v>
   <v name="DARWINR">      0.00000000</v>
   <v name="DARWINV">      1.00000000</v>
   <i type="logical" name="LCORR"> T  </i>
  </separator>
  <i type="logical" name="GGA_COMPAT"> T  </i>
  <i type="logical" name="LBERRY"> F  </i>
  <i type="int" name="ICORELEVEL">     0</i>
  <i type="logical" name="LDAU"> F  </i>
  <i type="int" name="I_CONSTRAINED_M">     0</i>
  <separator name="electronic exchange-correlation" >
   <i type="string" name="GGA">--</i>
   <i type="int" name="VOSKOWN">     0</i>
   <i type="logical" name="LHFCALC"> F  </i>
   <i type="string" name="PRECFOCK"></i>
   <i type="logical" name="LSYMGRAD"> F  </i>
   <i type="logical" name="LHFONE"> F  </i>
   <i type="logical" name="LRHFCALC"> F  </i>
   <i type="logical" name="LTHOMAS"> F  </i>
   <i type="logical" name="LMODELHF"> F  </i>
   <i name="ENCUT4O">     -1.00000000</i>
   <i type="int" name="EXXOEP">     0</i>
   <i type="int" name="FOURORBIT">     0</i>
   <i name="AEXX">      0.00000000</i>
   <i name="HFALPHA">      0.00000000</i>
   <i name="MCALPHA">      0.00000000</i>
   <i name="ALDAX">      1.00000000</i>
   <i name="AGGAX">      1.00000000</i>
   <i name="ALDAC">      1.00000000</i>
   <i name="AGGAC">      1.00000000</i>
   <i type="int" name="NKREDX">     1</i>
   <i type="int" name="NKREDY">     1</i>
   <i type="int" name="NKREDZ">     1</i>
   <i type="logical" name="SHIFTRED"> F  </i>
   <i type="logical" name="ODDONLY"> F  </i>
   <i type="logical" name="EVENONLY"> F  </i>
   <i type="int" name="LMAXFOCK">     0</i>
   <i type="int" name="NMAXFOCKAE">     0</i>
   <i type="logical" name="LFOCKAEDFT"> F  </i>
   <i name="HFSCREEN">      0.00000000</i>
   <i name="HFSCREENC">      0.00000000</i>
   <i type="int" name="NBANDSGWLOW">     0</i>
  </separator>
  <separator name="vdW DFT" >
   <i type="logical" name="LUSE_VDW"> F  </i>
   <i name="Zab_VDW">     -0.84910000</i>
   <i name="PARAM1">      0.12340000</i>
   <i name="PARAM2">      1.00000000</i>
   <i name="PARAM3">      0.00000000</i>
  </separator>
  <separator name="model GW" >
   <i type="int" name="MODEL_GW">     0</i>
   <i name="MODEL_EPS0">      9.96451875</i>
   <i name="MODEL_ALPHA">      1.00000000</i>
  </separator>
  <separator name="linear response parameters" >
   <i type="logical" name="LEPSILON"> F  </i>
   <i type="logical" name="LRPA"> F  </i>
   <i type="logical" name="LNABLA"> F  </i>
   <i type="logical" name="LVEL"> F  </i>
   <i type="int" name="KINTER">     0</i>
   <i name="CSHIFT">      0.10000000</i>
   <i name="OMEGAMAX">     -1.00000000</i>
   <i name="DEG_THRESHOLD">      0.00200000</i>
  </separator>
  <separator name="orbital magnetization" >
   <i type="logical" name="NUCIND"> F  </i>
   <v name="MAGPOS">      0.00000000      0.00000000      0.00000000</v>
   <i type="logical" name="LNICSALL"> T  </i>
   <i type="logical" name="ORBITALMAG"> F  </i>
   <i type="logical" name="LMAGBLOCH"> F  </i>
   <i type="logical" name="LCHIMAG"> F  </i>
   <i type="logical" name="LGAUGE"> T  </i>
   <i type="int" name="MAGATOM">     0</i>
   <v name="MAGDIPOL">      0.00000000      0.00000000      0.00000000</v>
   <v name="AVECCONST">      0.00000000      0.00000000      0.00000000</v>
  </separator>
  <separator name="response functions" >
   <i type="logical" name="LADDER"> F  </i>
   <i type="logical" name="LFXC"> F  </i>
   <i type="logical" name="LHARTREE"> T  </i>
   <i type="int" name="IBSE">     0</i>
   <i type="logical" name="LTCTE"> F  </i>
   <i type="logical" name="LTETE"> F  </i>
   <i type="logical" name="LTRIPLET"> F  </i>
   <i type="logical" name="LFXCEPS"> F  </i>
   <i type="logical" name="LFXHEG"> F  </i>
   <i type="logical" name="L2ORDER"> F  </i>
   <i type="logical" name="LUSEW"> F  </i>
   <i name="ENCUTGW">     -2.00000000</i>
   <i name="ENCUTGWSOFT">     -2.00000000</i>
   <i name="ENCUTLF">     -1.00000000</i>
   <i type="int" name="LMAXMP2">    -1</i>
   <i name="SCISSOR">      0.00000000</i>
   <i type="int" name="NOMEGA">     0</i>
   <i type="int" name="NOMEGAR">     0</i>
   <i type="int" name="NBANDSGW">    -1</i>
   <i type="int" name="NBANDSO">    -1</i>
   <i type="int" name="NBANDSV">    -1</i>
   <i type="int" name="NELM">     1</i>
   <i type="int" name="DIM">     3</i>
   <i type="int" name="ANTIRES">     0</i>
   <i name="OMEGAMAX">    -30.00000000</i>
   <i name="OMEGAMIN">    -30.00000000</i>
   <i name="OMEGATL">   -200.00000000</i>
   <i type="int" name="OMEGAGRID">     0</i>
   <i name="CSHIFT">     -0.10000000</i>
   <i type="logical" name="SELFENERGY"> F  </i>
   <i type="logical" name="LSPECTRAL"> F  </i>
   <i type="logical" name="ODDONLYGW"> F  </i>
   <i type="logical" name="EVENONLYGW"> F  </i>
   <i type="int" name="NKREDLFX">     1</i>
   <i type="int" name="NKREDLFY">     1</i>
   <i type="int" name="NKREDLFZ">     1</i>
   <i type="int" name="MAXMEM">  1800</i>
   <i type="int" name="TELESCOPE">     0</i>
   <i type="int" name="TAUPAR">     1</i>
  </separator>
  <separator name="External order field" >
   <i name="OFIELD_KAPPA">      0.00000000</i>
   <v name="OFIELD_K">      0.00000000      0.00000000      0.00000000</v>
   <i name="OFIELD_Q6_NEAR">      0.00000000</i>
   <i name="OFIELD_Q6_FAR">      0.00000000</i>
   <i name="OFIELD_A">      0.00000000</i>
  </separator>
 </parameters>
 <atominfo>
  <atoms>      27 </atoms>
  <types>       1 </types>
  <array name="atoms" >
   <dimension dim="1">ion</dimension>
   <field type="string">element</field>
   <field type="int">atomtype</field>
   <set>
    <rc><c>Al</c><c>   1</c></rc>
    <rc><c>Al</c><c>   1</c></rc>
    <rc><c>Al</c><c>   1</c></rc>
    <rc><c>Al</c><c>   1</c></rc>
    <rc><c>Al</c><c>   1</c></rc>
    <rc><c>Al</c><c>   1</c></rc>
    <rc><c>Al</c><c>   1</c></rc>
    <rc><c>Al</c><c>   1</c></rc>
    <rc><c>Al</c><c>   1</c></rc>
    <rc><c>Al</c><c>   1</c></rc>
    <rc><c>Al</c><c>   1</c></rc>
    <rc><c>Al</c><c>   1</c></rc>
    <rc><c>Al</c><c>   1</c></rc>
    <rc><c>Al</c><c>   1</c></rc>
    <rc><c>Al</c><c>   1</c></rc>
    <rc><c>Al</c><c>   1</c></rc>
    <rc><c>Al</c><c>   1</c></rc>
    <rc><c>Al</c><c>   1</c></rc>
    <rc><c>Al</c><c>   1</c></rc>
    <rc><c>Al</c><c>   1</c></rc>
    <rc><c>Al</c><c>   1</c></rc>
    <rc><c>Al</c><c>   1</c></rc>
    <rc><c>Al</c><c>   1</c></rc>
    <rc><c>Al</c><c>   1</c></rc>
    <rc><c>Al</c><c>   1</c></rc>
    <rc><c>Al</c><c>   1</c></rc>
    <rc><c>Al</c><c>   1</c></rc>
   </set>
  </array>
  <array name="atomtypes" >
   <dimension dim="1">type</dimension>
   <field type="int">atomspertype</field>
   <field type="string">element</field>
   <field>mass</field>
   <field>valence</field>
   <field type="string">pseudopotential</field>
   <set>
    <rc><c>  27</c><c>Al</c><c>     26.98100000</c><c>      3.00000000</c><c>  PAW_PBE Al 04Jan2001                  </c></rc>
   </set>
  </array>
 </atominfo>
 <structure name="initialpos" >
  <crystal>
   <varray name="basis" >
    <v>       0.00000000       6.07500000       6.07500000 </v>
    <v>       6.07500000       0.00000000       6.07500000 </v>
    <v>       6.07500000       6.07500000       0.00000000 </v>
   </varray>
   <i name="volume">    448.40334375 </i>
   <varray name="rec_basis" >
    <v>      -0.08230453       0.08230453       0.08230453 </v>
    <v>       0.08230453      -0.08230453       0.08230453 </v>
    <v>       0.08230453       0.08230453      -0.08230453 </v>
   </varray>
  </crystal>
  <varray name="positions" >
   <v>       0.02881842       0.01172469       0.92980754 </v>
   <v>       0.03220617       0.96294422       0.28911102 </v>
   <v>       0.95998657       0.01491347       0.72735990 </v>
   <v>       0.93956422       0.34457461       0.05447313 </v>
   <v>       0.03327466       0.29065602       0.29443836 </v>
   <v>       0.97929108       0.32612882       0.73495427 </v>
   <v>       0.02684150       0.67889498       0.03116426 </v>
   <v>       0.04911564       0.61514266       0.36372712 </v>
   <v>       0.00670671       0.70601387       0.68902898 </v>
   <v>       0.32622842       0.01008207       0.94098979 </v>
   <v>       0.38539342       0.02423712       0.27836639 </v>
   <v>       0.36983215       0.95345279       0.71184521 </v>
   <v>       0.34113373       0.26596079       0.01564907 </v>
   <v>       0.38669423       0.28964871       0.35989176 </v>
   <v>       0.30735513       0.29272016       0.66655179 </v>
   <v>       0.28595078       0.66684369       0.06492296 </v>
   <v>       0.40301422       0.65727199       0.30575291 </v>
   <v>       0.28855885       0.68960249       0.63283801 </v>
   <v>       0.67016346       0.94346770       0.05937749 </v>
   <v>       0.72611352       0.94310745       0.33185422 </v>
   <v>       0.65582996       0.94439802       0.72594336 </v>
   <v>       0.62281473       0.30589164       0.00774873 </v>
   <v>       0.65121754       0.38022158       0.36144666 </v>
   <v>       0.66170548       0.26887766       0.69174346 </v>
   <v>       0.64704670       0.71250908       0.94248294 </v>
   <v>       0.67522796       0.67380582       0.26835816 </v>
   <v>       0.61987555       0.69752027       0.71650235 </v>
  </varray>
 </structure>
 <calculation>
  <scstep>
   <time name="dav">    7.23    7.24</time>
   <time name="total">    7.25    7.27</time>
   <energy>
    <i name="alphaZ">     -5.46064710 </i>
    <i name="ewald">  -1872.28779700 </i>
    <i name="hartreedc">    -51.04631391 </i>
    <i name="XCdc">   -707.44652442 </i>
    <i name="pawpsdc">   1787.40424240 </i>
    <i name="pawaedc">   -924.63176043 </i>
    <i name="eentropy">     -0.00307576 </i>
    <i name="bandstr">    403.12953329 </i>
    <i name="atom">   1445.51584806 </i>
    <i name="e_fr_energy">     75.17350515 </i>
    <i name="e_wo_entrp">     75.17658090 </i>
    <i name="e_0_energy">     75.17453040 </i>
   </energy>
  </scstep>
  <scstep>
   <time name="dav">    8.78    8.78</time>
   <time name="total">    8.78    8.80</time>
   <energy>
    <i name="e_fr_energy">    -79.31943639 </i>
    <i name="e_wo_entrp">    -79.31503905 </i>
    <i name="e_0_energy">    -79.31797061 </i>
   </energy>
  </scstep>
  <scstep>
   <time name="dav">    9.18    9.19</time>
   <time name="total">    9.19    9.21</time>
   <energy>
    <i name="e_fr_energy">    -85.99011548 </i>
    <i name="e_wo_entrp">    -85.98488937 </i>
    <i name="e_0_energy">    -85.98837345 </i>
   </energy>
  </scstep>
  <scstep>
   <time name="dav">    8.47    8.48</time>
   <time name="total">    8.48    8.50</time>
   <energy>
    <i name="e_fr_energy">    -86.07107124 </i>
    <i name="e_wo_entrp">    -86.06584440 </i>
    <i name="e_0_energy">    -86.06932896 </i>
   </energy>
  </scstep>
  <scstep>
   <time name="dav">    9.17    9.17</time>
   <time name="total">    9.49    9.51</time>
   <energy>
    <i name="e_fr_energy">    -86.07243953 </i>
    <i name="e_wo_entrp">    -86.06721410 </i>
    <i name="e_0_energy">    -86.07069772 </i>
   </energy>
  </scstep>
  <scstep>
   <time name="diag">    1.16    1.16</time>
   <time name="diis">    3.56    3.56</time>
   <time name="orth">    0.20    0.20</time>
   <time name="total">    5.26    5.28</time>
   <energy>
    <i name="e_fr_energy">    -81.27707953 </i>
    <i name="e_wo_entrp">    -81.27585157 </i>
    <i name="e_0_energy">    -81.27667021 </i>
   </energy>
  </scstep>
  <scstep>
   <time name="diag">    1.16    1.16</time>
   <time name="diis">    4.16    4.17</time>
   <time name="orth">    0.20    0.20</time>
   <time name="total">    5.87    5.89</time>
   <energy>
    <i name="e_fr_energy">    -80.82578064 </i>
    <i name="e_wo_entrp">    -80.82380961 </i>
    <i name="e_0_energy">    -80.82512363 </i>
   </energy>
  </scstep>
  <scstep>
   <time name="diag">    1.16    1.16</time>
   <time name="diis">    4.30    4.30</time>
   <time name="orth">    0.20    0.20</time>
   <time name="total">    6.00    6.02</time>
   <energy>
    <i name="e_fr_energy">    -80.71604064 </i>
    <i name="e_wo_entrp">    -80.71396844 </i>
    <i name="e_0_energy">    -80.71534990 </i>
   </energy>
  </scstep>
  <scstep>
   <time name="diag">    1.16    1.16</time>
   <time name="diis">    4.39    4.39</time>
   <time name="orth">    0.20    0.20</time>
   <time name="total">    6.09    6.11</time>
   <energy>
    <i name="e_fr_energy">    -80.70414767 </i>
    <i name="e_wo_entrp">    -80.70218193 </i>
    <i name="e_0_energy">    -80.70349242 </i>
   </energy>
  </scstep>
  <scstep>
   <time name="diag">    1.16    1.16</time>
   <time name="diis">    4.16    4.16</time>
   <time name="orth">    0.20    0.20</time>
   <time name="total">    5.86    5.88</time>
   <energy>
    <i name="e_fr_energy">    -80.70219299 </i>
    <i name="e_wo_entrp">    -80.70030447 </i>
    <i name="e_0_energy">    -80.70156349 </i>
   </energy>
  </scstep>
  <scstep>
   <time name="diag">    1.17    1.17</time>
   <time name="diis">    3.49    3.50</time>
   <time name="orth">    0.20    0.20</time>
   <time name="total">    5.21    5.23</time>
   <energy>
    <i name="e_fr_energy">    -80.70204540 </i>
    <i name="e_wo_entrp">    -80.70016595 </i>
    <i name="e_0_energy">    -80.70141892 </i>
   </energy>
  </scstep>
  <scstep>
   <time name="diag">    1.17    1.17</time>
   <time name="diis">    2.94    2.94</time>
   <time name="orth">    0.20    0.20</time>
   <time name="total">    4.33    4.35</time>
   <energy>
    <i name="alphaZ">     -5.46064710 </i>
    <i name="ewald">  -1872.28779700 </i>
    <i name="hartreedc">    -69.25255195 </i>
    <i name="XCdc">   -703.16868183 </i>
    <i name="pawpsdc">   5561.64801198 </i>
    <i name="pawaedc">  -4700.65194705 </i>
    <i name="eentropy">     -0.00188139 </i>
    <i name="bandstr">    262.95760234 </i>
    <i name="atom">   1445.51584806 </i>
    <i name="e_fr_energy">    -80.70204393 </i>
    <i name="e_wo_entrp">    -80.70016254 </i>
    <i name="e_0_energy">    -80.70141680 </i>
   </energy>
  </scstep>
  <structure>
   <crystal>
    <varray name="basis" >
     <v>       0.00000000       6.07500000       6.07500000 </v>
     <v>       6.07500000       0.00000000       6.07500000 </v>
     <v>       6.07500000       6.07500000       0.00000000 </v>
    </varray>
    <i name="volume">    448.40334375 </i>
    <varray name="rec_basis" >
     <v>      -0.08230453       0.08230453       0.08230453 </v>
     <v>       0.08230453      -0.08230453       0.08230453 </v>
     <v>       0.08230453       0.08230453      -0.08230453 </v>
    </varray>
   </crystal>
   <varray name="positions" >
    <v>       0.02881842       0.01172469       0.92980754 </v>
    <v>       0.03220617       0.96294422       0.28911102 </v>
    <v>       0.95998657       0.01491347       0.72735990 </v>
    <v>       0.93956422       0.34457461       0.05447313 </v>
    <v>       0.03327466       0.29065602       0.29443836 </v>
    <v>       0.97929108       0.32612882       0.73495427 </v>
    <v>       0.02684150       0.67889498       0.03116426 </v>
    <v>       0.04911564       0.61514266       0.36372712 </v>
    <v>       0.00670671       0.70601387       0.68902898 </v>
    <v>       0.32622842       0.01008207       0.94098979 </v>
    <v>       0.38539342       0.02423712       0.27836639 </v>
    <v>       0.36983215       0.95345279       0.71184521 </v>
    <v>       0.34113373       0.26596079       0.01564907 </v>
    <v>       0.38669423       0.28964871       0.35989176 </v>
    <v>       0.30735513       0.29272016       0.66655179 </v>
    <v>       0.28595078       0.66684369       0.06492296 </v>
    <v>       0.40301422       0.65727199       0.30575291 </v>
    <v>       0.28855885       0.68960249       0.63283801 </v>
    <v>       0.67016346       0.94346770       0.05937749 </v>
    <v>       0.72611352       0.94310745       0.33185422 </v>
    <v>       0.65582996       0.94439802       0.72594336 </v>
    <v>       0.62281473       0.30589164       0.00774873 </v>
    <v>       0.65121754       0.38022158       0.36144666 </v>
    <v>       0.66170548       0.26887766       0.69174346 </v>
    <v>       0.64704670       0.71250908       0.94248294 </v>
    <v>       0.67522796       0.67380582       0.26835816 </v>
    <v>       0.61987555       0.69752027       0.71650235 </v>
   </varray>
  </structure>
  <varray name="forces" >
   <v>       4.16832076       5.32829157      -0.98214045 </v>
   <v>       0.41013905       0.70101544       0.57110108 </v>
   <v>      -4.28192660      -3.74191983      -0.05721583 </v>
   <v>      -1.46016471      -1.88750789       0.47514406 </v>
   <v>       2.23071850       1.96709936      -0.36171872 </v>
   <v>       0.84173260      -3.07129705       1.06682365 </v>
   <v>      -1.24232577      -1.35935313      -2.02171751 </v>
   <v>       1.36666897       0.72979580      -2.37410849 </v>
   <v>      -0.27599083      -2.37760953      -3.57043266 </v>
   <v>       6.02651406       4.30858960      -1.21642531 </v>
   <v>       2.58776763       2.54647172      -4.23287417 </v>
   <v>      -3.61133843      -6.99679015      -0.53570987 </v>
   <v>      -0.30592651      -3.63979653       2.25495451 </v>
   <v>      -0.85853169      -1.12140932       0.15537890 </v>
   <v>       2.02089169       0.65530467       2.46383309 </v>
   <v>      -1.91377901       1.43844148       2.55257996 </v>
   <v>       1.69177980      -4.05175467      -2.17271812 </v>
   <v>      -0.25546064       3.51559690       3.45404367 </v>
   <v>      -1.90179974      -3.35197199       5.55054088 </v>
   <v>       0.64706487      -0.07597774      -0.40144115 </v>
   <v>       0.70703861      -5.43593253       9.91122244 </v>
   <v>       0.30609029       0.48301528       1.12672417 </v>
   <v>      -2.62899641       1.90215972      -2.37835676 </v>
   <v>       1.25379482      -0.83297512       0.36094615 </v>
   <v>       2.06834525       9.74059273      -6.88596097 </v>
   <v>       0.39130454       5.20773940      -0.51862253 </v>
   <v>      -7.98193110      -0.57981818      -2.23385004 </v>
  </varray>
  <varray name="stress" >
   <v>     155.26652283      23.70447864      -1.88992724 </v>
   <v>      23.70447851     235.93296277     -18.88152203 </v>
   <v>      -1.88992741     -18.88152205     185.30201196 </v>
  </varray>
  <energy>
   <i name="e_fr_energy">    -80.70204393 </i>
   <i name="e_wo_entrp">    -80.70141680 </i>
   <i name="e_0_energy">     -0.00188139 </i>
  </energy>
  <time name="totalsc">   89.65   89.93</time>
  <eigenvalues>
   <array>
    <dimension dim="1">band</dimension>
    <dimension dim="2">kpoint</dimension>
    <dimension dim="3">spin</dimension>
    <field>eigene</field>
    <field>occ</field>
    <set>
     <set comment="spin 1">
      <set comment="kpoint 1">
       <r>   -3.7535    1.0000 </r>
       <r>   -2.0788    1.0000 </r>
       <r>   -1.4945    1.0000 </r>
       <r>   -0.9990    1.0000 </r>
       <r>   -0.9152    1.0000 </r>
       <r>   -0.6023    1.0000 </r>
       <r>   -0.3299    1.0000 </r>
       <r>   -0.0696    1.0000 </r>
       <r>    0.0682    1.0000 </r>
       <r>    0.2422    1.0000 </r>
       <r>    0.5984    1.0000 </r>
       <r>    0.7464    1.0000 </r>
       <r>    1.0449    1.0000 </r>
       <r>    1.5541    1.0000 </r>
       <r>    1.7277    1.0000 </r>
       <r>    2.9271    1.0000 </r>
       <r>    3.2830    1.0000 </r>
       <r>    3.6194    1.0000 </r>
       <r>    3.8169    1.0000 </r>
       <r>    4.1553    1.0000 </r>
       <r>    4.2743    1.0000 </r>
       <r>    4.4919    1.0000 </r>
       <r>    4.6944    1.0000 </r>
       <r>    4.7996    1.0000 </r>
       <r>    5.1518    1.0000 </r>
       <r>    5.2181    1.0000 </r>
       <r>    5.3556    1.0000 </r>
       <r>    5.5727    1.0000 </r>
       <r>    5.6713    1.0000 </r>
       <r>    5.8101    1.0000 </r>
       <r>    5.9671    1.0000 </r>
       <r>    6.2765    1.0000 </r>
       <r>    6.3689    1.0000 </r>
       <r>    6.4986    1.0000 </r>
       <r>    6.6656    1.0000 </r>
       <r>    6.7694    1.0000 </r>
       <r>    6.9492    1.0000 </r>
       <r>    7.0717    1.0000 </r>
       <r>    7.2173    1.0007 </r>
       <r>    7.3219    1.0061 </r>
       <r>    7.4178    1.0231 </r>
       <r>    7.6121    0.9323 </r>
       <r>    7.7207    0.5718 </r>
       <r>    7.8121    0.2084 </r>
       <r>    7.9553   -0.0320 </r>
       <r>    8.1084   -0.0125 </r>
       <r>    8.1729   -0.0044 </r>
       <r>    8.3046   -0.0002 </r>
       <r>    8.4025   -0.0000 </r>
       <r>    8.5403   -0.0000 </r>
       <r>    8.5935   -0.0000 </r>
       <r>    8.6705   -0.0000 </r>
       <r>    8.9711   -0.0000 </r>
       <r>    9.0445   -0.0000 </r>
       <r>    9.1607   -0.0000 </r>
       <r>    9.3799   -0.0000 </r>
       <r>    9.4924   -0.0000 </r>
       <r>    9.7245   -0.0000 </r>
       <r>   10.1837   -0.0000 </r>
       <r>   11.1049   -0.0000 </r>
       <r>   11.2593   -0.0000 </r>
       <r>   11.3958   -0.0000 </r>
       <r>   11.9777   -0.0000 </r>
       <r>   12.2436   -0.0000 </r>
      </set>
      <set comment="kpoint 2">
       <r>   -3.7530    1.0000 </r>
       <r>   -2.0473    1.0000 </r>
       <r>   -1.5635    1.0000 </r>
       <r>   -1.1172    1.0000 </r>
       <r>   -0.7114    1.0000 </r>
       <r>   -0.5938    1.0000 </r>
       <r>   -0.3555    1.0000 </r>
       <r>   -0.2104    1.0000 </r>
       <r>    0.1038    1.0000 </r>
       <r>    0.4406    1.0000 </r>
       <r>    0.6075    1.0000 </r>
       <r>    0.7613    1.0000 </r>
       <r>    0.9402    1.0000 </r>
       <r>    1.3880    1.0000 </r>
       <r>    1.8680    1.0000 </r>
       <r>    2.7181    1.0000 </r>
       <r>    3.4837    1.0000 </r>
       <r>    3.8216    1.0000 </r>
       <r>    3.8678    1.0000 </r>
       <r>    4.0020    1.0000 </r>
       <r>    4.1031    1.0000 </r>
       <r>    4.4831    1.0000 </r>
       <r>    4.7734    1.0000 </r>
       <r>    4.9426    1.0000 </r>
       <r>    5.0339    1.0000 </r>
       <r>    5.1432    1.0000 </r>
       <r>    5.2831    1.0000 </r>
       <r>    5.5307    1.0000 </r>
       <r>    5.6817    1.0000 </r>
       <r>    5.9293    1.0000 </r>
       <r>    6.0018    1.0000 </r>
       <r>    6.2059    1.0000 </r>
       <r>    6.3760    1.0000 </r>
       <r>    6.6108    1.0000 </r>
       <r>    6.6616    1.0000 </r>
       <r>    6.7795    1.0000 </r>
       <r>    6.8895    1.0000 </r>
       <r>    6.9483    1.0000 </r>
       <r>    7.2701    1.0023 </r>
       <r>    7.3821    1.0153 </r>
       <r>    7.4998    1.0353 </r>
       <r>    7.6279    0.8961 </r>
       <r>    7.7023    0.6474 </r>
       <r>    7.8428    0.1164 </r>
       <r>    7.8976    0.0102 </r>
       <r>    8.1053   -0.0130 </r>
       <r>    8.2164   -0.0018 </r>
       <r>    8.3013   -0.0002 </r>
       <r>    8.3882   -0.0000 </r>
       <r>    8.4829   -0.0000 </r>
       <r>    8.6065   -0.0000 </r>
       <r>    8.8218   -0.0000 </r>
       <r>    8.8515   -0.0000 </r>
       <r>    9.0342   -0.0000 </r>
       <r>    9.1824   -0.0000 </r>
       <r>    9.3738   -0.0000 </r>
       <r>    9.5103   -0.0000 </r>
       <r>    9.6273   -0.0000 </r>
       <r>   10.2478   -0.0000 </r>
       <r>   10.9613   -0.0000 </r>
       <r>   11.2431   -0.0000 </r>
       <r>   11.4307   -0.0000 </r>
       <r>   11.9220   -0.0000 </r>
       <r>   12.4211   -0.0000 </r>
      </set>
      <set comment="kpoint 3">
       <r>   -3.7584    1.0000 </r>
       <r>   -2.0295    1.0000 </r>
       <r>   -1.4688    1.0000 </r>
       <r>   -1.1502    1.0000 </r>
       <r>   -0.9347    1.0000 </r>
       <r>   -0.5405    1.0000 </r>
       <r>   -0.2579    1.0000 </r>
       <r>   -0.0999    1.0000 </r>
       <r>    0.0913    1.0000 </r>
       <r>    0.2736    1.0000 </r>
       <r>    0.4560    1.0000 </r>
       <r>    0.8020    1.0000 </r>
       <r>    1.0689    1.0000 </r>
       <r>    1.5145    1.0000 </r>
       <r>    1.7353    1.0000 </r>
       <r>    3.1316    1.0000 </r>
       <r>    3.2665    1.0000 </r>
       <r>    3.5565    1.0000 </r>
       <r>    3.8137    1.0000 </r>
       <r>    4.1055    1.0000 </r>
       <r>    4.3550    1.0000 </r>
       <r>    4.3987    1.0000 </r>
       <r>    4.6255    1.0000 </r>
       <r>    4.6662    1.0000 </r>
       <r>    5.2379    1.0000 </r>
       <r>    5.3449    1.0000 </r>
       <r>    5.4780    1.0000 </r>
       <r>    5.5594    1.0000 </r>
       <r>    5.6934    1.0000 </r>
       <r>    5.7386    1.0000 </r>
       <r>    5.9045    1.0000 </r>
       <r>    6.1597    1.0000 </r>
       <r>    6.4248    1.0000 </r>
       <r>    6.5654    1.0000 </r>
       <r>    6.6855    1.0000 </r>
       <r>    6.7571    1.0000 </r>
       <r>    6.8614    1.0000 </r>
       <r>    7.0519    1.0000 </r>
       <r>    7.1873    1.0003 </r>
       <r>    7.3509    1.0098 </r>
       <r>    7.4785    1.0347 </r>
       <r>    7.5860    0.9787 </r>
       <r>    7.7271    0.5452 </r>
       <r>    7.8075    0.2239 </r>
       <r>    7.9524   -0.0311 </r>
       <r>    8.0623   -0.0220 </r>
       <r>    8.1650   -0.0050 </r>
       <r>    8.2859   -0.0004 </r>
       <r>    8.3584   -0.0001 </r>
       <r>    8.4734   -0.0000 </r>
       <r>    8.6632   -0.0000 </r>
       <r>    8.7235   -0.0000 </r>
       <r>    8.9004   -0.0000 </r>
       <r>    9.0483   -0.0000 </r>
       <r>    9.2720   -0.0000 </r>
       <r>    9.3964   -0.0000 </r>
       <r>    9.5532   -0.0000 </r>
       <r>    9.7176   -0.0000 </r>
       <r>   10.1214   -0.0000 </r>
       <r>   11.1320   -0.0000 </r>
       <r>   11.2695   -0.0000 </r>
       <r>   11.4201   -0.0000 </r>
       <r>   12.0957   -0.0000 </r>
       <r>   12.4383   -0.0000 </r>
      </set>
      <set comment="kpoint 4">
       <r>   -3.7584    1.0000 </r>
       <r>   -1.9800    1.0000 </r>
       <r>   -1.5405    1.0000 </r>
       <r>   -1.2532    1.0000 </r>
       <r>   -0.8419    1.0000 </r>
       <r>   -0.4970    1.0000 </r>
       <r>   -0.2675    1.0000 </r>
       <r>   -0.0924    1.0000 </r>
       <r>    0.0742    1.0000 </r>
       <r>    0.3323    1.0000 </r>
       <r>    0.5037    1.0000 </r>
       <r>    0.7523    1.0000 </r>
       <r>    1.0573    1.0000 </r>
       <r>    1.4230    1.0000 </r>
       <r>    1.8146    1.0000 </r>
       <r>    3.0554    1.0000 </r>
       <r>    3.1864    1.0000 </r>
       <r>    3.6446    1.0000 </r>
       <r>    3.8624    1.0000 </r>
       <r>    3.9922    1.0000 </r>
       <r>    4.3836    1.0000 </r>
       <r>    4.5109    1.0000 </r>
       <r>    4.6088    1.0000 </r>
       <r>    4.8323    1.0000 </r>
       <r>    5.0845    1.0000 </r>
       <r>    5.1864    1.0000 </r>
       <r>    5.3697    1.0000 </r>
       <r>    5.6329    1.0000 </r>
       <r>    5.7505    1.0000 </r>
       <r>    5.8494    1.0000 </r>
       <r>    6.0042    1.0000 </r>
       <r>    6.0933    1.0000 </r>
       <r>    6.4012    1.0000 </r>
       <r>    6.5398    1.0000 </r>
       <r>    6.6206    1.0000 </r>
       <r>    6.7707    1.0000 </r>
       <r>    6.8666    1.0000 </r>
       <r>    7.0880    1.0000 </r>
       <r>    7.1732    1.0002 </r>
       <r>    7.3279    1.0068 </r>
       <r>    7.4990    1.0353 </r>
       <r>    7.5782    0.9895 </r>
       <r>    7.7667    0.3790 </r>
       <r>    7.9164   -0.0102 </r>
       <r>    7.9913   -0.0352 </r>
       <r>    8.0790   -0.0183 </r>
       <r>    8.1482   -0.0067 </r>
       <r>    8.2233   -0.0016 </r>
       <r>    8.3759   -0.0000 </r>
       <r>    8.4866   -0.0000 </r>
       <r>    8.6838   -0.0000 </r>
       <r>    8.7558   -0.0000 </r>
       <r>    8.8720   -0.0000 </r>
       <r>    9.0501   -0.0000 </r>
       <r>    9.2039   -0.0000 </r>
       <r>    9.3798   -0.0000 </r>
       <r>    9.4897   -0.0000 </r>
       <r>    9.7296   -0.0000 </r>
       <r>   10.1787   -0.0000 </r>
       <r>   11.0520   -0.0000 </r>
       <r>   11.2247   -0.0000 </r>
       <r>   11.4376   -0.0000 </r>
       <r>   12.0438   -0.0000 </r>
       <r>   12.3653   -0.0000 </r>
      </set>
      <set comment="kpoint 5">
       <r>   -3.5519    1.0000 </r>
       <r>   -2.5253    1.0000 </r>
       <r>   -1.7625    1.0000 </r>
       <r>   -1.2166    1.0000 </r>
       <r>   -0.7683    1.0000 </r>
       <r>   -0.6402    1.0000 </r>
       <r>   -0.4178    1.0000 </r>
       <r>   -0.0616    1.0000 </r>
       <r>    0.3908    1.0000 </r>
       <r>    0.7351    1.0000 </r>
       <r>    0.8230    1.0000 </r>
       <r>    1.2801    1.0000 </r>
       <r>    1.5348    1.0000 </r>
       <r>    1.7136    1.0000 </r>
       <r>    2.1532    1.0000 </r>
       <r>    2.5735    1.0000 </r>
       <r>    2.7965    1.0000 </r>
       <r>    3.1336    1.0000 </r>
       <r>    3.4853    1.0000 </r>
       <r>    3.7029    1.0000 </r>
       <r>    3.9376    1.0000 </r>
       <r>    4.1078    1.0000 </r>
       <r>    4.3946    1.0000 </r>
       <r>    4.6673    1.0000 </r>
       <r>    4.9261    1.0000 </r>
       <r>    5.0301    1.0000 </r>
       <r>    5.2229    1.0000 </r>
       <r>    5.4516    1.0000 </r>
       <r>    5.5830    1.0000 </r>
       <r>    5.6714    1.0000 </r>
       <r>    5.8486    1.0000 </r>
       <r>    5.9259    1.0000 </r>
       <r>    6.1842    1.0000 </r>
       <r>    6.2962    1.0000 </r>
       <r>    6.5948    1.0000 </r>
       <r>    6.6736    1.0000 </r>
       <r>    6.8819    1.0000 </r>
       <r>    6.9969    1.0000 </r>
       <r>    7.1256    1.0001 </r>
       <r>    7.4450    1.0292 </r>
       <r>    7.6109    0.9349 </r>
       <r>    7.8958    0.0125 </r>
       <r>    7.9718   -0.0350 </r>
       <r>    8.0681   -0.0207 </r>
       <r>    8.1372   -0.0081 </r>
       <r>    8.4778   -0.0000 </r>
       <r>    8.7057   -0.0000 </r>
       <r>    8.8386   -0.0000 </r>
       <r>    9.0468   -0.0000 </r>
       <r>    9.1201   -0.0000 </r>
       <r>    9.4200   -0.0000 </r>
       <r>    9.5099   -0.0000 </r>
       <r>    9.6027   -0.0000 </r>
       <r>    9.7928   -0.0000 </r>
       <r>    9.9174   -0.0000 </r>
       <r>   10.0153   -0.0000 </r>
       <r>   10.2554   -0.0000 </r>
       <r>   10.3784   -0.0000 </r>
       <r>   10.6504   -0.0000 </r>
       <r>   10.9581   -0.0000 </r>
       <r>   11.0608   -0.0000 </r>
       <r>   11.2045   -0.0000 </r>
       <r>   11.3559   -0.0000 </r>
       <r>   11.5337   -0.0000 </r>
      </set>
      <set comment="kpoint 6">
       <r>   -3.5995    1.0000 </r>
       <r>   -2.1420    1.0000 </r>
       <r>   -2.0657    1.0000 </r>
       <r>   -1.3344    1.0000 </r>
       <r>   -0.8012    1.0000 </r>
       <r>   -0.6427    1.0000 </r>
       <r>   -0.3124    1.0000 </r>
       <r>    0.0241    1.0000 </r>
       <r>    0.1634    1.0000 </r>
       <r>    0.5841    1.0000 </r>
       <r>    0.9765    1.0000 </r>
       <r>    1.2959    1.0000 </r>
       <r>    1.6584    1.0000 </r>
       <r>    1.8484    1.0000 </r>
       <r>    2.2236    1.0000 </r>
       <r>    2.6040    1.0000 </r>
       <r>    2.8418    1.0000 </r>
       <r>    3.0517    1.0000 </r>
       <r>    3.2586    1.0000 </r>
       <r>    3.7072    1.0000 </r>
       <r>    3.9411    1.0000 </r>
       <r>    4.2955    1.0000 </r>
       <r>    4.5219    1.0000 </r>
       <r>    4.6182    1.0000 </r>
       <r>    4.7885    1.0000 </r>
       <r>    5.0688    1.0000 </r>
       <r>    5.1964    1.0000 </r>
       <r>    5.3644    1.0000 </r>
       <r>    5.6079    1.0000 </r>
       <r>    5.6743    1.0000 </r>
       <r>    5.8991    1.0000 </r>
       <r>    5.9628    1.0000 </r>
       <r>    6.1628    1.0000 </r>
       <r>    6.2431    1.0000 </r>
       <r>    6.4765    1.0000 </r>
       <r>    6.6000    1.0000 </r>
       <r>    6.8037    1.0000 </r>
       <r>    6.8446    1.0000 </r>
       <r>    7.1136    1.0000 </r>
       <r>    7.4342    1.0269 </r>
       <r>    7.6553    0.8183 </r>
       <r>    7.7091    0.6201 </r>
       <r>    7.9303   -0.0208 </r>
       <r>    8.1991   -0.0026 </r>
       <r>    8.4230   -0.0000 </r>
       <r>    8.4498   -0.0000 </r>
       <r>    8.6390   -0.0000 </r>
       <r>    8.8200   -0.0000 </r>
       <r>    9.0238   -0.0000 </r>
       <r>    9.1376   -0.0000 </r>
       <r>    9.3221   -0.0000 </r>
       <r>    9.4808   -0.0000 </r>
       <r>    9.8040   -0.0000 </r>
       <r>    9.9439   -0.0000 </r>
       <r>   10.0834   -0.0000 </r>
       <r>   10.2027   -0.0000 </r>
       <r>   10.3694   -0.0000 </r>
       <r>   10.5329   -0.0000 </r>
       <r>   10.6429   -0.0000 </r>
       <r>   10.8182   -0.0000 </r>
       <r>   11.0913   -0.0000 </r>
       <r>   11.1299   -0.0000 </r>
       <r>   11.3141   -0.0000 </r>
       <r>   11.4229   -0.0000 </r>
      </set>
      <set comment="kpoint 7">
       <r>   -3.5965    1.0000 </r>
       <r>   -2.3635    1.0000 </r>
       <r>   -1.7618    1.0000 </r>
       <r>   -1.2406    1.0000 </r>
       <r>   -0.8689    1.0000 </r>
       <r>   -0.7127    1.0000 </r>
       <r>   -0.4573    1.0000 </r>
       <r>    0.1184    1.0000 </r>
       <r>    0.2376    1.0000 </r>
       <r>    0.4239    1.0000 </r>
       <r>    0.9597    1.0000 </r>
       <r>    1.2208    1.0000 </r>
       <r>    1.6701    1.0000 </r>
       <r>    2.0498    1.0000 </r>
       <r>    2.2664    1.0000 </r>
       <r>    2.4414    1.0000 </r>
       <r>    2.9896    1.0000 </r>
       <r>    3.0537    1.0000 </r>
       <r>    3.2517    1.0000 </r>
       <r>    3.6794    1.0000 </r>
       <r>    4.1909    1.0000 </r>
       <r>    4.3730    1.0000 </r>
       <r>    4.4032    1.0000 </r>
       <r>    4.6031    1.0000 </r>
       <r>    4.8005    1.0000 </r>
       <r>    5.0181    1.0000 </r>
       <r>    5.1854    1.0000 </r>
       <r>    5.3894    1.0000 </r>
       <r>    5.5344    1.0000 </r>
       <r>    5.5735    1.0000 </r>
       <r>    5.8020    1.0000 </r>
       <r>    5.9488    1.0000 </r>
       <r>    6.2156    1.0000 </r>
       <r>    6.3000    1.0000 </r>
       <r>    6.4705    1.0000 </r>
       <r>    6.5391    1.0000 </r>
       <r>    6.8309    1.0000 </r>
       <r>    6.9432    1.0000 </r>
       <r>    7.1036    1.0000 </r>
       <r>    7.1972    1.0004 </r>
       <r>    7.6712    0.7650 </r>
       <r>    7.7011    0.6523 </r>
       <r>    7.8283    0.1570 </r>
       <r>    8.1715   -0.0045 </r>
       <r>    8.3750   -0.0000 </r>
       <r>    8.6045   -0.0000 </r>
       <r>    8.6486   -0.0000 </r>
       <r>    8.8383   -0.0000 </r>
       <r>    8.9761   -0.0000 </r>
       <r>    9.1207   -0.0000 </r>
       <r>    9.2814   -0.0000 </r>
       <r>    9.5948   -0.0000 </r>
       <r>    9.7673   -0.0000 </r>
       <r>    9.8961   -0.0000 </r>
       <r>   10.1597   -0.0000 </r>
       <r>   10.1961   -0.0000 </r>
       <r>   10.2936   -0.0000 </r>
       <r>   10.5346   -0.0000 </r>
       <r>   10.6917   -0.0000 </r>
       <r>   10.9791   -0.0000 </r>
       <r>   11.0312   -0.0000 </r>
       <r>   11.2220   -0.0000 </r>
       <r>   11.4301   -0.0000 </r>
       <r>   11.5579   -0.0000 </r>
      </set>
      <set comment="kpoint 8">
       <r>   -3.5970    1.0000 </r>
       <r>   -2.3151    1.0000 </r>
       <r>   -1.8677    1.0000 </r>
       <r>   -1.2427    1.0000 </r>
       <r>   -0.8456    1.0000 </r>
       <r>   -0.5970    1.0000 </r>
       <r>   -0.3981    1.0000 </r>
       <r>   -0.1775    1.0000 </r>
       <r>    0.2826    1.0000 </r>
       <r>    0.5833    1.0000 </r>
       <r>    0.9532    1.0000 </r>
       <r>    1.3621    1.0000 </r>
       <r>    1.5626    1.0000 </r>
       <r>    1.8872    1.0000 </r>
       <r>    2.2056    1.0000 </r>
       <r>    2.5540    1.0000 </r>
       <r>    2.8599    1.0000 </r>
       <r>    3.1846    1.0000 </r>
       <r>    3.3456    1.0000 </r>
       <r>    3.7221    1.0000 </r>
       <r>    4.1574    1.0000 </r>
       <r>    4.3267    1.0000 </r>
       <r>    4.4102    1.0000 </r>
       <r>    4.6286    1.0000 </r>
       <r>    4.7855    1.0000 </r>
       <r>    4.8506    1.0000 </r>
       <r>    5.1713    1.0000 </r>
       <r>    5.3501    1.0000 </r>
       <r>    5.4960    1.0000 </r>
       <r>    5.6951    1.0000 </r>
       <r>    5.8611    1.0000 </r>
       <r>    5.9849    1.0000 </r>
       <r>    6.1884    1.0000 </r>
       <r>    6.3409    1.0000 </r>
       <r>    6.4483    1.0000 </r>
       <r>    6.5864    1.0000 </r>
       <r>    6.7678    1.0000 </r>
       <r>    6.9401    1.0000 </r>
       <r>    7.0573    1.0000 </r>
       <r>    7.2973    1.0039 </r>
       <r>    7.5602    1.0092 </r>
       <r>    7.7536    0.4331 </r>
       <r>    7.8972    0.0107 </r>
       <r>    8.2303   -0.0014 </r>
       <r>    8.3494   -0.0001 </r>
       <r>    8.5621   -0.0000 </r>
       <r>    8.7048   -0.0000 </r>
       <r>    8.8406   -0.0000 </r>
       <r>    9.0573   -0.0000 </r>
       <r>    9.2003   -0.0000 </r>
       <r>    9.2803   -0.0000 </r>
       <r>    9.3870   -0.0000 </r>
       <r>    9.7771   -0.0000 </r>
       <r>    9.8897   -0.0000 </r>
       <r>   10.1184   -0.0000 </r>
       <r>   10.2474   -0.0000 </r>
       <r>   10.4642   -0.0000 </r>
       <r>   10.5607   -0.0000 </r>
       <r>   10.6721   -0.0000 </r>
       <r>   10.7776   -0.0000 </r>
       <r>   11.0061   -0.0000 </r>
       <r>   11.2507   -0.0000 </r>
       <r>   11.3011   -0.0000 </r>
       <r>   11.5144   -0.0000 </r>
      </set>
      <set comment="kpoint 9">
       <r>   -3.5524    1.0000 </r>
       <r>   -2.5584    1.0000 </r>
       <r>   -1.6261    1.0000 </r>
       <r>   -1.2642    1.0000 </r>
       <r>   -0.8087    1.0000 </r>
       <r>   -0.6854    1.0000 </r>
       <r>   -0.4146    1.0000 </r>
       <r>    0.0040    1.0000 </r>
       <r>    0.3076    1.0000 </r>
       <r>    0.6335    1.0000 </r>
       <r>    0.8168    1.0000 </r>
       <r>    1.3583    1.0000 </r>
       <r>    1.6711    1.0000 </r>
       <r>    1.7343    1.0000 </r>
       <r>    2.1425    1.0000 </r>
       <r>    2.4641    1.0000 </r>
       <r>    2.8884    1.0000 </r>
       <r>    3.0893    1.0000 </r>
       <r>    3.3527    1.0000 </r>
       <r>    3.8525    1.0000 </r>
       <r>    3.9598    1.0000 </r>
       <r>    4.2266    1.0000 </r>
       <r>    4.4850    1.0000 </r>
       <r>    4.6220    1.0000 </r>
       <r>    4.7731    1.0000 </r>
       <r>    4.9779    1.0000 </r>
       <r>    5.2604    1.0000 </r>
       <r>    5.3797    1.0000 </r>
       <r>    5.5322    1.0000 </r>
       <r>    5.7030    1.0000 </r>
       <r>    5.7628    1.0000 </r>
       <r>    6.0619    1.0000 </r>
       <r>    6.1448    1.0000 </r>
       <r>    6.4131    1.0000 </r>
       <r>    6.5128    1.0000 </r>
       <r>    6.7180    1.0000 </r>
       <r>    6.8745    1.0000 </r>
       <r>    7.0283    1.0000 </r>
       <r>    7.0908    1.0000 </r>
       <r>    7.2809    1.0029 </r>
       <r>    7.5346    1.0267 </r>
       <r>    7.8667    0.0610 </r>
       <r>    7.9766   -0.0353 </r>
       <r>    8.1306   -0.0090 </r>
       <r>    8.2004   -0.0026 </r>
       <r>    8.5045   -0.0000 </r>
       <r>    8.6821   -0.0000 </r>
       <r>    8.8788   -0.0000 </r>
       <r>    9.0462   -0.0000 </r>
       <r>    9.1749   -0.0000 </r>
       <r>    9.3523   -0.0000 </r>
       <r>    9.5845   -0.0000 </r>
       <r>    9.7240   -0.0000 </r>
       <r>    9.7914   -0.0000 </r>
       <r>    9.8978   -0.0000 </r>
       <r>    9.9484   -0.0000 </r>
       <r>   10.2791   -0.0000 </r>
       <r>   10.4644   -0.0000 </r>
       <r>   10.5967   -0.0000 </r>
       <r>   10.8314   -0.0000 </r>
       <r>   11.0204   -0.0000 </r>
       <r>   11.2079   -0.0000 </r>
       <r>   11.3275   -0.0000 </r>
       <r>   11.4586   -0.0000 </r>
      </set>
      <set comment="kpoint 10">
       <r>   -3.5968    1.0000 </r>
       <r>   -2.2262    1.0000 </r>
       <r>   -1.8550    1.0000 </r>
       <r>   -1.5869    1.0000 </r>
       <r>   -0.8018    1.0000 </r>
       <r>   -0.5883    1.0000 </r>
       <r>   -0.1839    1.0000 </r>
       <r>   -0.0266    1.0000 </r>
       <r>    0.2871    1.0000 </r>
       <r>    0.5707    1.0000 </r>
       <r>    0.9687    1.0000 </r>
       <r>    1.3515    1.0000 </r>
       <r>    1.5578    1.0000 </r>
       <r>    1.8046    1.0000 </r>
       <r>    2.0801    1.0000 </r>
       <r>    2.4995    1.0000 </r>
       <r>    2.7933    1.0000 </r>
       <r>    3.1649    1.0000 </r>
       <r>    3.3236    1.0000 </r>
       <r>    3.8618    1.0000 </r>
       <r>    3.9774    1.0000 </r>
       <r>    4.3890    1.0000 </r>
       <r>    4.4848    1.0000 </r>
       <r>    4.6024    1.0000 </r>
       <r>    4.7941    1.0000 </r>
       <r>    5.0133    1.0000 </r>
       <r>    5.1628    1.0000 </r>
       <r>    5.3118    1.0000 </r>
       <r>    5.4823    1.0000 </r>
       <r>    5.7250    1.0000 </r>
       <r>    5.8706    1.0000 </r>
       <r>    5.9640    1.0000 </r>
       <r>    6.1628    1.0000 </r>
       <r>    6.2766    1.0000 </r>
       <r>    6.5076    1.0000 </r>
       <r>    6.5349    1.0000 </r>
       <r>    6.7361    1.0000 </r>
       <r>    7.0764    1.0000 </r>
       <r>    7.1480    1.0001 </r>
       <r>    7.3996    1.0189 </r>
       <r>    7.5251    1.0305 </r>
       <r>    7.7649    0.3866 </r>
       <r>    7.9320   -0.0219 </r>
       <r>    8.1575   -0.0057 </r>
       <r>    8.3992   -0.0000 </r>
       <r>    8.6163   -0.0000 </r>
       <r>    8.7017   -0.0000 </r>
       <r>    8.8846   -0.0000 </r>
       <r>    9.1244   -0.0000 </r>
       <r>    9.2260   -0.0000 </r>
       <r>    9.3062   -0.0000 </r>
       <r>    9.4931   -0.0000 </r>
       <r>    9.6202   -0.0000 </r>
       <r>    9.7336   -0.0000 </r>
       <r>   10.0736   -0.0000 </r>
       <r>   10.2317   -0.0000 </r>
       <r>   10.3523   -0.0000 </r>
       <r>   10.5560   -0.0000 </r>
       <r>   10.6492   -0.0000 </r>
       <r>   10.7383   -0.0000 </r>
       <r>   10.8833   -0.0000 </r>
       <r>   11.0743   -0.0000 </r>
       <r>   11.1815   -0.0000 </r>
       <r>   11.5052   -0.0000 </r>
      </set>
      <set comment="kpoint 11">
       <r>   -3.6046    1.0000 </r>
       <r>   -2.2312    1.0000 </r>
       <r>   -1.8646    1.0000 </r>
       <r>   -1.3659    1.0000 </r>
       <r>   -1.0877    1.0000 </r>
       <r>   -0.4995    1.0000 </r>
       <r>   -0.2484    1.0000 </r>
       <r>    0.1346    1.0000 </r>
       <r>    0.1961    1.0000 </r>
       <r>    0.4535    1.0000 </r>
       <r>    0.9281    1.0000 </r>
       <r>    1.1850    1.0000 </r>
       <r>    1.7461    1.0000 </r>
       <r>    2.0333    1.0000 </r>
       <r>    2.1729    1.0000 </r>
       <r>    2.4682    1.0000 </r>
       <r>    2.7545    1.0000 </r>
       <r>    3.0711    1.0000 </r>
       <r>    3.6041    1.0000 </r>
       <r>    3.6690    1.0000 </r>
       <r>    4.0117    1.0000 </r>
       <r>    4.2043    1.0000 </r>
       <r>    4.3908    1.0000 </r>
       <r>    4.5158    1.0000 </r>
       <r>    4.8978    1.0000 </r>
       <r>    5.0519    1.0000 </r>
       <r>    5.1370    1.0000 </r>
       <r>    5.4327    1.0000 </r>
       <r>    5.5604    1.0000 </r>
       <r>    5.7647    1.0000 </r>
       <r>    5.8757    1.0000 </r>
       <r>    5.9365    1.0000 </r>
       <r>    6.1042    1.0000 </r>
       <r>    6.2941    1.0000 </r>
       <r>    6.4074    1.0000 </r>
       <r>    6.5845    1.0000 </r>
       <r>    6.7445    1.0000 </r>
       <r>    6.9399    1.0000 </r>
       <r>    7.1955    1.0004 </r>
       <r>    7.3980    1.0186 </r>
       <r>    7.6090    0.9388 </r>
       <r>    7.7030    0.6449 </r>
       <r>    7.9643   -0.0340 </r>
       <r>    8.2692   -0.0006 </r>
       <r>    8.3292   -0.0001 </r>
       <r>    8.5122   -0.0000 </r>
       <r>    8.6847   -0.0000 </r>
       <r>    8.7579   -0.0000 </r>
       <r>    8.9634   -0.0000 </r>
       <r>    9.0981   -0.0000 </r>
       <r>    9.2793   -0.0000 </r>
       <r>    9.5563   -0.0000 </r>
       <r>    9.7894   -0.0000 </r>
       <r>    9.8226   -0.0000 </r>
       <r>    9.9670   -0.0000 </r>
       <r>   10.1310   -0.0000 </r>
       <r>   10.3647   -0.0000 </r>
       <r>   10.5288   -0.0000 </r>
       <r>   10.7878   -0.0000 </r>
       <r>   11.0214   -0.0000 </r>
       <r>   11.1136   -0.0000 </r>
       <r>   11.3264   -0.0000 </r>
       <r>   11.3871   -0.0000 </r>
       <r>   11.4545   -0.0000 </r>
      </set>
      <set comment="kpoint 12">
       <r>   -3.5764    1.0000 </r>
       <r>   -2.3771    1.0000 </r>
       <r>   -1.9232    1.0000 </r>
       <r>   -1.2115    1.0000 </r>
       <r>   -0.7318    1.0000 </r>
       <r>   -0.5059    1.0000 </r>
       <r>   -0.4443    1.0000 </r>
       <r>   -0.2360    1.0000 </r>
       <r>    0.2627    1.0000 </r>
       <r>    0.6631    1.0000 </r>
       <r>    1.0735    1.0000 </r>
       <r>    1.3200    1.0000 </r>
       <r>    1.5240    1.0000 </r>
       <r>    1.7460    1.0000 </r>
       <r>    2.2279    1.0000 </r>
       <r>    2.6291    1.0000 </r>
       <r>    2.6904    1.0000 </r>
       <r>    2.9696    1.0000 </r>
       <r>    3.4646    1.0000 </r>
       <r>    3.8058    1.0000 </r>
       <r>    3.9497    1.0000 </r>
       <r>    4.2752    1.0000 </r>
       <r>    4.4805    1.0000 </r>
       <r>    4.6634    1.0000 </r>
       <r>    4.8424    1.0000 </r>
       <r>    4.9738    1.0000 </r>
       <r>    5.2025    1.0000 </r>
       <r>    5.4295    1.0000 </r>
       <r>    5.5654    1.0000 </r>
       <r>    5.7073    1.0000 </r>
       <r>    5.9352    1.0000 </r>
       <r>    6.0474    1.0000 </r>
       <r>    6.1067    1.0000 </r>
       <r>    6.2017    1.0000 </r>
       <r>    6.4111    1.0000 </r>
       <r>    6.5499    1.0000 </r>
       <r>    6.7440    1.0000 </r>
       <r>    6.9864    1.0000 </r>
       <r>    7.1530    1.0001 </r>
       <r>    7.3382    1.0081 </r>
       <r>    7.6338    0.8809 </r>
       <r>    7.7880    0.2946 </r>
       <r>    7.9020    0.0048 </r>
       <r>    8.1596   -0.0055 </r>
       <r>    8.3769   -0.0000 </r>
       <r>    8.6367   -0.0000 </r>
       <r>    8.7613   -0.0000 </r>
       <r>    8.8457   -0.0000 </r>
       <r>    8.9674   -0.0000 </r>
       <r>    9.2210   -0.0000 </r>
       <r>    9.3090   -0.0000 </r>
       <r>    9.4704   -0.0000 </r>
       <r>    9.6257   -0.0000 </r>
       <r>    9.8579   -0.0000 </r>
       <r>    9.9776   -0.0000 </r>
       <r>   10.1419   -0.0000 </r>
       <r>   10.4135   -0.0000 </r>
       <r>   10.5754   -0.0000 </r>
       <r>   10.8136   -0.0000 </r>
       <r>   10.8883   -0.0000 </r>
       <r>   10.9740   -0.0000 </r>
       <r>   11.1094   -0.0000 </r>
       <r>   11.2918   -0.0000 </r>
       <r>   11.4521   -0.0000 </r>
      </set>
      <set comment="kpoint 13">
       <r>   -3.5764    1.0000 </r>
       <r>   -2.4656    1.0000 </r>
       <r>   -1.7074    1.0000 </r>
       <r>   -1.1890    1.0000 </r>
       <r>   -0.8956    1.0000 </r>
       <r>   -0.6362    1.0000 </r>
       <r>   -0.4574    1.0000 </r>
       <r>    0.0424    1.0000 </r>
       <r>    0.1909    1.0000 </r>
       <r>    0.4445    1.0000 </r>
       <r>    1.1335    1.0000 </r>
       <r>    1.2286    1.0000 </r>
       <r>    1.5864    1.0000 </r>
       <r>    2.0559    1.0000 </r>
       <r>    2.3418    1.0000 </r>
       <r>    2.4072    1.0000 </r>
       <r>    2.6090    1.0000 </r>
       <r>    2.9446    1.0000 </r>
       <r>    3.5332    1.0000 </r>
       <r>    3.6687    1.0000 </r>
       <r>    4.1709    1.0000 </r>
       <r>    4.3400    1.0000 </r>
       <r>    4.5126    1.0000 </r>
       <r>    4.6332    1.0000 </r>
       <r>    4.7684    1.0000 </r>
       <r>    4.9892    1.0000 </r>
       <r>    5.1772    1.0000 </r>
       <r>    5.3942    1.0000 </r>
       <r>    5.5652    1.0000 </r>
       <r>    5.6962    1.0000 </r>
       <r>    5.8643    1.0000 </r>
       <r>    6.0283    1.0000 </r>
       <r>    6.1585    1.0000 </r>
       <r>    6.3073    1.0000 </r>
       <r>    6.4378    1.0000 </r>
       <r>    6.5215    1.0000 </r>
       <r>    6.7004    1.0000 </r>
       <r>    6.9851    1.0000 </r>
       <r>    7.0096    1.0000 </r>
       <r>    7.1930    1.0004 </r>
       <r>    7.5649    1.0047 </r>
       <r>    7.8414    0.1201 </r>
       <r>    8.1078   -0.0126 </r>
       <r>    8.1884   -0.0032 </r>
       <r>    8.4584   -0.0000 </r>
       <r>    8.5573   -0.0000 </r>
       <r>    8.6737   -0.0000 </r>
       <r>    8.7692   -0.0000 </r>
       <r>    8.8511   -0.0000 </r>
       <r>    9.2304   -0.0000 </r>
       <r>    9.2896   -0.0000 </r>
       <r>    9.5154   -0.0000 </r>
       <r>    9.7514   -0.0000 </r>
       <r>    9.8036   -0.0000 </r>
       <r>   10.1312   -0.0000 </r>
       <r>   10.2392   -0.0000 </r>
       <r>   10.3652   -0.0000 </r>
       <r>   10.5587   -0.0000 </r>
       <r>   10.7222   -0.0000 </r>
       <r>   10.8290   -0.0000 </r>
       <r>   11.0058   -0.0000 </r>
       <r>   11.1477   -0.0000 </r>
       <r>   11.3167   -0.0000 </r>
       <r>   11.5036   -0.0000 </r>
      </set>
      <set comment="kpoint 14">
       <r>   -3.5787    1.0000 </r>
       <r>   -2.4257    1.0000 </r>
       <r>   -1.7719    1.0000 </r>
       <r>   -1.2834    1.0000 </r>
       <r>   -0.7998    1.0000 </r>
       <r>   -0.5673    1.0000 </r>
       <r>   -0.4118    1.0000 </r>
       <r>   -0.0976    1.0000 </r>
       <r>    0.2081    1.0000 </r>
       <r>    0.4949    1.0000 </r>
       <r>    1.0724    1.0000 </r>
       <r>    1.3528    1.0000 </r>
       <r>    1.6739    1.0000 </r>
       <r>    1.8442    1.0000 </r>
       <r>    2.2695    1.0000 </r>
       <r>    2.4726    1.0000 </r>
       <r>    2.6769    1.0000 </r>
       <r>    2.9772    1.0000 </r>
       <r>    3.4755    1.0000 </r>
       <r>    3.7388    1.0000 </r>
       <r>    4.0331    1.0000 </r>
       <r>    4.3471    1.0000 </r>
       <r>    4.4395    1.0000 </r>
       <r>    4.6629    1.0000 </r>
       <r>    4.8225    1.0000 </r>
       <r>    4.9680    1.0000 </r>
       <r>    5.1199    1.0000 </r>
       <r>    5.4382    1.0000 </r>
       <r>    5.5162    1.0000 </r>
       <r>    5.7053    1.0000 </r>
       <r>    5.8311    1.0000 </r>
       <r>    6.1208    1.0000 </r>
       <r>    6.1883    1.0000 </r>
       <r>    6.3031    1.0000 </r>
       <r>    6.4854    1.0000 </r>
       <r>    6.6529    1.0000 </r>
       <r>    6.6905    1.0000 </r>
       <r>    6.9090    1.0000 </r>
       <r>    6.9811    1.0000 </r>
       <r>    7.3031    1.0044 </r>
       <r>    7.5872    0.9769 </r>
       <r>    7.8436    0.1142 </r>
       <r>    8.0377   -0.0277 </r>
       <r>    8.1606   -0.0054 </r>
       <r>    8.3752   -0.0000 </r>
       <r>    8.5538   -0.0000 </r>
       <r>    8.5930   -0.0000 </r>
       <r>    8.8313   -0.0000 </r>
       <r>    9.0635   -0.0000 </r>
       <r>    9.1920   -0.0000 </r>
       <r>    9.3647   -0.0000 </r>
       <r>    9.4224   -0.0000 </r>
       <r>    9.7909   -0.0000 </r>
       <r>    9.9325   -0.0000 </r>
       <r>   10.0980   -0.0000 </r>
       <r>   10.1527   -0.0000 </r>
       <r>   10.3322   -0.0000 </r>
       <r>   10.4987   -0.0000 </r>
       <r>   10.7062   -0.0000 </r>
       <r>   10.7904   -0.0000 </r>
       <r>   10.9856   -0.0000 </r>
       <r>   11.0745   -0.0000 </r>
       <r>   11.3379   -0.0000 </r>
       <r>   11.4354   -0.0000 </r>
      </set>
      <set comment="kpoint 15">
       <r>   -3.6036    1.0000 </r>
       <r>   -2.3221    1.0000 </r>
       <r>   -1.7066    1.0000 </r>
       <r>   -1.2918    1.0000 </r>
       <r>   -1.1702    1.0000 </r>
       <r>   -0.5549    1.0000 </r>
       <r>   -0.2675    1.0000 </r>
       <r>    0.1057    1.0000 </r>
       <r>    0.2176    1.0000 </r>
       <r>    0.4131    1.0000 </r>
       <r>    0.9529    1.0000 </r>
       <r>    1.1112    1.0000 </r>
       <r>    1.8016    1.0000 </r>
       <r>    2.0158    1.0000 </r>
       <r>    2.2594    1.0000 </r>
       <r>    2.3858    1.0000 </r>
       <r>    2.9539    1.0000 </r>
       <r>    3.0302    1.0000 </r>
       <r>    3.5135    1.0000 </r>
       <r>    3.8263    1.0000 </r>
       <r>    4.0188    1.0000 </r>
       <r>    4.2126    1.0000 </r>
       <r>    4.3991    1.0000 </r>
       <r>    4.4894    1.0000 </r>
       <r>    4.7744    1.0000 </r>
       <r>    5.0508    1.0000 </r>
       <r>    5.2152    1.0000 </r>
       <r>    5.3284    1.0000 </r>
       <r>    5.4631    1.0000 </r>
       <r>    5.7703    1.0000 </r>
       <r>    5.8311    1.0000 </r>
       <r>    6.0102    1.0000 </r>
       <r>    6.1652    1.0000 </r>
       <r>    6.2733    1.0000 </r>
       <r>    6.4052    1.0000 </r>
       <r>    6.5943    1.0000 </r>
       <r>    6.8029    1.0000 </r>
       <r>    6.9569    1.0000 </r>
       <r>    7.0928    1.0000 </r>
       <r>    7.3215    1.0061 </r>
       <r>    7.6130    0.9304 </r>
       <r>    7.8209    0.1798 </r>
       <r>    7.9543   -0.0317 </r>
       <r>    8.1268   -0.0095 </r>
       <r>    8.3414   -0.0001 </r>
       <r>    8.5496   -0.0000 </r>
       <r>    8.6910   -0.0000 </r>
       <r>    8.7752   -0.0000 </r>
       <r>    8.8487   -0.0000 </r>
       <r>    8.9959   -0.0000 </r>
       <r>    9.3605   -0.0000 </r>
       <r>    9.6416   -0.0000 </r>
       <r>    9.7417   -0.0000 </r>
       <r>    9.9321   -0.0000 </r>
       <r>   10.0176   -0.0000 </r>
       <r>   10.1554   -0.0000 </r>
       <r>   10.2852   -0.0000 </r>
       <r>   10.5614   -0.0000 </r>
       <r>   10.7851   -0.0000 </r>
       <r>   10.9963   -0.0000 </r>
       <r>   11.1480   -0.0000 </r>
       <r>   11.2347   -0.0000 </r>
       <r>   11.4090   -0.0000 </r>
       <r>   11.7365   -0.0000 </r>
      </set>
      <set comment="kpoint 16">
       <r>   -3.5751    1.0000 </r>
       <r>   -2.3826    1.0000 </r>
       <r>   -1.8069    1.0000 </r>
       <r>   -1.4672    1.0000 </r>
       <r>   -0.8192    1.0000 </r>
       <r>   -0.4390    1.0000 </r>
       <r>   -0.3056    1.0000 </r>
       <r>   -0.0212    1.0000 </r>
       <r>    0.1993    1.0000 </r>
       <r>    0.6141    1.0000 </r>
       <r>    1.0887    1.0000 </r>
       <r>    1.2993    1.0000 </r>
       <r>    1.5365    1.0000 </r>
       <r>    1.7616    1.0000 </r>
       <r>    2.0484    1.0000 </r>
       <r>    2.4338    1.0000 </r>
       <r>    2.8490    1.0000 </r>
       <r>    3.0884    1.0000 </r>
       <r>    3.3275    1.0000 </r>
       <r>    3.8567    1.0000 </r>
       <r>    4.0045    1.0000 </r>
       <r>    4.3395    1.0000 </r>
       <r>    4.4979    1.0000 </r>
       <r>    4.7006    1.0000 </r>
       <r>    4.7974    1.0000 </r>
       <r>    4.9650    1.0000 </r>
       <r>    5.1733    1.0000 </r>
       <r>    5.4019    1.0000 </r>
       <r>    5.5960    1.0000 </r>
       <r>    5.7026    1.0000 </r>
       <r>    5.9045    1.0000 </r>
       <r>    5.9600    1.0000 </r>
       <r>    6.0954    1.0000 </r>
       <r>    6.1632    1.0000 </r>
       <r>    6.4474    1.0000 </r>
       <r>    6.6345    1.0000 </r>
       <r>    6.7803    1.0000 </r>
       <r>    6.9186    1.0000 </r>
       <r>    7.1770    1.0003 </r>
       <r>    7.4544    1.0311 </r>
       <r>    7.6844    0.7171 </r>
       <r>    7.8745    0.0459 </r>
       <r>    7.9427   -0.0275 </r>
       <r>    8.2311   -0.0013 </r>
       <r>    8.3407   -0.0001 </r>
       <r>    8.5475   -0.0000 </r>
       <r>    8.6670   -0.0000 </r>
       <r>    8.8513   -0.0000 </r>
       <r>    9.0470   -0.0000 </r>
       <r>    9.1067   -0.0000 </r>
       <r>    9.3119   -0.0000 </r>
       <r>    9.5264   -0.0000 </r>
       <r>    9.6615   -0.0000 </r>
       <r>    9.6910   -0.0000 </r>
       <r>   10.0520   -0.0000 </r>
       <r>   10.1850   -0.0000 </r>
       <r>   10.3688   -0.0000 </r>
       <r>   10.5233   -0.0000 </r>
       <r>   10.7074   -0.0000 </r>
       <r>   10.8266   -0.0000 </r>
       <r>   10.9366   -0.0000 </r>
       <r>   11.0458   -0.0000 </r>
       <r>   11.2781   -0.0000 </r>
       <r>   11.4031   -0.0000 </r>
      </set>
      <set comment="kpoint 17">
       <r>   -3.3873    1.0000 </r>
       <r>   -2.7267    1.0000 </r>
       <r>   -1.9149    1.0000 </r>
       <r>   -1.3993    1.0000 </r>
       <r>   -0.8863    1.0000 </r>
       <r>   -0.5541    1.0000 </r>
       <r>   -0.3571    1.0000 </r>
       <r>    0.1125    1.0000 </r>
       <r>    0.4180    1.0000 </r>
       <r>    0.8134    1.0000 </r>
       <r>    1.2267    1.0000 </r>
       <r>    1.5401    1.0000 </r>
       <r>    1.7305    1.0000 </r>
       <r>    2.0269    1.0000 </r>
       <r>    2.2365    1.0000 </r>
       <r>    2.5054    1.0000 </r>
       <r>    2.8003    1.0000 </r>
       <r>    3.0142    1.0000 </r>
       <r>    3.3475    1.0000 </r>
       <r>    3.5643    1.0000 </r>
       <r>    3.6862    1.0000 </r>
       <r>    3.9333    1.0000 </r>
       <r>    4.1088    1.0000 </r>
       <r>    4.2225    1.0000 </r>
       <r>    4.4518    1.0000 </r>
       <r>    4.7789    1.0000 </r>
       <r>    4.9255    1.0000 </r>
       <r>    5.0744    1.0000 </r>
       <r>    5.3757    1.0000 </r>
       <r>    5.6056    1.0000 </r>
       <r>    5.7837    1.0000 </r>
       <r>    5.9529    1.0000 </r>
       <r>    6.1835    1.0000 </r>
       <r>    6.3266    1.0000 </r>
       <r>    6.5183    1.0000 </r>
       <r>    6.7028    1.0000 </r>
       <r>    6.8931    1.0000 </r>
       <r>    7.1291    1.0001 </r>
       <r>    7.5958    0.9632 </r>
       <r>    7.6973    0.6674 </r>
       <r>    7.9367   -0.0246 </r>
       <r>    8.1921   -0.0030 </r>
       <r>    8.3000   -0.0003 </r>
       <r>    8.4337   -0.0000 </r>
       <r>    8.6210   -0.0000 </r>
       <r>    8.8086   -0.0000 </r>
       <r>    8.8728   -0.0000 </r>
       <r>    9.1019   -0.0000 </r>
       <r>    9.3186   -0.0000 </r>
       <r>    9.4078   -0.0000 </r>
       <r>    9.5810   -0.0000 </r>
       <r>    9.7510   -0.0000 </r>
       <r>    9.9367   -0.0000 </r>
       <r>   10.0776   -0.0000 </r>
       <r>   10.1407   -0.0000 </r>
       <r>   10.2405   -0.0000 </r>
       <r>   10.3794   -0.0000 </r>
       <r>   10.3926   -0.0000 </r>
       <r>   10.5582   -0.0000 </r>
       <r>   10.8292   -0.0000 </r>
       <r>   10.9012   -0.0000 </r>
       <r>   11.0517   -0.0000 </r>
       <r>   11.1898   -0.0000 </r>
       <r>   11.2380   -0.0000 </r>
      </set>
      <set comment="kpoint 18">
       <r>   -3.4668    1.0000 </r>
       <r>   -2.4423    1.0000 </r>
       <r>   -2.0359    1.0000 </r>
       <r>   -1.5320    1.0000 </r>
       <r>   -0.8923    1.0000 </r>
       <r>   -0.7146    1.0000 </r>
       <r>   -0.1604    1.0000 </r>
       <r>    0.0560    1.0000 </r>
       <r>    0.4878    1.0000 </r>
       <r>    0.9306    1.0000 </r>
       <r>    1.0885    1.0000 </r>
       <r>    1.4279    1.0000 </r>
       <r>    1.6039    1.0000 </r>
       <r>    2.1614    1.0000 </r>
       <r>    2.3382    1.0000 </r>
       <r>    2.5972    1.0000 </r>
       <r>    2.8686    1.0000 </r>
       <r>    3.1411    1.0000 </r>
       <r>    3.4469    1.0000 </r>
       <r>    3.5392    1.0000 </r>
       <r>    3.6715    1.0000 </r>
       <r>    3.8348    1.0000 </r>
       <r>    3.9958    1.0000 </r>
       <r>    4.2007    1.0000 </r>
       <r>    4.4552    1.0000 </r>
       <r>    4.8205    1.0000 </r>
       <r>    4.9914    1.0000 </r>
       <r>    5.0405    1.0000 </r>
       <r>    5.4008    1.0000 </r>
       <r>    5.5327    1.0000 </r>
       <r>    5.7119    1.0000 </r>
       <r>    5.8604    1.0000 </r>
       <r>    5.9756    1.0000 </r>
       <r>    6.3398    1.0000 </r>
       <r>    6.5167    1.0000 </r>
       <r>    6.7562    1.0000 </r>
       <r>    6.8756    1.0000 </r>
       <r>    7.3625    1.0117 </r>
       <r>    7.4496    1.0302 </r>
       <r>    7.6522    0.8281 </r>
       <r>    7.8725    0.0497 </r>
       <r>    8.1129   -0.0117 </r>
       <r>    8.3176   -0.0002 </r>
       <r>    8.4380   -0.0000 </r>
       <r>    8.6011   -0.0000 </r>
       <r>    8.7607   -0.0000 </r>
       <r>    9.0185   -0.0000 </r>
       <r>    9.0855   -0.0000 </r>
       <r>    9.2736   -0.0000 </r>
       <r>    9.4815   -0.0000 </r>
       <r>    9.6919   -0.0000 </r>
       <r>    9.7906   -0.0000 </r>
       <r>    9.8905   -0.0000 </r>
       <r>   10.0094   -0.0000 </r>
       <r>   10.2018   -0.0000 </r>
       <r>   10.2608   -0.0000 </r>
       <r>   10.3909   -0.0000 </r>
       <r>   10.4872   -0.0000 </r>
       <r>   10.6421   -0.0000 </r>
       <r>   10.7259   -0.0000 </r>
       <r>   10.8476   -0.0000 </r>
       <r>   11.1334   -0.0000 </r>
       <r>   11.1961   -0.0000 </r>
       <r>   11.3654   -0.0000 </r>
      </set>
      <set comment="kpoint 19">
       <r>   -3.4640    1.0000 </r>
       <r>   -2.5667    1.0000 </r>
       <r>   -1.8802    1.0000 </r>
       <r>   -1.3354    1.0000 </r>
       <r>   -0.9107    1.0000 </r>
       <r>   -0.8338    1.0000 </r>
       <r>   -0.3768    1.0000 </r>
       <r>    0.0672    1.0000 </r>
       <r>    0.4786    1.0000 </r>
       <r>    0.9749    1.0000 </r>
       <r>    1.0851    1.0000 </r>
       <r>    1.3396    1.0000 </r>
       <r>    1.5041    1.0000 </r>
       <r>    2.1405    1.0000 </r>
       <r>    2.4961    1.0000 </r>
       <r>    2.7963    1.0000 </r>
       <r>    2.9464    1.0000 </r>
       <r>    3.2613    1.0000 </r>
       <r>    3.4125    1.0000 </r>
       <r>    3.5622    1.0000 </r>
       <r>    3.7065    1.0000 </r>
       <r>    3.9804    1.0000 </r>
       <r>    4.0224    1.0000 </r>
       <r>    4.2415    1.0000 </r>
       <r>    4.4605    1.0000 </r>
       <r>    4.6397    1.0000 </r>
       <r>    4.8408    1.0000 </r>
       <r>    4.9660    1.0000 </r>
       <r>    5.2644    1.0000 </r>
       <r>    5.4549    1.0000 </r>
       <r>    5.7150    1.0000 </r>
       <r>    5.8862    1.0000 </r>
       <r>    6.0373    1.0000 </r>
       <r>    6.2505    1.0000 </r>
       <r>    6.4588    1.0000 </r>
       <r>    6.6845    1.0000 </r>
       <r>    6.8693    1.0000 </r>
       <r>    7.3695    1.0129 </r>
       <r>    7.4363    1.0273 </r>
       <r>    7.7365    0.5056 </r>
       <r>    7.9732   -0.0351 </r>
       <r>    8.0456   -0.0259 </r>
       <r>    8.2117   -0.0020 </r>
       <r>    8.3934   -0.0000 </r>
       <r>    8.5283   -0.0000 </r>
       <r>    8.8314   -0.0000 </r>
       <r>    9.0002   -0.0000 </r>
       <r>    9.1255   -0.0000 </r>
       <r>    9.2421   -0.0000 </r>
       <r>    9.4342   -0.0000 </r>
       <r>    9.6192   -0.0000 </r>
       <r>    9.7582   -0.0000 </r>
       <r>    9.9134   -0.0000 </r>
       <r>   10.1063   -0.0000 </r>
       <r>   10.2818   -0.0000 </r>
       <r>   10.3016   -0.0000 </r>
       <r>   10.4129   -0.0000 </r>
       <r>   10.6078   -0.0000 </r>
       <r>   10.7655   -0.0000 </r>
       <r>   10.8439   -0.0000 </r>
       <r>   11.0239   -0.0000 </r>
       <r>   11.0960   -0.0000 </r>
       <r>   11.2539   -0.0000 </r>
       <r>   11.4390   -0.0000 </r>
      </set>
      <set comment="kpoint 20">
       <r>   -3.4609    1.0000 </r>
       <r>   -2.5752    1.0000 </r>
       <r>   -1.8767    1.0000 </r>
       <r>   -1.3524    1.0000 </r>
       <r>   -0.9235    1.0000 </r>
       <r>   -0.8014    1.0000 </r>
       <r>   -0.3357    1.0000 </r>
       <r>    0.0738    1.0000 </r>
       <r>    0.4013    1.0000 </r>
       <r>    0.9154    1.0000 </r>
       <r>    1.1451    1.0000 </r>
       <r>    1.2878    1.0000 </r>
       <r>    1.6708    1.0000 </r>
       <r>    2.1006    1.0000 </r>
       <r>    2.5032    1.0000 </r>
       <r>    2.7862    1.0000 </r>
       <r>    2.9327    1.0000 </r>
       <r>    3.2265    1.0000 </r>
       <r>    3.3041    1.0000 </r>
       <r>    3.5926    1.0000 </r>
       <r>    3.7117    1.0000 </r>
       <r>    3.8634    1.0000 </r>
       <r>    4.0890    1.0000 </r>
       <r>    4.2674    1.0000 </r>
       <r>    4.4197    1.0000 </r>
       <r>    4.7891    1.0000 </r>
       <r>    4.8829    1.0000 </r>
       <r>    4.9828    1.0000 </r>
       <r>    5.2953    1.0000 </r>
       <r>    5.4982    1.0000 </r>
       <r>    5.6583    1.0000 </r>
       <r>    5.7875    1.0000 </r>
       <r>    6.0370    1.0000 </r>
       <r>    6.3443    1.0000 </r>
       <r>    6.4742    1.0000 </r>
       <r>    6.6238    1.0000 </r>
       <r>    6.8441    1.0000 </r>
       <r>    7.3250    1.0065 </r>
       <r>    7.5736    0.9953 </r>
       <r>    7.7312    0.5280 </r>
       <r>    7.9469   -0.0292 </r>
       <r>    8.0975   -0.0145 </r>
       <r>    8.1662   -0.0049 </r>
       <r>    8.3203   -0.0002 </r>
       <r>    8.4795   -0.0000 </r>
       <r>    8.8362   -0.0000 </r>
       <r>    8.9495   -0.0000 </r>
       <r>    9.0440   -0.0000 </r>
       <r>    9.3417   -0.0000 </r>
       <r>    9.5242   -0.0000 </r>
       <r>    9.6569   -0.0000 </r>
       <r>    9.8545   -0.0000 </r>
       <r>    9.8938   -0.0000 </r>
       <r>   10.0305   -0.0000 </r>
       <r>   10.1304   -0.0000 </r>
       <r>   10.3153   -0.0000 </r>
       <r>   10.4141   -0.0000 </r>
       <r>   10.5755   -0.0000 </r>
       <r>   10.7037   -0.0000 </r>
       <r>   10.8716   -0.0000 </r>
       <r>   11.0693   -0.0000 </r>
       <r>   11.1489   -0.0000 </r>
       <r>   11.3585   -0.0000 </r>
       <r>   11.4908   -0.0000 </r>
      </set>
      <set comment="kpoint 21">
       <r>   -3.3859    1.0000 </r>
       <r>   -2.7868    1.0000 </r>
       <r>   -1.7325    1.0000 </r>
       <r>   -1.3429    1.0000 </r>
       <r>   -0.9793    1.0000 </r>
       <r>   -0.6420    1.0000 </r>
       <r>   -0.4439    1.0000 </r>
       <r>    0.1291    1.0000 </r>
       <r>    0.2887    1.0000 </r>
       <r>    1.0152    1.0000 </r>
       <r>    1.1838    1.0000 </r>
       <r>    1.5228    1.0000 </r>
       <r>    1.8283    1.0000 </r>
       <r>    1.8827    1.0000 </r>
       <r>    2.1806    1.0000 </r>
       <r>    2.6045    1.0000 </r>
       <r>    2.9513    1.0000 </r>
       <r>    3.0885    1.0000 </r>
       <r>    3.3140    1.0000 </r>
       <r>    3.5846    1.0000 </r>
       <r>    3.7244    1.0000 </r>
       <r>    3.8349    1.0000 </r>
       <r>    4.1472    1.0000 </r>
       <r>    4.4094    1.0000 </r>
       <r>    4.5177    1.0000 </r>
       <r>    4.6801    1.0000 </r>
       <r>    4.8235    1.0000 </r>
       <r>    5.0855    1.0000 </r>
       <r>    5.3999    1.0000 </r>
       <r>    5.4721    1.0000 </r>
       <r>    5.6581    1.0000 </r>
       <r>    5.8650    1.0000 </r>
       <r>    6.1346    1.0000 </r>
       <r>    6.3402    1.0000 </r>
       <r>    6.4463    1.0000 </r>
       <r>    6.6239    1.0000 </r>
       <r>    6.8598    1.0000 </r>
       <r>    7.4037    1.0199 </r>
       <r>    7.5963    0.9625 </r>
       <r>    7.7386    0.4966 </r>
       <r>    8.0547   -0.0238 </r>
       <r>    8.1697   -0.0046 </r>
       <r>    8.2645   -0.0006 </r>
       <r>    8.3601   -0.0000 </r>
       <r>    8.5040   -0.0000 </r>
       <r>    8.7215   -0.0000 </r>
       <r>    8.9375   -0.0000 </r>
       <r>    9.0841   -0.0000 </r>
       <r>    9.3535   -0.0000 </r>
       <r>    9.4644   -0.0000 </r>
       <r>    9.5889   -0.0000 </r>
       <r>    9.7577   -0.0000 </r>
       <r>    9.9024   -0.0000 </r>
       <r>    9.9960   -0.0000 </r>
       <r>   10.1628   -0.0000 </r>
       <r>   10.2829   -0.0000 </r>
       <r>   10.4293   -0.0000 </r>
       <r>   10.5367   -0.0000 </r>
       <r>   10.7372   -0.0000 </r>
       <r>   10.8132   -0.0000 </r>
       <r>   10.8975   -0.0000 </r>
       <r>   11.0333   -0.0000 </r>
       <r>   11.1929   -0.0000 </r>
       <r>   11.2406   -0.0000 </r>
      </set>
      <set comment="kpoint 22">
       <r>   -3.4703    1.0000 </r>
       <r>   -2.4148    1.0000 </r>
       <r>   -2.0652    1.0000 </r>
       <r>   -1.5369    1.0000 </r>
       <r>   -0.8860    1.0000 </r>
       <r>   -0.6640    1.0000 </r>
       <r>   -0.2463    1.0000 </r>
       <r>    0.1779    1.0000 </r>
       <r>    0.3705    1.0000 </r>
       <r>    0.8554    1.0000 </r>
       <r>    1.0471    1.0000 </r>
       <r>    1.5751    1.0000 </r>
       <r>    1.7573    1.0000 </r>
       <r>    2.0400    1.0000 </r>
       <r>    2.2378    1.0000 </r>
       <r>    2.7038    1.0000 </r>
       <r>    2.9797    1.0000 </r>
       <r>    3.1226    1.0000 </r>
       <r>    3.3799    1.0000 </r>
       <r>    3.4518    1.0000 </r>
       <r>    3.6597    1.0000 </r>
       <r>    3.7101    1.0000 </r>
       <r>    4.1909    1.0000 </r>
       <r>    4.2762    1.0000 </r>
       <r>    4.4055    1.0000 </r>
       <r>    4.7459    1.0000 </r>
       <r>    4.9570    1.0000 </r>
       <r>    5.1660    1.0000 </r>
       <r>    5.3010    1.0000 </r>
       <r>    5.5057    1.0000 </r>
       <r>    5.6436    1.0000 </r>
       <r>    5.9209    1.0000 </r>
       <r>    6.0801    1.0000 </r>
       <r>    6.3156    1.0000 </r>
       <r>    6.4298    1.0000 </r>
       <r>    6.7211    1.0000 </r>
       <r>    6.9919    1.0000 </r>
       <r>    7.4049    1.0201 </r>
       <r>    7.5347    1.0267 </r>
       <r>    7.6451    0.8493 </r>
       <r>    7.9034    0.0031 </r>
       <r>    8.0578   -0.0231 </r>
       <r>    8.1208   -0.0104 </r>
       <r>    8.4041   -0.0000 </r>
       <r>    8.5470   -0.0000 </r>
       <r>    8.7554   -0.0000 </r>
       <r>    8.9535   -0.0000 </r>
       <r>    9.1265   -0.0000 </r>
       <r>    9.3771   -0.0000 </r>
       <r>    9.4871   -0.0000 </r>
       <r>    9.6377   -0.0000 </r>
       <r>    9.7674   -0.0000 </r>
       <r>    9.9320   -0.0000 </r>
       <r>   10.0560   -0.0000 </r>
       <r>   10.2060   -0.0000 </r>
       <r>   10.3214   -0.0000 </r>
       <r>   10.4897   -0.0000 </r>
       <r>   10.5703   -0.0000 </r>
       <r>   10.6518   -0.0000 </r>
       <r>   10.8474   -0.0000 </r>
       <r>   10.8758   -0.0000 </r>
       <r>   11.0854   -0.0000 </r>
       <r>   11.2916   -0.0000 </r>
       <r>   11.4005   -0.0000 </r>
      </set>
      <set comment="kpoint 23">
       <r>   -3.4782    1.0000 </r>
       <r>   -2.4158    1.0000 </r>
       <r>   -1.9849    1.0000 </r>
       <r>   -1.5163    1.0000 </r>
       <r>   -1.1703    1.0000 </r>
       <r>   -0.4812    1.0000 </r>
       <r>   -0.2325    1.0000 </r>
       <r>    0.0432    1.0000 </r>
       <r>    0.6317    1.0000 </r>
       <r>    0.8531    1.0000 </r>
       <r>    0.9855    1.0000 </r>
       <r>    1.4701    1.0000 </r>
       <r>    1.6324    1.0000 </r>
       <r>    2.2031    1.0000 </r>
       <r>    2.3901    1.0000 </r>
       <r>    2.5882    1.0000 </r>
       <r>    2.8580    1.0000 </r>
       <r>    3.0411    1.0000 </r>
       <r>    3.4977    1.0000 </r>
       <r>    3.5814    1.0000 </r>
       <r>    3.6321    1.0000 </r>
       <r>    3.9526    1.0000 </r>
       <r>    4.0969    1.0000 </r>
       <r>    4.2917    1.0000 </r>
       <r>    4.4051    1.0000 </r>
       <r>    4.5465    1.0000 </r>
       <r>    4.8064    1.0000 </r>
       <r>    4.9586    1.0000 </r>
       <r>    5.4894    1.0000 </r>
       <r>    5.6273    1.0000 </r>
       <r>    5.7269    1.0000 </r>
       <r>    5.8323    1.0000 </r>
       <r>    6.0286    1.0000 </r>
       <r>    6.3505    1.0000 </r>
       <r>    6.6129    1.0000 </r>
       <r>    6.6732    1.0000 </r>
       <r>    6.8520    1.0000 </r>
       <r>    7.2523    1.0016 </r>
       <r>    7.4625    1.0326 </r>
       <r>    7.5800    0.9871 </r>
       <r>    7.9305   -0.0209 </r>
       <r>    8.2104   -0.0021 </r>
       <r>    8.4179   -0.0000 </r>
       <r>    8.5725   -0.0000 </r>
       <r>    8.7553   -0.0000 </r>
       <r>    8.7988   -0.0000 </r>
       <r>    8.8656   -0.0000 </r>
       <r>    8.9907   -0.0000 </r>
       <r>    9.2419   -0.0000 </r>
       <r>    9.5143   -0.0000 </r>
       <r>    9.5749   -0.0000 </r>
       <r>    9.7420   -0.0000 </r>
       <r>    9.9212   -0.0000 </r>
       <r>    9.9861   -0.0000 </r>
       <r>   10.1548   -0.0000 </r>
       <r>   10.3601   -0.0000 </r>
       <r>   10.4268   -0.0000 </r>
       <r>   10.5239   -0.0000 </r>
       <r>   10.6072   -0.0000 </r>
       <r>   10.7017   -0.0000 </r>
       <r>   10.8753   -0.0000 </r>
       <r>   11.0387   -0.0000 </r>
       <r>   11.1630   -0.0000 </r>
       <r>   11.4693   -0.0000 </r>
      </set>
      <set comment="kpoint 24">
       <r>   -3.3669    1.0000 </r>
       <r>   -2.7730    1.0000 </r>
       <r>   -1.9049    1.0000 </r>
       <r>   -1.3692    1.0000 </r>
       <r>   -0.9527    1.0000 </r>
       <r>   -0.5260    1.0000 </r>
       <r>   -0.3144    1.0000 </r>
       <r>    0.1807    1.0000 </r>
       <r>    0.5217    1.0000 </r>
       <r>    0.7352    1.0000 </r>
       <r>    1.2197    1.0000 </r>
       <r>    1.2839    1.0000 </r>
       <r>    1.6293    1.0000 </r>
       <r>    2.1079    1.0000 </r>
       <r>    2.4045    1.0000 </r>
       <r>    2.6375    1.0000 </r>
       <r>    2.7609    1.0000 </r>
       <r>    2.9783    1.0000 </r>
       <r>    3.2421    1.0000 </r>
       <r>    3.5320    1.0000 </r>
       <r>    3.6756    1.0000 </r>
       <r>    3.9025    1.0000 </r>
       <r>    4.1427    1.0000 </r>
       <r>    4.2364    1.0000 </r>
       <r>    4.5566    1.0000 </r>
       <r>    4.7599    1.0000 </r>
       <r>    4.9192    1.0000 </r>
       <r>    5.1948    1.0000 </r>
       <r>    5.3846    1.0000 </r>
       <r>    5.4878    1.0000 </r>
       <r>    5.7675    1.0000 </r>
       <r>    5.9792    1.0000 </r>
       <r>    6.2305    1.0000 </r>
       <r>    6.3567    1.0000 </r>
       <r>    6.4985    1.0000 </r>
       <r>    6.6926    1.0000 </r>
       <r>    6.8775    1.0000 </r>
       <r>    7.1717    1.0002 </r>
       <r>    7.5387    1.0246 </r>
       <r>    7.6567    0.8137 </r>
       <r>    7.8552    0.0860 </r>
       <r>    8.1957   -0.0028 </r>
       <r>    8.3552   -0.0001 </r>
       <r>    8.5350   -0.0000 </r>
       <r>    8.6126   -0.0000 </r>
       <r>    8.7472   -0.0000 </r>
       <r>    8.8976   -0.0000 </r>
       <r>    9.0625   -0.0000 </r>
       <r>    9.1693   -0.0000 </r>
       <r>    9.5338   -0.0000 </r>
       <r>    9.6875   -0.0000 </r>
       <r>    9.7726   -0.0000 </r>
       <r>    9.9291   -0.0000 </r>
       <r>   10.0551   -0.0000 </r>
       <r>   10.0857   -0.0000 </r>
       <r>   10.2140   -0.0000 </r>
       <r>   10.4096   -0.0000 </r>
       <r>   10.4421   -0.0000 </r>
       <r>   10.5678   -0.0000 </r>
       <r>   10.6632   -0.0000 </r>
       <r>   10.8391   -0.0000 </r>
       <r>   11.0504   -0.0000 </r>
       <r>   11.1780   -0.0000 </r>
       <r>   11.1910   -0.0000 </r>
      </set>
      <set comment="kpoint 25">
       <r>   -3.3696    1.0000 </r>
       <r>   -2.8217    1.0000 </r>
       <r>   -1.6887    1.0000 </r>
       <r>   -1.4077    1.0000 </r>
       <r>   -0.9494    1.0000 </r>
       <r>   -0.6663    1.0000 </r>
       <r>   -0.3709    1.0000 </r>
       <r>    0.0331    1.0000 </r>
       <r>    0.6245    1.0000 </r>
       <r>    0.9044    1.0000 </r>
       <r>    1.0314    1.0000 </r>
       <r>    1.2747    1.0000 </r>
       <r>    1.6387    1.0000 </r>
       <r>    2.1823    1.0000 </r>
       <r>    2.4610    1.0000 </r>
       <r>    2.5849    1.0000 </r>
       <r>    2.8506    1.0000 </r>
       <r>    3.0185    1.0000 </r>
       <r>    3.2992    1.0000 </r>
       <r>    3.6403    1.0000 </r>
       <r>    3.7201    1.0000 </r>
       <r>    3.9012    1.0000 </r>
       <r>    4.0869    1.0000 </r>
       <r>    4.2834    1.0000 </r>
       <r>    4.5755    1.0000 </r>
       <r>    4.7495    1.0000 </r>
       <r>    4.8292    1.0000 </r>
       <r>    5.1265    1.0000 </r>
       <r>    5.2519    1.0000 </r>
       <r>    5.5034    1.0000 </r>
       <r>    5.7883    1.0000 </r>
       <r>    5.9745    1.0000 </r>
       <r>    6.2066    1.0000 </r>
       <r>    6.3118    1.0000 </r>
       <r>    6.4267    1.0000 </r>
       <r>    6.5208    1.0000 </r>
       <r>    6.7116    1.0000 </r>
       <r>    7.2712    1.0024 </r>
       <r>    7.5822    0.9841 </r>
       <r>    7.7949    0.2690 </r>
       <r>    8.0026   -0.0341 </r>
       <r>    8.0881   -0.0164 </r>
       <r>    8.3894   -0.0000 </r>
       <r>    8.4897   -0.0000 </r>
       <r>    8.6512   -0.0000 </r>
       <r>    8.8005   -0.0000 </r>
       <r>    8.8754   -0.0000 </r>
       <r>    9.0842   -0.0000 </r>
       <r>    9.1903   -0.0000 </r>
       <r>    9.5060   -0.0000 </r>
       <r>    9.7274   -0.0000 </r>
       <r>    9.8331   -0.0000 </r>
       <r>    9.9361   -0.0000 </r>
       <r>   10.0017   -0.0000 </r>
       <r>   10.1683   -0.0000 </r>
       <r>   10.1907   -0.0000 </r>
       <r>   10.4111   -0.0000 </r>
       <r>   10.4764   -0.0000 </r>
       <r>   10.5765   -0.0000 </r>
       <r>   10.7686   -0.0000 </r>
       <r>   10.8255   -0.0000 </r>
       <r>   10.9812   -0.0000 </r>
       <r>   11.1025   -0.0000 </r>
       <r>   11.3075   -0.0000 </r>
      </set>
      <set comment="kpoint 26">
       <r>   -3.3642    1.0000 </r>
       <r>   -2.8317    1.0000 </r>
       <r>   -1.6461    1.0000 </r>
       <r>   -1.4815    1.0000 </r>
       <r>   -0.9349    1.0000 </r>
       <r>   -0.6090    1.0000 </r>
       <r>   -0.3812    1.0000 </r>
       <r>    0.0380    1.0000 </r>
       <r>    0.5554    1.0000 </r>
       <r>    0.9025    1.0000 </r>
       <r>    1.0237    1.0000 </r>
       <r>    1.3726    1.0000 </r>
       <r>    1.6114    1.0000 </r>
       <r>    2.2127    1.0000 </r>
       <r>    2.3845    1.0000 </r>
       <r>    2.6033    1.0000 </r>
       <r>    2.8439    1.0000 </r>
       <r>    2.9979    1.0000 </r>
       <r>    3.3769    1.0000 </r>
       <r>    3.6048    1.0000 </r>
       <r>    3.7535    1.0000 </r>
       <r>    3.8486    1.0000 </r>
       <r>    4.0415    1.0000 </r>
       <r>    4.2292    1.0000 </r>
       <r>    4.5026    1.0000 </r>
       <r>    4.7350    1.0000 </r>
       <r>    4.9761    1.0000 </r>
       <r>    5.1712    1.0000 </r>
       <r>    5.3507    1.0000 </r>
       <r>    5.5525    1.0000 </r>
       <r>    5.7529    1.0000 </r>
       <r>    5.9637    1.0000 </r>
       <r>    6.1055    1.0000 </r>
       <r>    6.2215    1.0000 </r>
       <r>    6.3642    1.0000 </r>
       <r>    6.6170    1.0000 </r>
       <r>    6.8020    1.0000 </r>
       <r>    7.3899    1.0169 </r>
       <r>    7.6724    0.7609 </r>
       <r>    7.7542    0.4310 </r>
       <r>    7.9744   -0.0352 </r>
       <r>    8.0897   -0.0160 </r>
       <r>    8.2903   -0.0003 </r>
       <r>    8.4798   -0.0000 </r>
       <r>    8.6273   -0.0000 </r>
       <r>    8.7100   -0.0000 </r>
       <r>    8.8207   -0.0000 </r>
       <r>    9.0489   -0.0000 </r>
       <r>    9.1290   -0.0000 </r>
       <r>    9.6453   -0.0000 </r>
       <r>    9.7325   -0.0000 </r>
       <r>    9.8683   -0.0000 </r>
       <r>    9.8952   -0.0000 </r>
       <r>   10.0146   -0.0000 </r>
       <r>   10.0579   -0.0000 </r>
       <r>   10.2446   -0.0000 </r>
       <r>   10.3580   -0.0000 </r>
       <r>   10.4534   -0.0000 </r>
       <r>   10.5732   -0.0000 </r>
       <r>   10.7248   -0.0000 </r>
       <r>   10.8448   -0.0000 </r>
       <r>   11.0505   -0.0000 </r>
       <r>   11.2497   -0.0000 </r>
       <r>   11.4172   -0.0000 </r>
      </set>
      <set comment="kpoint 27">
       <r>   -3.4726    1.0000 </r>
       <r>   -2.5577    1.0000 </r>
       <r>   -1.7324    1.0000 </r>
       <r>   -1.4444    1.0000 </r>
       <r>   -1.2283    1.0000 </r>
       <r>   -0.5047    1.0000 </r>
       <r>   -0.3065    1.0000 </r>
       <r>   -0.0970    1.0000 </r>
       <r>    0.5332    1.0000 </r>
       <r>    0.8923    1.0000 </r>
       <r>    1.0241    1.0000 </r>
       <r>    1.3976    1.0000 </r>
       <r>    1.6990    1.0000 </r>
       <r>    2.0488    1.0000 </r>
       <r>    2.5504    1.0000 </r>
       <r>    2.7298    1.0000 </r>
       <r>    3.0002    1.0000 </r>
       <r>    3.0895    1.0000 </r>
       <r>    3.4244    1.0000 </r>
       <r>    3.7000    1.0000 </r>
       <r>    3.8214    1.0000 </r>
       <r>    3.9625    1.0000 </r>
       <r>    4.0609    1.0000 </r>
       <r>    4.2329    1.0000 </r>
       <r>    4.4011    1.0000 </r>
       <r>    4.4248    1.0000 </r>
       <r>    4.7267    1.0000 </r>
       <r>    4.9877    1.0000 </r>
       <r>    5.4590    1.0000 </r>
       <r>    5.5190    1.0000 </r>
       <r>    5.6823    1.0000 </r>
       <r>    5.8625    1.0000 </r>
       <r>    5.9319    1.0000 </r>
       <r>    6.2877    1.0000 </r>
       <r>    6.4719    1.0000 </r>
       <r>    6.6831    1.0000 </r>
       <r>    6.8707    1.0000 </r>
       <r>    7.4101    1.0213 </r>
       <r>    7.5373    1.0254 </r>
       <r>    7.6620    0.7965 </r>
       <r>    7.9145   -0.0085 </r>
       <r>    7.9910   -0.0352 </r>
       <r>    8.3132   -0.0002 </r>
       <r>    8.4204   -0.0000 </r>
       <r>    8.6661   -0.0000 </r>
       <r>    8.7780   -0.0000 </r>
       <r>    8.8888   -0.0000 </r>
       <r>    9.1114   -0.0000 </r>
       <r>    9.3235   -0.0000 </r>
       <r>    9.4133   -0.0000 </r>
       <r>    9.6357   -0.0000 </r>
       <r>    9.7305   -0.0000 </r>
       <r>    9.9488   -0.0000 </r>
       <r>   10.0925   -0.0000 </r>
       <r>   10.2271   -0.0000 </r>
       <r>   10.3256   -0.0000 </r>
       <r>   10.4426   -0.0000 </r>
       <r>   10.5493   -0.0000 </r>
       <r>   10.6372   -0.0000 </r>
       <r>   10.7566   -0.0000 </r>
       <r>   11.0016   -0.0000 </r>
       <r>   11.1215   -0.0000 </r>
       <r>   11.2629   -0.0000 </r>
       <r>   11.5256   -0.0000 </r>
      </set>
      <set comment="kpoint 28">
       <r>   -3.3724    1.0000 </r>
       <r>   -2.7618    1.0000 </r>
       <r>   -1.8869    1.0000 </r>
       <r>   -1.4552    1.0000 </r>
       <r>   -0.8352    1.0000 </r>
       <r>   -0.5469    1.0000 </r>
       <r>   -0.3189    1.0000 </r>
       <r>    0.2040    1.0000 </r>
       <r>    0.4016    1.0000 </r>
       <r>    0.7078    1.0000 </r>
       <r>    1.1353    1.0000 </r>
       <r>    1.4407    1.0000 </r>
       <r>    1.7456    1.0000 </r>
       <r>    2.0917    1.0000 </r>
       <r>    2.2875    1.0000 </r>
       <r>    2.7027    1.0000 </r>
       <r>    2.7676    1.0000 </r>
       <r>    3.0341    1.0000 </r>
       <r>    3.1883    1.0000 </r>
       <r>    3.5174    1.0000 </r>
       <r>    3.6765    1.0000 </r>
       <r>    3.8792    1.0000 </r>
       <r>    4.0687    1.0000 </r>
       <r>    4.3663    1.0000 </r>
       <r>    4.4940    1.0000 </r>
       <r>    4.7892    1.0000 </r>
       <r>    4.9656    1.0000 </r>
       <r>    5.0545    1.0000 </r>
       <r>    5.4470    1.0000 </r>
       <r>    5.5491    1.0000 </r>
       <r>    5.7542    1.0000 </r>
       <r>    5.9292    1.0000 </r>
       <r>    6.0915    1.0000 </r>
       <r>    6.3248    1.0000 </r>
       <r>    6.5988    1.0000 </r>
       <r>    6.7949    1.0000 </r>
       <r>    6.8983    1.0000 </r>
       <r>    7.2161    1.0007 </r>
       <r>    7.5015    1.0352 </r>
       <r>    7.6837    0.7199 </r>
       <r>    7.9631   -0.0338 </r>
       <r>    8.0550   -0.0237 </r>
       <r>    8.2864   -0.0004 </r>
       <r>    8.4037   -0.0000 </r>
       <r>    8.5329   -0.0000 </r>
       <r>    8.8114   -0.0000 </r>
       <r>    8.9052   -0.0000 </r>
       <r>    9.0758   -0.0000 </r>
       <r>    9.3348   -0.0000 </r>
       <r>    9.4677   -0.0000 </r>
       <r>    9.6731   -0.0000 </r>
       <r>    9.7675   -0.0000 </r>
       <r>    9.8908   -0.0000 </r>
       <r>    9.9978   -0.0000 </r>
       <r>   10.1152   -0.0000 </r>
       <r>   10.2947   -0.0000 </r>
       <r>   10.3831   -0.0000 </r>
       <r>   10.5554   -0.0000 </r>
       <r>   10.6346   -0.0000 </r>
       <r>   10.7669   -0.0000 </r>
       <r>   10.8648   -0.0000 </r>
       <r>   10.9646   -0.0000 </r>
       <r>   11.1680   -0.0000 </r>
       <r>   11.3531   -0.0000 </r>
      </set>
      <set comment="kpoint 29">
       <r>   -3.6694    1.0000 </r>
       <r>   -2.1349    1.0000 </r>
       <r>   -1.7561    1.0000 </r>
       <r>   -1.3523    1.0000 </r>
       <r>   -0.8528    1.0000 </r>
       <r>   -0.7234    1.0000 </r>
       <r>   -0.1578    1.0000 </r>
       <r>   -0.0584    1.0000 </r>
       <r>    0.2933    1.0000 </r>
       <r>    0.5074    1.0000 </r>
       <r>    0.8939    1.0000 </r>
       <r>    1.0429    1.0000 </r>
       <r>    1.1892    1.0000 </r>
       <r>    1.5559    1.0000 </r>
       <r>    2.2357    1.0000 </r>
       <r>    2.5026    1.0000 </r>
       <r>    2.9923    1.0000 </r>
       <r>    3.2984    1.0000 </r>
       <r>    3.4753    1.0000 </r>
       <r>    3.7781    1.0000 </r>
       <r>    4.2820    1.0000 </r>
       <r>    4.4802    1.0000 </r>
       <r>    4.5729    1.0000 </r>
       <r>    4.7629    1.0000 </r>
       <r>    4.9604    1.0000 </r>
       <r>    5.2724    1.0000 </r>
       <r>    5.4270    1.0000 </r>
       <r>    5.5067    1.0000 </r>
       <r>    5.5918    1.0000 </r>
       <r>    5.6954    1.0000 </r>
       <r>    5.9570    1.0000 </r>
       <r>    6.0317    1.0000 </r>
       <r>    6.1365    1.0000 </r>
       <r>    6.2853    1.0000 </r>
       <r>    6.4580    1.0000 </r>
       <r>    6.7297    1.0000 </r>
       <r>    6.8631    1.0000 </r>
       <r>    7.0068    1.0000 </r>
       <r>    7.0980    1.0000 </r>
       <r>    7.3231    1.0063 </r>
       <r>    7.4547    1.0312 </r>
       <r>    7.6908    0.6929 </r>
       <r>    7.7270    0.5454 </r>
       <r>    7.7770    0.3373 </r>
       <r>    8.0045   -0.0339 </r>
       <r>    8.1128   -0.0117 </r>
       <r>    8.4247   -0.0000 </r>
       <r>    8.6781   -0.0000 </r>
       <r>    8.8208   -0.0000 </r>
       <r>    8.9574   -0.0000 </r>
       <r>    9.1291   -0.0000 </r>
       <r>    9.3232   -0.0000 </r>
       <r>    9.4638   -0.0000 </r>
       <r>    9.6753   -0.0000 </r>
       <r>    9.7785   -0.0000 </r>
       <r>    9.9502   -0.0000 </r>
       <r>   10.0992   -0.0000 </r>
       <r>   10.4492   -0.0000 </r>
       <r>   10.5109   -0.0000 </r>
       <r>   10.8837   -0.0000 </r>
       <r>   11.0635   -0.0000 </r>
       <r>   11.2885   -0.0000 </r>
       <r>   11.5211   -0.0000 </r>
       <r>   11.7506   -0.0000 </r>
      </set>
      <set comment="kpoint 30">
       <r>   -3.6687    1.0000 </r>
       <r>   -2.1592    1.0000 </r>
       <r>   -1.6295    1.0000 </r>
       <r>   -1.5293    1.0000 </r>
       <r>   -0.7564    1.0000 </r>
       <r>   -0.6287    1.0000 </r>
       <r>   -0.3536    1.0000 </r>
       <r>    0.0934    1.0000 </r>
       <r>    0.2901    1.0000 </r>
       <r>    0.4755    1.0000 </r>
       <r>    0.7436    1.0000 </r>
       <r>    0.9537    1.0000 </r>
       <r>    1.3746    1.0000 </r>
       <r>    1.6361    1.0000 </r>
       <r>    2.3470    1.0000 </r>
       <r>    2.4741    1.0000 </r>
       <r>    2.6483    1.0000 </r>
       <r>    3.3013    1.0000 </r>
       <r>    3.6187    1.0000 </r>
       <r>    3.8488    1.0000 </r>
       <r>    4.1635    1.0000 </r>
       <r>    4.4751    1.0000 </r>
       <r>    4.6366    1.0000 </r>
       <r>    4.8161    1.0000 </r>
       <r>    5.1853    1.0000 </r>
       <r>    5.2560    1.0000 </r>
       <r>    5.3337    1.0000 </r>
       <r>    5.4262    1.0000 </r>
       <r>    5.5467    1.0000 </r>
       <r>    5.7326    1.0000 </r>
       <r>    5.8899    1.0000 </r>
       <r>    6.1333    1.0000 </r>
       <r>    6.1961    1.0000 </r>
       <r>    6.2926    1.0000 </r>
       <r>    6.4184    1.0000 </r>
       <r>    6.7308    1.0000 </r>
       <r>    6.7931    1.0000 </r>
       <r>    7.0231    1.0000 </r>
       <r>    7.1930    1.0004 </r>
       <r>    7.2812    1.0029 </r>
       <r>    7.4222    1.0241 </r>
       <r>    7.5906    0.9718 </r>
       <r>    7.6873    0.7064 </r>
       <r>    7.7915    0.2816 </r>
       <r>    8.0165   -0.0320 </r>
       <r>    8.2509   -0.0009 </r>
       <r>    8.3722   -0.0000 </r>
       <r>    8.6357   -0.0000 </r>
       <r>    8.8006   -0.0000 </r>
       <r>    8.9129   -0.0000 </r>
       <r>    9.1819   -0.0000 </r>
       <r>    9.3048   -0.0000 </r>
       <r>    9.4367   -0.0000 </r>
       <r>    9.4980   -0.0000 </r>
       <r>    9.7062   -0.0000 </r>
       <r>   10.0117   -0.0000 </r>
       <r>   10.2064   -0.0000 </r>
       <r>   10.3750   -0.0000 </r>
       <r>   10.5356   -0.0000 </r>
       <r>   10.9681   -0.0000 </r>
       <r>   11.0411   -0.0000 </r>
       <r>   11.2869   -0.0000 </r>
       <r>   11.4506   -0.0000 </r>
       <r>   11.6812   -0.0000 </r>
      </set>
      <set comment="kpoint 31">
       <r>   -3.6712    1.0000 </r>
       <r>   -2.1738    1.0000 </r>
       <r>   -1.7433    1.0000 </r>
       <r>   -1.2327    1.0000 </r>
       <r>   -0.8191    1.0000 </r>
       <r>   -0.7042    1.0000 </r>
       <r>   -0.3017    1.0000 </r>
       <r>   -0.0519    1.0000 </r>
       <r>    0.1720    1.0000 </r>
       <r>    0.5161    1.0000 </r>
       <r>    0.7126    1.0000 </r>
       <r>    1.0189    1.0000 </r>
       <r>    1.4114    1.0000 </r>
       <r>    1.7414    1.0000 </r>
       <r>    2.2374    1.0000 </r>
       <r>    2.5962    1.0000 </r>
       <r>    2.6605    1.0000 </r>
       <r>    3.4521    1.0000 </r>
       <r>    3.5752    1.0000 </r>
       <r>    3.8455    1.0000 </r>
       <r>    4.2043    1.0000 </r>
       <r>    4.3957    1.0000 </r>
       <r>    4.6010    1.0000 </r>
       <r>    4.8970    1.0000 </r>
       <r>    4.9387    1.0000 </r>
       <r>    5.1363    1.0000 </r>
       <r>    5.2959    1.0000 </r>
       <r>    5.4632    1.0000 </r>
       <r>    5.4919    1.0000 </r>
       <r>    5.8036    1.0000 </r>
       <r>    5.9993    1.0000 </r>
       <r>    6.1210    1.0000 </r>
       <r>    6.3127    1.0000 </r>
       <r>    6.3578    1.0000 </r>
       <r>    6.4964    1.0000 </r>
       <r>    6.6903    1.0000 </r>
       <r>    6.7513    1.0000 </r>
       <r>    6.8993    1.0000 </r>
       <r>    7.1545    1.0001 </r>
       <r>    7.2334    1.0010 </r>
       <r>    7.4241    1.0245 </r>
       <r>    7.5376    1.0252 </r>
       <r>    7.7291    0.5368 </r>
       <r>    7.8534    0.0900 </r>
       <r>    7.9999   -0.0344 </r>
       <r>    8.1721   -0.0044 </r>
       <r>    8.4373   -0.0000 </r>
       <r>    8.7172   -0.0000 </r>
       <r>    8.7821   -0.0000 </r>
       <r>    8.8788   -0.0000 </r>
       <r>    9.0757   -0.0000 </r>
       <r>    9.2528   -0.0000 </r>
       <r>    9.3849   -0.0000 </r>
       <r>    9.6652   -0.0000 </r>
       <r>    9.8526   -0.0000 </r>
       <r>    9.9315   -0.0000 </r>
       <r>   10.1607   -0.0000 </r>
       <r>   10.2716   -0.0000 </r>
       <r>   10.7373   -0.0000 </r>
       <r>   10.9554   -0.0000 </r>
       <r>   11.1155   -0.0000 </r>
       <r>   11.3080   -0.0000 </r>
       <r>   11.6799   -0.0000 </r>
       <r>   11.7900   -0.0000 </r>
      </set>
      <set comment="kpoint 32">
       <r>   -3.6688    1.0000 </r>
       <r>   -2.2226    1.0000 </r>
       <r>   -1.6179    1.0000 </r>
       <r>   -1.3253    1.0000 </r>
       <r>   -0.8004    1.0000 </r>
       <r>   -0.7581    1.0000 </r>
       <r>   -0.2798    1.0000 </r>
       <r>   -0.0086    1.0000 </r>
       <r>    0.2648    1.0000 </r>
       <r>    0.4490    1.0000 </r>
       <r>    0.6794    1.0000 </r>
       <r>    1.0645    1.0000 </r>
       <r>    1.2623    1.0000 </r>
       <r>    1.8365    1.0000 </r>
       <r>    2.2512    1.0000 </r>
       <r>    2.5469    1.0000 </r>
       <r>    2.9146    1.0000 </r>
       <r>    3.1264    1.0000 </r>
       <r>    3.5291    1.0000 </r>
       <r>    3.7060    1.0000 </r>
       <r>    4.3073    1.0000 </r>
       <r>    4.5370    1.0000 </r>
       <r>    4.6889    1.0000 </r>
       <r>    4.8607    1.0000 </r>
       <r>    5.0059    1.0000 </r>
       <r>    5.2109    1.0000 </r>
       <r>    5.3714    1.0000 </r>
       <r>    5.4480    1.0000 </r>
       <r>    5.5049    1.0000 </r>
       <r>    5.6448    1.0000 </r>
       <r>    6.0079    1.0000 </r>
       <r>    6.1365    1.0000 </r>
       <r>    6.2839    1.0000 </r>
       <r>    6.4120    1.0000 </r>
       <r>    6.5355    1.0000 </r>
       <r>    6.6857    1.0000 </r>
       <r>    6.7764    1.0000 </r>
       <r>    6.9201    1.0000 </r>
       <r>    6.9960    1.0000 </r>
       <r>    7.1466    1.0001 </r>
       <r>    7.3984    1.0187 </r>
       <r>    7.5946    0.9652 </r>
       <r>    7.6811    0.7294 </r>
       <r>    7.8176    0.1903 </r>
       <r>    7.9707   -0.0348 </r>
       <r>    8.2442   -0.0010 </r>
       <r>    8.4371   -0.0000 </r>
       <r>    8.7161   -0.0000 </r>
       <r>    8.8491   -0.0000 </r>
       <r>    8.9724   -0.0000 </r>
       <r>    9.0389   -0.0000 </r>
       <r>    9.1833   -0.0000 </r>
       <r>    9.4357   -0.0000 </r>
       <r>    9.5871   -0.0000 </r>
       <r>    9.7485   -0.0000 </r>
       <r>    9.9736   -0.0000 </r>
       <r>   10.1130   -0.0000 </r>
       <r>   10.4059   -0.0000 </r>
       <r>   10.7006   -0.0000 </r>
       <r>   10.9715   -0.0000 </r>
       <r>   11.1323   -0.0000 </r>
       <r>   11.3695   -0.0000 </r>
       <r>   11.5296   -0.0000 </r>
       <r>   11.7720   -0.0000 </r>
      </set>
      <set comment="kpoint 33">
       <r>   -3.6706    1.0000 </r>
       <r>   -2.2004    1.0000 </r>
       <r>   -1.6563    1.0000 </r>
       <r>   -1.1563    1.0000 </r>
       <r>   -1.0961    1.0000 </r>
       <r>   -0.6429    1.0000 </r>
       <r>   -0.3483    1.0000 </r>
       <r>    0.0551    1.0000 </r>
       <r>    0.3187    1.0000 </r>
       <r>    0.4113    1.0000 </r>
       <r>    0.8038    1.0000 </r>
       <r>    0.9835    1.0000 </r>
       <r>    1.3088    1.0000 </r>
       <r>    1.7081    1.0000 </r>
       <r>    2.3194    1.0000 </r>
       <r>    2.5973    1.0000 </r>
       <r>    2.9600    1.0000 </r>
       <r>    3.1583    1.0000 </r>
       <r>    3.2362    1.0000 </r>
       <r>    3.9306    1.0000 </r>
       <r>    4.3358    1.0000 </r>
       <r>    4.4589    1.0000 </r>
       <r>    4.6669    1.0000 </r>
       <r>    4.8806    1.0000 </r>
       <r>    4.9791    1.0000 </r>
       <r>    5.0841    1.0000 </r>
       <r>    5.3139    1.0000 </r>
       <r>    5.4216    1.0000 </r>
       <r>    5.6912    1.0000 </r>
       <r>    5.7990    1.0000 </r>
       <r>    5.8741    1.0000 </r>
       <r>    6.0721    1.0000 </r>
       <r>    6.2017    1.0000 </r>
       <r>    6.2562    1.0000 </r>
       <r>    6.5983    1.0000 </r>
       <r>    6.7029    1.0000 </r>
       <r>    6.7596    1.0000 </r>
       <r>    7.0448    1.0000 </r>
       <r>    7.1549    1.0001 </r>
       <r>    7.3016    1.0043 </r>
       <r>    7.3888    1.0166 </r>
       <r>    7.5697    0.9997 </r>
       <r>    7.6751    0.7512 </r>
       <r>    7.8065    0.2274 </r>
       <r>    7.9486   -0.0299 </r>
       <r>    8.0542   -0.0239 </r>
       <r>    8.4276   -0.0000 </r>
       <r>    8.6407   -0.0000 </r>
       <r>    8.8037   -0.0000 </r>
       <r>    9.0033   -0.0000 </r>
       <r>    9.2017   -0.0000 </r>
       <r>    9.3914   -0.0000 </r>
       <r>    9.4964   -0.0000 </r>
       <r>    9.6593   -0.0000 </r>
       <r>    9.7755   -0.0000 </r>
       <r>    9.9390   -0.0000 </r>
       <r>   10.1384   -0.0000 </r>
       <r>   10.3574   -0.0000 </r>
       <r>   10.6875   -0.0000 </r>
       <r>   10.8426   -0.0000 </r>
       <r>   11.1141   -0.0000 </r>
       <r>   11.3769   -0.0000 </r>
       <r>   11.5413   -0.0000 </r>
       <r>   11.7528   -0.0000 </r>
      </set>
      <set comment="kpoint 34">
       <r>   -3.6719    1.0000 </r>
       <r>   -2.1036    1.0000 </r>
       <r>   -1.8356    1.0000 </r>
       <r>   -1.2889    1.0000 </r>
       <r>   -0.8009    1.0000 </r>
       <r>   -0.6221    1.0000 </r>
       <r>   -0.2929    1.0000 </r>
       <r>   -0.0814    1.0000 </r>
       <r>    0.1878    1.0000 </r>
       <r>    0.5313    1.0000 </r>
       <r>    0.7089    1.0000 </r>
       <r>    0.9986    1.0000 </r>
       <r>    1.4182    1.0000 </r>
       <r>    1.8012    1.0000 </r>
       <r>    2.1509    1.0000 </r>
       <r>    2.5259    1.0000 </r>
       <r>    2.9632    1.0000 </r>
       <r>    3.1858    1.0000 </r>
       <r>    3.4029    1.0000 </r>
       <r>    3.9029    1.0000 </r>
       <r>    4.1765    1.0000 </r>
       <r>    4.5531    1.0000 </r>
       <r>    4.5961    1.0000 </r>
       <r>    4.8047    1.0000 </r>
       <r>    5.0139    1.0000 </r>
       <r>    5.1441    1.0000 </r>
       <r>    5.4072    1.0000 </r>
       <r>    5.4929    1.0000 </r>
       <r>    5.6273    1.0000 </r>
       <r>    5.8416    1.0000 </r>
       <r>    5.9264    1.0000 </r>
       <r>    5.9764    1.0000 </r>
       <r>    6.0668    1.0000 </r>
       <r>    6.3414    1.0000 </r>
       <r>    6.5212    1.0000 </r>
       <r>    6.6993    1.0000 </r>
       <r>    6.8733    1.0000 </r>
       <r>    6.9981    1.0000 </r>
       <r>    7.1692    1.0002 </r>
       <r>    7.3597    1.0112 </r>
       <r>    7.4588    1.0320 </r>
       <r>    7.5329    1.0275 </r>
       <r>    7.6124    0.9318 </r>
       <r>    7.8423    0.1178 </r>
       <r>    7.9838   -0.0355 </r>
       <r>    8.0994   -0.0141 </r>
       <r>    8.5122   -0.0000 </r>
       <r>    8.6868   -0.0000 </r>
       <r>    8.7815   -0.0000 </r>
       <r>    8.8690   -0.0000 </r>
       <r>    8.9854   -0.0000 </r>
       <r>    9.3159   -0.0000 </r>
       <r>    9.4907   -0.0000 </r>
       <r>    9.6697   -0.0000 </r>
       <r>    9.7822   -0.0000 </r>
       <r>    9.9899   -0.0000 </r>
       <r>   10.0056   -0.0000 </r>
       <r>   10.4242   -0.0000 </r>
       <r>   10.7462   -0.0000 </r>
       <r>   10.8784   -0.0000 </r>
       <r>   11.0369   -0.0000 </r>
       <r>   11.4202   -0.0000 </r>
       <r>   11.5317   -0.0000 </r>
       <r>   11.7915   -0.0000 </r>
      </set>
      <set comment="kpoint 35">
       <r>   -3.6766    1.0000 </r>
       <r>   -2.0496    1.0000 </r>
       <r>   -1.7529    1.0000 </r>
       <r>   -1.4535    1.0000 </r>
       <r>   -0.9782    1.0000 </r>
       <r>   -0.6185    1.0000 </r>
       <r>   -0.1848    1.0000 </r>
       <r>    0.0930    1.0000 </r>
       <r>    0.3241    1.0000 </r>
       <r>    0.4303    1.0000 </r>
       <r>    0.6997    1.0000 </r>
       <r>    1.0761    1.0000 </r>
       <r>    1.3466    1.0000 </r>
       <r>    1.5086    1.0000 </r>
       <r>    2.3769    1.0000 </r>
       <r>    2.5333    1.0000 </r>
       <r>    2.7031    1.0000 </r>
       <r>    3.5259    1.0000 </r>
       <r>    3.6242    1.0000 </r>
       <r>    3.7572    1.0000 </r>
       <r>    4.0741    1.0000 </r>
       <r>    4.2645    1.0000 </r>
       <r>    4.5177    1.0000 </r>
       <r>    4.9293    1.0000 </r>
       <r>    5.0609    1.0000 </r>
       <r>    5.2281    1.0000 </r>
       <r>    5.4288    1.0000 </r>
       <r>    5.5286    1.0000 </r>
       <r>    5.6253    1.0000 </r>
       <r>    5.7445    1.0000 </r>
       <r>    5.8620    1.0000 </r>
       <r>    6.0623    1.0000 </r>
       <r>    6.1793    1.0000 </r>
       <r>    6.3050    1.0000 </r>
       <r>    6.5229    1.0000 </r>
       <r>    6.6287    1.0000 </r>
       <r>    6.7886    1.0000 </r>
       <r>    6.9211    1.0000 </r>
       <r>    7.1720    1.0002 </r>
       <r>    7.3278    1.0068 </r>
       <r>    7.5231    1.0312 </r>
       <r>    7.5732    0.9956 </r>
       <r>    7.7114    0.6104 </r>
       <r>    7.8391    0.1263 </r>
       <r>    7.9695   -0.0347 </r>
       <r>    8.2718   -0.0005 </r>
       <r>    8.3032   -0.0002 </r>
       <r>    8.5953   -0.0000 </r>
       <r>    8.8352   -0.0000 </r>
       <r>    8.9699   -0.0000 </r>
       <r>    9.2112   -0.0000 </r>
       <r>    9.3478   -0.0000 </r>
       <r>    9.4839   -0.0000 </r>
       <r>    9.6882   -0.0000 </r>
       <r>    9.8012   -0.0000 </r>
       <r>    9.9473   -0.0000 </r>
       <r>   10.1575   -0.0000 </r>
       <r>   10.3253   -0.0000 </r>
       <r>   10.4331   -0.0000 </r>
       <r>   11.0293   -0.0000 </r>
       <r>   11.0835   -0.0000 </r>
       <r>   11.1743   -0.0000 </r>
       <r>   11.5123   -0.0000 </r>
       <r>   11.6273   -0.0000 </r>
      </set>
      <set comment="kpoint 36">
       <r>   -3.6519    1.0000 </r>
       <r>   -2.2943    1.0000 </r>
       <r>   -1.6539    1.0000 </r>
       <r>   -1.3003    1.0000 </r>
       <r>   -0.8676    1.0000 </r>
       <r>   -0.5721    1.0000 </r>
       <r>   -0.2413    1.0000 </r>
       <r>   -0.0330    1.0000 </r>
       <r>    0.1735    1.0000 </r>
       <r>    0.6454    1.0000 </r>
       <r>    0.7003    1.0000 </r>
       <r>    1.1243    1.0000 </r>
       <r>    1.2773    1.0000 </r>
       <r>    1.5844    1.0000 </r>
       <r>    2.0734    1.0000 </r>
       <r>    2.4781    1.0000 </r>
       <r>    2.7902    1.0000 </r>
       <r>    3.3301    1.0000 </r>
       <r>    3.6825    1.0000 </r>
       <r>    3.8168    1.0000 </r>
       <r>    4.3047    1.0000 </r>
       <r>    4.3160    1.0000 </r>
       <r>    4.6219    1.0000 </r>
       <r>    4.7817    1.0000 </r>
       <r>    5.0616    1.0000 </r>
       <r>    5.2038    1.0000 </r>
       <r>    5.4218    1.0000 </r>
       <r>    5.5186    1.0000 </r>
       <r>    5.5747    1.0000 </r>
       <r>    5.7883    1.0000 </r>
       <r>    5.9151    1.0000 </r>
       <r>    6.0776    1.0000 </r>
       <r>    6.2362    1.0000 </r>
       <r>    6.3837    1.0000 </r>
       <r>    6.4354    1.0000 </r>
       <r>    6.6050    1.0000 </r>
       <r>    6.8806    1.0000 </r>
       <r>    7.0450    1.0000 </r>
       <r>    7.1534    1.0001 </r>
       <r>    7.3565    1.0107 </r>
       <r>    7.4528    1.0308 </r>
       <r>    7.4902    1.0354 </r>
       <r>    7.6394    0.8655 </r>
       <r>    7.8982    0.0095 </r>
       <r>    8.1703   -0.0046 </r>
       <r>    8.2845   -0.0004 </r>
       <r>    8.3684   -0.0000 </r>
       <r>    8.5934   -0.0000 </r>
       <r>    8.7163   -0.0000 </r>
       <r>    8.8675   -0.0000 </r>
       <r>    9.0293   -0.0000 </r>
       <r>    9.2192   -0.0000 </r>
       <r>    9.5337   -0.0000 </r>
       <r>    9.6528   -0.0000 </r>
       <r>    9.7566   -0.0000 </r>
       <r>    9.9776   -0.0000 </r>
       <r>   10.0881   -0.0000 </r>
       <r>   10.2514   -0.0000 </r>
       <r>   10.5409   -0.0000 </r>
       <r>   10.8423   -0.0000 </r>
       <r>   11.0921   -0.0000 </r>
       <r>   11.2883   -0.0000 </r>
       <r>   11.4614   -0.0000 </r>
       <r>   11.5837   -0.0000 </r>
      </set>
      <set comment="kpoint 37">
       <r>   -3.6556    1.0000 </r>
       <r>   -2.3015    1.0000 </r>
       <r>   -1.6362    1.0000 </r>
       <r>   -1.2504    1.0000 </r>
       <r>   -0.7843    1.0000 </r>
       <r>   -0.6170    1.0000 </r>
       <r>   -0.3164    1.0000 </r>
       <r>   -0.1029    1.0000 </r>
       <r>    0.2039    1.0000 </r>
       <r>    0.3646    1.0000 </r>
       <r>    0.7970    1.0000 </r>
       <r>    1.1329    1.0000 </r>
       <r>    1.4274    1.0000 </r>
       <r>    1.7387    1.0000 </r>
       <r>    2.1555    1.0000 </r>
       <r>    2.3292    1.0000 </r>
       <r>    2.7341    1.0000 </r>
       <r>    3.5531    1.0000 </r>
       <r>    3.6694    1.0000 </r>
       <r>    3.8144    1.0000 </r>
       <r>    4.0986    1.0000 </r>
       <r>    4.3619    1.0000 </r>
       <r>    4.5625    1.0000 </r>
       <r>    4.8420    1.0000 </r>
       <r>    4.8764    1.0000 </r>
       <r>    5.2603    1.0000 </r>
       <r>    5.3389    1.0000 </r>
       <r>    5.5235    1.0000 </r>
       <r>    5.6888    1.0000 </r>
       <r>    5.8450    1.0000 </r>
       <r>    6.0073    1.0000 </r>
       <r>    6.0741    1.0000 </r>
       <r>    6.2068    1.0000 </r>
       <r>    6.3588    1.0000 </r>
       <r>    6.5226    1.0000 </r>
       <r>    6.6231    1.0000 </r>
       <r>    6.8178    1.0000 </r>
       <r>    6.9423    1.0000 </r>
       <r>    7.1219    1.0001 </r>
       <r>    7.2287    1.0009 </r>
       <r>    7.3864    1.0161 </r>
       <r>    7.5558    1.0131 </r>
       <r>    7.7166    0.5889 </r>
       <r>    7.8912    0.0188 </r>
       <r>    8.0662   -0.0211 </r>
       <r>    8.1787   -0.0039 </r>
       <r>    8.5593   -0.0000 </r>
       <r>    8.6742   -0.0000 </r>
       <r>    8.7436   -0.0000 </r>
       <r>    8.8883   -0.0000 </r>
       <r>    9.0796   -0.0000 </r>
       <r>    9.2518   -0.0000 </r>
       <r>    9.4888   -0.0000 </r>
       <r>    9.6136   -0.0000 </r>
       <r>    9.7929   -0.0000 </r>
       <r>    9.8732   -0.0000 </r>
       <r>   10.0793   -0.0000 </r>
       <r>   10.4021   -0.0000 </r>
       <r>   10.4898   -0.0000 </r>
       <r>   10.8880   -0.0000 </r>
       <r>   11.0779   -0.0000 </r>
       <r>   11.3537   -0.0000 </r>
       <r>   11.5065   -0.0000 </r>
       <r>   11.7108   -0.0000 </r>
      </set>
      <set comment="kpoint 38">
       <r>   -3.6525    1.0000 </r>
       <r>   -2.3357    1.0000 </r>
       <r>   -1.5570    1.0000 </r>
       <r>   -1.2604    1.0000 </r>
       <r>   -0.8410    1.0000 </r>
       <r>   -0.6683    1.0000 </r>
       <r>   -0.2688    1.0000 </r>
       <r>   -0.0949    1.0000 </r>
       <r>    0.2927    1.0000 </r>
       <r>    0.3560    1.0000 </r>
       <r>    0.8120    1.0000 </r>
       <r>    1.1049    1.0000 </r>
       <r>    1.2910    1.0000 </r>
       <r>    1.7483    1.0000 </r>
       <r>    2.1992    1.0000 </r>
       <r>    2.3842    1.0000 </r>
       <r>    2.7829    1.0000 </r>
       <r>    3.3828    1.0000 </r>
       <r>    3.6527    1.0000 </r>
       <r>    3.6974    1.0000 </r>
       <r>    4.1611    1.0000 </r>
       <r>    4.4584    1.0000 </r>
       <r>    4.6561    1.0000 </r>
       <r>    4.8584    1.0000 </r>
       <r>    5.0566    1.0000 </r>
       <r>    5.1977    1.0000 </r>
       <r>    5.3800    1.0000 </r>
       <r>    5.5445    1.0000 </r>
       <r>    5.5706    1.0000 </r>
       <r>    5.7692    1.0000 </r>
       <r>    5.9966    1.0000 </r>
       <r>    6.0844    1.0000 </r>
       <r>    6.1772    1.0000 </r>
       <r>    6.3706    1.0000 </r>
       <r>    6.5528    1.0000 </r>
       <r>    6.6391    1.0000 </r>
       <r>    6.8322    1.0000 </r>
       <r>    6.9730    1.0000 </r>
       <r>    7.1031    1.0000 </r>
       <r>    7.2040    1.0005 </r>
       <r>    7.4192    1.0234 </r>
       <r>    7.5350    1.0265 </r>
       <r>    7.6623    0.7954 </r>
       <r>    7.7527    0.4371 </r>
       <r>    8.1478   -0.0068 </r>
       <r>    8.2835   -0.0004 </r>
       <r>    8.4483   -0.0000 </r>
       <r>    8.6901   -0.0000 </r>
       <r>    8.7300   -0.0000 </r>
       <r>    8.8336   -0.0000 </r>
       <r>    9.0913   -0.0000 </r>
       <r>    9.2213   -0.0000 </r>
       <r>    9.4413   -0.0000 </r>
       <r>    9.6760   -0.0000 </r>
       <r>    9.7064   -0.0000 </r>
       <r>   10.0000   -0.0000 </r>
       <r>   10.1547   -0.0000 </r>
       <r>   10.3420   -0.0000 </r>
       <r>   10.5438   -0.0000 </r>
       <r>   10.8461   -0.0000 </r>
       <r>   11.1576   -0.0000 </r>
       <r>   11.3041   -0.0000 </r>
       <r>   11.4563   -0.0000 </r>
       <r>   11.6294   -0.0000 </r>
      </set>
      <set comment="kpoint 39">
       <r>   -3.6762    1.0000 </r>
       <r>   -2.1639    1.0000 </r>
       <r>   -1.5819    1.0000 </r>
       <r>   -1.3795    1.0000 </r>
       <r>   -1.0366    1.0000 </r>
       <r>   -0.6059    1.0000 </r>
       <r>   -0.2400    1.0000 </r>
       <r>   -0.0518    1.0000 </r>
       <r>    0.2968    1.0000 </r>
       <r>    0.5130    1.0000 </r>
       <r>    0.6323    1.0000 </r>
       <r>    1.1125    1.0000 </r>
       <r>    1.3402    1.0000 </r>
       <r>    1.5789    1.0000 </r>
       <r>    2.3519    1.0000 </r>
       <r>    2.6427    1.0000 </r>
       <r>    2.7637    1.0000 </r>
       <r>    3.4979    1.0000 </r>
       <r>    3.6233    1.0000 </r>
       <r>    3.7017    1.0000 </r>
       <r>    4.0339    1.0000 </r>
       <r>    4.2412    1.0000 </r>
       <r>    4.6170    1.0000 </r>
       <r>    4.9204    1.0000 </r>
       <r>    5.1177    1.0000 </r>
       <r>    5.2977    1.0000 </r>
       <r>    5.3527    1.0000 </r>
       <r>    5.4584    1.0000 </r>
       <r>    5.6191    1.0000 </r>
       <r>    5.7732    1.0000 </r>
       <r>    5.8391    1.0000 </r>
       <r>    5.9991    1.0000 </r>
       <r>    6.1587    1.0000 </r>
       <r>    6.4089    1.0000 </r>
       <r>    6.4570    1.0000 </r>
       <r>    6.6238    1.0000 </r>
       <r>    6.8193    1.0000 </r>
       <r>    6.9405    1.0000 </r>
       <r>    7.1752    1.0003 </r>
       <r>    7.3290    1.0069 </r>
       <r>    7.4177    1.0230 </r>
       <r>    7.5570    1.0120 </r>
       <r>    7.6773    0.7432 </r>
       <r>    7.8398    0.1245 </r>
       <r>    7.9742   -0.0352 </r>
       <r>    8.1032   -0.0134 </r>
       <r>    8.3880   -0.0000 </r>
       <r>    8.6639   -0.0000 </r>
       <r>    8.7876   -0.0000 </r>
       <r>    8.9552   -0.0000 </r>
       <r>    9.1376   -0.0000 </r>
       <r>    9.4192   -0.0000 </r>
       <r>    9.5433   -0.0000 </r>
       <r>    9.6434   -0.0000 </r>
       <r>    9.7709   -0.0000 </r>
       <r>    9.9646   -0.0000 </r>
       <r>   10.1884   -0.0000 </r>
       <r>   10.2692   -0.0000 </r>
       <r>   10.6334   -0.0000 </r>
       <r>   10.9790   -0.0000 </r>
       <r>   11.1514   -0.0000 </r>
       <r>   11.3821   -0.0000 </r>
       <r>   11.6065   -0.0000 </r>
       <r>   11.8027   -0.0000 </r>
      </set>
      <set comment="kpoint 40">
       <r>   -3.6547    1.0000 </r>
       <r>   -2.2762    1.0000 </r>
       <r>   -1.7416    1.0000 </r>
       <r>   -1.1668    1.0000 </r>
       <r>   -0.7477    1.0000 </r>
       <r>   -0.6091    1.0000 </r>
       <r>   -0.3461    1.0000 </r>
       <r>   -0.1549    1.0000 </r>
       <r>    0.0887    1.0000 </r>
       <r>    0.7140    1.0000 </r>
       <r>    0.8067    1.0000 </r>
       <r>    1.0213    1.0000 </r>
       <r>    1.2353    1.0000 </r>
       <r>    1.7950    1.0000 </r>
       <r>    2.0851    1.0000 </r>
       <r>    2.3728    1.0000 </r>
       <r>    2.9308    1.0000 </r>
       <r>    3.2998    1.0000 </r>
       <r>    3.6183    1.0000 </r>
       <r>    3.8886    1.0000 </r>
       <r>    4.2468    1.0000 </r>
       <r>    4.3678    1.0000 </r>
       <r>    4.6320    1.0000 </r>
       <r>    4.7143    1.0000 </r>
       <r>    4.9997    1.0000 </r>
       <r>    5.1062    1.0000 </r>
       <r>    5.4005    1.0000 </r>
       <r>    5.4746    1.0000 </r>
       <r>    5.7008    1.0000 </r>
       <r>    5.7818    1.0000 </r>
       <r>    5.9308    1.0000 </r>
       <r>    6.0690    1.0000 </r>
       <r>    6.2108    1.0000 </r>
       <r>    6.4162    1.0000 </r>
       <r>    6.4783    1.0000 </r>
       <r>    6.7124    1.0000 </r>
       <r>    6.9022    1.0000 </r>
       <r>    7.0126    1.0000 </r>
       <r>    7.1439    1.0001 </r>
       <r>    7.2136    1.0007 </r>
       <r>    7.4007    1.0192 </r>
       <r>    7.5002    1.0352 </r>
       <r>    7.7373    0.5019 </r>
       <r>    7.8846    0.0288 </r>
       <r>    8.0316   -0.0290 </r>
       <r>    8.2486   -0.0009 </r>
       <r>    8.3846   -0.0000 </r>
       <r>    8.6642   -0.0000 </r>
       <r>    8.7943   -0.0000 </r>
       <r>    8.8941   -0.0000 </r>
       <r>    8.9905   -0.0000 </r>
       <r>    9.3178   -0.0000 </r>
       <r>    9.4654   -0.0000 </r>
       <r>    9.6247   -0.0000 </r>
       <r>    9.8394   -0.0000 </r>
       <r>    9.9530   -0.0000 </r>
       <r>   10.0309   -0.0000 </r>
       <r>   10.3690   -0.0000 </r>
       <r>   10.4804   -0.0000 </r>
       <r>   10.7556   -0.0000 </r>
       <r>   11.1348   -0.0000 </r>
       <r>   11.3115   -0.0000 </r>
       <r>   11.6070   -0.0000 </r>
       <r>   11.8096   -0.0000 </r>
      </set>
      <set comment="kpoint 41">
       <r>   -3.4825    1.0000 </r>
       <r>   -2.5267    1.0000 </r>
       <r>   -1.8259    1.0000 </r>
       <r>   -1.5088    1.0000 </r>
       <r>   -1.0844    1.0000 </r>
       <r>   -0.6979    1.0000 </r>
       <r>    0.0228    1.0000 </r>
       <r>    0.0785    1.0000 </r>
       <r>    0.5939    1.0000 </r>
       <r>    0.7701    1.0000 </r>
       <r>    1.1871    1.0000 </r>
       <r>    1.4272    1.0000 </r>
       <r>    1.7035    1.0000 </r>
       <r>    1.8233    1.0000 </r>
       <r>    2.0442    1.0000 </r>
       <r>    2.1817    1.0000 </r>
       <r>    2.9555    1.0000 </r>
       <r>    3.0225    1.0000 </r>
       <r>    3.3546    1.0000 </r>
       <r>    3.4240    1.0000 </r>
       <r>    3.6743    1.0000 </r>
       <r>    4.0599    1.0000 </r>
       <r>    4.1700    1.0000 </r>
       <r>    4.5273    1.0000 </r>
       <r>    4.7997    1.0000 </r>
       <r>    5.0111    1.0000 </r>
       <r>    5.1561    1.0000 </r>
       <r>    5.2956    1.0000 </r>
       <r>    5.5334    1.0000 </r>
       <r>    5.6852    1.0000 </r>
       <r>    5.8958    1.0000 </r>
       <r>    6.0097    1.0000 </r>
       <r>    6.2563    1.0000 </r>
       <r>    6.3462    1.0000 </r>
       <r>    6.5824    1.0000 </r>
       <r>    6.7647    1.0000 </r>
       <r>    6.9310    1.0000 </r>
       <r>    7.1309    1.0001 </r>
       <r>    7.3008    1.0042 </r>
       <r>    7.4548    1.0312 </r>
       <r>    7.5051    1.0348 </r>
       <r>    7.7110    0.6124 </r>
       <r>    7.9274   -0.0189 </r>
       <r>    7.9750   -0.0352 </r>
       <r>    8.1333   -0.0086 </r>
       <r>    8.4763   -0.0000 </r>
       <r>    8.5489   -0.0000 </r>
       <r>    8.7897   -0.0000 </r>
       <r>    9.3290   -0.0000 </r>
       <r>    9.4998   -0.0000 </r>
       <r>    9.6257   -0.0000 </r>
       <r>    9.7623   -0.0000 </r>
       <r>    9.9561   -0.0000 </r>
       <r>   10.0755   -0.0000 </r>
       <r>   10.2460   -0.0000 </r>
       <r>   10.4746   -0.0000 </r>
       <r>   10.6384   -0.0000 </r>
       <r>   10.7686   -0.0000 </r>
       <r>   10.8507   -0.0000 </r>
       <r>   11.0597   -0.0000 </r>
       <r>   11.1477   -0.0000 </r>
       <r>   11.3053   -0.0000 </r>
       <r>   11.3296   -0.0000 </r>
       <r>   11.4540   -0.0000 </r>
      </set>
      <set comment="kpoint 42">
       <r>   -3.5270    1.0000 </r>
       <r>   -2.3267    1.0000 </r>
       <r>   -1.8700    1.0000 </r>
       <r>   -1.4713    1.0000 </r>
       <r>   -1.2747    1.0000 </r>
       <r>   -0.8379    1.0000 </r>
       <r>   -0.1375    1.0000 </r>
       <r>    0.3329    1.0000 </r>
       <r>    0.6707    1.0000 </r>
       <r>    0.9178    1.0000 </r>
       <r>    1.0896    1.0000 </r>
       <r>    1.3716    1.0000 </r>
       <r>    1.6552    1.0000 </r>
       <r>    1.7542    1.0000 </r>
       <r>    2.2209    1.0000 </r>
       <r>    2.4654    1.0000 </r>
       <r>    2.6222    1.0000 </r>
       <r>    3.2308    1.0000 </r>
       <r>    3.3227    1.0000 </r>
       <r>    3.4708    1.0000 </r>
       <r>    3.6573    1.0000 </r>
       <r>    3.9878    1.0000 </r>
       <r>    4.2510    1.0000 </r>
       <r>    4.4422    1.0000 </r>
       <r>    4.6788    1.0000 </r>
       <r>    4.8633    1.0000 </r>
       <r>    5.0914    1.0000 </r>
       <r>    5.1893    1.0000 </r>
       <r>    5.5166    1.0000 </r>
       <r>    5.6956    1.0000 </r>
       <r>    6.0530    1.0000 </r>
       <r>    6.1021    1.0000 </r>
       <r>    6.2510    1.0000 </r>
       <r>    6.3130    1.0000 </r>
       <r>    6.5791    1.0000 </r>
       <r>    6.8532    1.0000 </r>
       <r>    7.0189    1.0000 </r>
       <r>    7.2043    1.0005 </r>
       <r>    7.2735    1.0025 </r>
       <r>    7.4010    1.0192 </r>
       <r>    7.5598    1.0096 </r>
       <r>    7.6433    0.8544 </r>
       <r>    7.7372    0.5023 </r>
       <r>    7.9524   -0.0311 </r>
       <r>    8.1417   -0.0075 </r>
       <r>    8.3252   -0.0001 </r>
       <r>    8.6514   -0.0000 </r>
       <r>    8.7202   -0.0000 </r>
       <r>    9.3334   -0.0000 </r>
       <r>    9.5178   -0.0000 </r>
       <r>    9.6557   -0.0000 </r>
       <r>    9.9189   -0.0000 </r>
       <r>   10.1390   -0.0000 </r>
       <r>   10.1817   -0.0000 </r>
       <r>   10.3948   -0.0000 </r>
       <r>   10.5388   -0.0000 </r>
       <r>   10.6403   -0.0000 </r>
       <r>   10.8210   -0.0000 </r>
       <r>   10.9288   -0.0000 </r>
       <r>   11.0049   -0.0000 </r>
       <r>   11.0975   -0.0000 </r>
       <r>   11.3126   -0.0000 </r>
       <r>   11.3558   -0.0000 </r>
       <r>   11.5625   -0.0000 </r>
      </set>
      <set comment="kpoint 43">
       <r>   -3.4684    1.0000 </r>
       <r>   -2.5909    1.0000 </r>
       <r>   -1.6784    1.0000 </r>
       <r>   -1.5639    1.0000 </r>
       <r>   -1.1881    1.0000 </r>
       <r>   -0.6612    1.0000 </r>
       <r>   -0.0078    1.0000 </r>
       <r>    0.1929    1.0000 </r>
       <r>    0.6342    1.0000 </r>
       <r>    0.8396    1.0000 </r>
       <r>    1.0994    1.0000 </r>
       <r>    1.4652    1.0000 </r>
       <r>    1.5623    1.0000 </r>
       <r>    1.7063    1.0000 </r>
       <r>    2.0675    1.0000 </r>
       <r>    2.3052    1.0000 </r>
       <r>    2.7635    1.0000 </r>
       <r>    3.0774    1.0000 </r>
       <r>    3.3468    1.0000 </r>
       <r>    3.5276    1.0000 </r>
       <r>    3.7720    1.0000 </r>
       <r>    3.9022    1.0000 </r>
       <r>    4.1398    1.0000 </r>
       <r>    4.5132    1.0000 </r>
       <r>    4.8523    1.0000 </r>
       <r>    4.9677    1.0000 </r>
       <r>    5.1718    1.0000 </r>
       <r>    5.4527    1.0000 </r>
       <r>    5.5946    1.0000 </r>
       <r>    5.6985    1.0000 </r>
       <r>    5.9185    1.0000 </r>
       <r>    6.0019    1.0000 </r>
       <r>    6.3474    1.0000 </r>
       <r>    6.4800    1.0000 </r>
       <r>    6.5477    1.0000 </r>
       <r>    6.7574    1.0000 </r>
       <r>    6.9359    1.0000 </r>
       <r>    7.0545    1.0000 </r>
       <r>    7.1231    1.0001 </r>
       <r>    7.3961    1.0182 </r>
       <r>    7.5826    0.9837 </r>
       <r>    7.7111    0.6119 </r>
       <r>    7.8266    0.1622 </r>
       <r>    7.9632   -0.0338 </r>
       <r>    8.2496   -0.0009 </r>
       <r>    8.3272   -0.0001 </r>
       <r>    8.5169   -0.0000 </r>
       <r>    8.7485   -0.0000 </r>
       <r>    9.3036   -0.0000 </r>
       <r>    9.4793   -0.0000 </r>
       <r>    9.6667   -0.0000 </r>
       <r>    9.7683   -0.0000 </r>
       <r>    9.9788   -0.0000 </r>
       <r>   10.1240   -0.0000 </r>
       <r>   10.3051   -0.0000 </r>
       <r>   10.3955   -0.0000 </r>
       <r>   10.5813   -0.0000 </r>
       <r>   10.8106   -0.0000 </r>
       <r>   10.9051   -0.0000 </r>
       <r>   11.0416   -0.0000 </r>
       <r>   11.1409   -0.0000 </r>
       <r>   11.2631   -0.0000 </r>
       <r>   11.3561   -0.0000 </r>
       <r>   11.5194   -0.0000 </r>
      </set>
      <set comment="kpoint 44">
       <r>   -3.4816    1.0000 </r>
       <r>   -2.5087    1.0000 </r>
       <r>   -1.8906    1.0000 </r>
       <r>   -1.5145    1.0000 </r>
       <r>   -0.9856    1.0000 </r>
       <r>   -0.7252    1.0000 </r>
       <r>   -0.0712    1.0000 </r>
       <r>    0.2011    1.0000 </r>
       <r>    0.4603    1.0000 </r>
       <r>    0.9965    1.0000 </r>
       <r>    1.1193    1.0000 </r>
       <r>    1.3651    1.0000 </r>
       <r>    1.5850    1.0000 </r>
       <r>    1.7896    1.0000 </r>
       <r>    2.2193    1.0000 </r>
       <r>    2.3137    1.0000 </r>
       <r>    2.6409    1.0000 </r>
       <r>    3.1381    1.0000 </r>
       <r>    3.2931    1.0000 </r>
       <r>    3.4635    1.0000 </r>
       <r>    3.6977    1.0000 </r>
       <r>    3.9515    1.0000 </r>
       <r>    4.3316    1.0000 </r>
       <r>    4.6070    1.0000 </r>
       <r>    4.8106    1.0000 </r>
       <r>    4.9778    1.0000 </r>
       <r>    5.0773    1.0000 </r>
       <r>    5.1982    1.0000 </r>
       <r>    5.5575    1.0000 </r>
       <r>    5.6984    1.0000 </r>
       <r>    5.8840    1.0000 </r>
       <r>    6.0518    1.0000 </r>
       <r>    6.2278    1.0000 </r>
       <r>    6.4498    1.0000 </r>
       <r>    6.6357    1.0000 </r>
       <r>    6.7496    1.0000 </r>
       <r>    7.0158    1.0000 </r>
       <r>    7.0895    1.0000 </r>
       <r>    7.2020    1.0005 </r>
       <r>    7.3203    1.0060 </r>
       <r>    7.5955    0.9638 </r>
       <r>    7.7428    0.4786 </r>
       <r>    7.8717    0.0512 </r>
       <r>    8.0344   -0.0284 </r>
       <r>    8.1744   -0.0042 </r>
       <r>    8.4403   -0.0000 </r>
       <r>    8.5847   -0.0000 </r>
       <r>    8.8892   -0.0000 </r>
       <r>    9.1614   -0.0000 </r>
       <r>    9.3827   -0.0000 </r>
       <r>    9.5590   -0.0000 </r>
       <r>    9.6508   -0.0000 </r>
       <r>    9.9033   -0.0000 </r>
       <r>   10.1416   -0.0000 </r>
       <r>   10.4621   -0.0000 </r>
       <r>   10.5925   -0.0000 </r>
       <r>   10.6596   -0.0000 </r>
       <r>   10.8263   -0.0000 </r>
       <r>   10.8857   -0.0000 </r>
       <r>   11.0369   -0.0000 </r>
       <r>   11.1766   -0.0000 </r>
       <r>   11.2654   -0.0000 </r>
       <r>   11.4523   -0.0000 </r>
       <r>   11.4930   -0.0000 </r>
      </set>
      <set comment="kpoint 45">
       <r>   -3.4683    1.0000 </r>
       <r>   -2.5619    1.0000 </r>
       <r>   -1.7932    1.0000 </r>
       <r>   -1.5148    1.0000 </r>
       <r>   -1.1936    1.0000 </r>
       <r>   -0.6733    1.0000 </r>
       <r>    0.0239    1.0000 </r>
       <r>    0.3453    1.0000 </r>
       <r>    0.5777    1.0000 </r>
       <r>    0.9383    1.0000 </r>
       <r>    1.0621    1.0000 </r>
       <r>    1.3434    1.0000 </r>
       <r>    1.6381    1.0000 </r>
       <r>    1.7173    1.0000 </r>
       <r>    1.9292    1.0000 </r>
       <r>    2.2667    1.0000 </r>
       <r>    2.7103    1.0000 </r>
       <r>    3.1370    1.0000 </r>
       <r>    3.3617    1.0000 </r>
       <r>    3.5201    1.0000 </r>
       <r>    3.7015    1.0000 </r>
       <r>    3.9292    1.0000 </r>
       <r>    4.2574    1.0000 </r>
       <r>    4.6480    1.0000 </r>
       <r>    4.8168    1.0000 </r>
       <r>    4.9887    1.0000 </r>
       <r>    5.1030    1.0000 </r>
       <r>    5.3461    1.0000 </r>
       <r>    5.5681    1.0000 </r>
       <r>    5.6919    1.0000 </r>
       <r>    5.8684    1.0000 </r>
       <r>    5.9206    1.0000 </r>
       <r>    6.3634    1.0000 </r>
       <r>    6.5052    1.0000 </r>
       <r>    6.6227    1.0000 </r>
       <r>    6.7730    1.0000 </r>
       <r>    6.9672    1.0000 </r>
       <r>    7.0374    1.0000 </r>
       <r>    7.3025    1.0043 </r>
       <r>    7.4734    1.0342 </r>
       <r>    7.6273    0.8974 </r>
       <r>    7.7240    0.5580 </r>
       <r>    7.7865    0.3004 </r>
       <r>    7.9427   -0.0275 </r>
       <r>    8.1044   -0.0132 </r>
       <r>    8.3077   -0.0002 </r>
       <r>    8.6669   -0.0000 </r>
       <r>    8.8246   -0.0000 </r>
       <r>    9.2511   -0.0000 </r>
       <r>    9.4163   -0.0000 </r>
       <r>    9.6029   -0.0000 </r>
       <r>    9.7575   -0.0000 </r>
       <r>    9.8211   -0.0000 </r>
       <r>   10.1262   -0.0000 </r>
       <r>   10.3609   -0.0000 </r>
       <r>   10.4375   -0.0000 </r>
       <r>   10.5797   -0.0000 </r>
       <r>   10.6904   -0.0000 </r>
       <r>   10.9163   -0.0000 </r>
       <r>   11.0721   -0.0000 </r>
       <r>   11.0917   -0.0000 </r>
       <r>   11.2505   -0.0000 </r>
       <r>   11.4462   -0.0000 </r>
       <r>   11.5265   -0.0000 </r>
      </set>
      <set comment="kpoint 46">
       <r>   -3.5257    1.0000 </r>
       <r>   -2.2635    1.0000 </r>
       <r>   -1.9458    1.0000 </r>
       <r>   -1.5968    1.0000 </r>
       <r>   -1.1307    1.0000 </r>
       <r>   -0.9097    1.0000 </r>
       <r>    0.0926    1.0000 </r>
       <r>    0.2770    1.0000 </r>
       <r>    0.5961    1.0000 </r>
       <r>    0.8642    1.0000 </r>
       <r>    1.1997    1.0000 </r>
       <r>    1.3946    1.0000 </r>
       <r>    1.5979    1.0000 </r>
       <r>    1.7300    1.0000 </r>
       <r>    2.1228    1.0000 </r>
       <r>    2.4060    1.0000 </r>
       <r>    2.7461    1.0000 </r>
       <r>    3.1354    1.0000 </r>
       <r>    3.3182    1.0000 </r>
       <r>    3.4567    1.0000 </r>
       <r>    3.7311    1.0000 </r>
       <r>    3.8968    1.0000 </r>
       <r>    4.3313    1.0000 </r>
       <r>    4.5270    1.0000 </r>
       <r>    4.7475    1.0000 </r>
       <r>    4.8926    1.0000 </r>
       <r>    5.0514    1.0000 </r>
       <r>    5.1343    1.0000 </r>
       <r>    5.4174    1.0000 </r>
       <r>    5.7633    1.0000 </r>
       <r>    5.9140    1.0000 </r>
       <r>    6.1324    1.0000 </r>
       <r>    6.2429    1.0000 </r>
       <r>    6.4759    1.0000 </r>
       <r>    6.5766    1.0000 </r>
       <r>    6.8575    1.0000 </r>
       <r>    6.9425    1.0000 </r>
       <r>    7.0829    1.0000 </r>
       <r>    7.2422    1.0013 </r>
       <r>    7.3362    1.0078 </r>
       <r>    7.5637    1.0059 </r>
       <r>    7.7614    0.4009 </r>
       <r>    7.9043    0.0021 </r>
       <r>    8.1225   -0.0102 </r>
       <r>    8.2312   -0.0013 </r>
       <r>    8.3843   -0.0000 </r>
       <r>    8.5086   -0.0000 </r>
       <r>    8.6710   -0.0000 </r>
       <r>    9.3178   -0.0000 </r>
       <r>    9.6088   -0.0000 </r>
       <r>    9.6410   -0.0000 </r>
       <r>    9.7772   -0.0000 </r>
       <r>    9.9306   -0.0000 </r>
       <r>   10.1596   -0.0000 </r>
       <r>   10.4485   -0.0000 </r>
       <r>   10.5507   -0.0000 </r>
       <r>   10.6937   -0.0000 </r>
       <r>   10.8542   -0.0000 </r>
       <r>   10.9193   -0.0000 </r>
       <r>   11.0045   -0.0000 </r>
       <r>   11.0687   -0.0000 </r>
       <r>   11.2011   -0.0000 </r>
       <r>   11.4643   -0.0000 </r>
       <r>   11.5355   -0.0000 </r>
      </set>
      <set comment="kpoint 47">
       <r>   -3.5099    1.0000 </r>
       <r>   -2.3642    1.0000 </r>
       <r>   -2.0140    1.0000 </r>
       <r>   -1.4329    1.0000 </r>
       <r>   -1.0896    1.0000 </r>
       <r>   -0.6914    1.0000 </r>
       <r>   -0.1743    1.0000 </r>
       <r>    0.1580    1.0000 </r>
       <r>    0.5728    1.0000 </r>
       <r>    0.9173    1.0000 </r>
       <r>    1.2085    1.0000 </r>
       <r>    1.2858    1.0000 </r>
       <r>    1.5859    1.0000 </r>
       <r>    1.9508    1.0000 </r>
       <r>    2.1308    1.0000 </r>
       <r>    2.3775    1.0000 </r>
       <r>    2.7699    1.0000 </r>
       <r>    2.9904    1.0000 </r>
       <r>    3.3006    1.0000 </r>
       <r>    3.3508    1.0000 </r>
       <r>    3.8501    1.0000 </r>
       <r>    4.0986    1.0000 </r>
       <r>    4.3752    1.0000 </r>
       <r>    4.6095    1.0000 </r>
       <r>    4.7241    1.0000 </r>
       <r>    4.8858    1.0000 </r>
       <r>    5.0591    1.0000 </r>
       <r>    5.1992    1.0000 </r>
       <r>    5.6093    1.0000 </r>
       <r>    5.8029    1.0000 </r>
       <r>    5.9248    1.0000 </r>
       <r>    6.0256    1.0000 </r>
       <r>    6.0941    1.0000 </r>
       <r>    6.2685    1.0000 </r>
       <r>    6.3780    1.0000 </r>
       <r>    6.6234    1.0000 </r>
       <r>    6.9295    1.0000 </r>
       <r>    7.1260    1.0001 </r>
       <r>    7.3743    1.0138 </r>
       <r>    7.5255    1.0304 </r>
       <r>    7.6980    0.6648 </r>
       <r>    7.8149    0.1990 </r>
       <r>    7.8819    0.0331 </r>
       <r>    8.0277   -0.0298 </r>
       <r>    8.1619   -0.0053 </r>
       <r>    8.3994   -0.0000 </r>
       <r>    8.5019   -0.0000 </r>
       <r>    8.6314   -0.0000 </r>
       <r>    9.1358   -0.0000 </r>
       <r>    9.4975   -0.0000 </r>
       <r>    9.6532   -0.0000 </r>
       <r>    9.8279   -0.0000 </r>
       <r>   10.0153   -0.0000 </r>
       <r>   10.2368   -0.0000 </r>
       <r>   10.3895   -0.0000 </r>
       <r>   10.4897   -0.0000 </r>
       <r>   10.6080   -0.0000 </r>
       <r>   10.8088   -0.0000 </r>
       <r>   10.9290   -0.0000 </r>
       <r>   11.0813   -0.0000 </r>
       <r>   11.2030   -0.0000 </r>
       <r>   11.2995   -0.0000 </r>
       <r>   11.4635   -0.0000 </r>
       <r>   11.5796   -0.0000 </r>
      </set>
      <set comment="kpoint 48">
       <r>   -3.5354    1.0000 </r>
       <r>   -2.2966    1.0000 </r>
       <r>   -1.7544    1.0000 </r>
       <r>   -1.5691    1.0000 </r>
       <r>   -1.4164    1.0000 </r>
       <r>   -0.7555    1.0000 </r>
       <r>    0.0635    1.0000 </r>
       <r>    0.1672    1.0000 </r>
       <r>    0.6240    1.0000 </r>
       <r>    0.9225    1.0000 </r>
       <r>    1.0133    1.0000 </r>
       <r>    1.3685    1.0000 </r>
       <r>    1.6271    1.0000 </r>
       <r>    1.9025    1.0000 </r>
       <r>    2.2270    1.0000 </r>
       <r>    2.3397    1.0000 </r>
       <r>    2.9013    1.0000 </r>
       <r>    3.0644    1.0000 </r>
       <r>    3.2403    1.0000 </r>
       <r>    3.5672    1.0000 </r>
       <r>    3.8195    1.0000 </r>
       <r>    4.0048    1.0000 </r>
       <r>    4.1674    1.0000 </r>
       <r>    4.3432    1.0000 </r>
       <r>    4.6166    1.0000 </r>
       <r>    4.7707    1.0000 </r>
       <r>    5.2750    1.0000 </r>
       <r>    5.3067    1.0000 </r>
       <r>    5.5807    1.0000 </r>
       <r>    5.7080    1.0000 </r>
       <r>    5.8577    1.0000 </r>
       <r>    6.0294    1.0000 </r>
       <r>    6.2183    1.0000 </r>
       <r>    6.3627    1.0000 </r>
       <r>    6.4797    1.0000 </r>
       <r>    6.7484    1.0000 </r>
       <r>    6.9018    1.0000 </r>
       <r>    7.1495    1.0001 </r>
       <r>    7.2877    1.0033 </r>
       <r>    7.5223    1.0314 </r>
       <r>    7.6336    0.8814 </r>
       <r>    7.7781    0.3334 </r>
       <r>    7.8940    0.0149 </r>
       <r>    8.0186   -0.0316 </r>
       <r>    8.1578   -0.0057 </r>
       <r>    8.2499   -0.0009 </r>
       <r>    8.4835   -0.0000 </r>
       <r>    8.6868   -0.0000 </r>
       <r>    9.3699   -0.0000 </r>
       <r>    9.5342   -0.0000 </r>
       <r>    9.6698   -0.0000 </r>
       <r>    9.9969   -0.0000 </r>
       <r>   10.0243   -0.0000 </r>
       <r>   10.2222   -0.0000 </r>
       <r>   10.3794   -0.0000 </r>
       <r>   10.4609   -0.0000 </r>
       <r>   10.5826   -0.0000 </r>
       <r>   10.7880   -0.0000 </r>
       <r>   10.8968   -0.0000 </r>
       <r>   11.0971   -0.0000 </r>
       <r>   11.2718   -0.0000 </r>
       <r>   11.3846   -0.0000 </r>
       <r>   11.4393   -0.0000 </r>
       <r>   11.5873   -0.0000 </r>
      </set>
      <set comment="kpoint 49">
       <r>   -3.4984    1.0000 </r>
       <r>   -2.4610    1.0000 </r>
       <r>   -1.8503    1.0000 </r>
       <r>   -1.5244    1.0000 </r>
       <r>   -1.1319    1.0000 </r>
       <r>   -0.6510    1.0000 </r>
       <r>   -0.1868    1.0000 </r>
       <r>    0.2888    1.0000 </r>
       <r>    0.5781    1.0000 </r>
       <r>    0.8917    1.0000 </r>
       <r>    1.1414    1.0000 </r>
       <r>    1.3240    1.0000 </r>
       <r>    1.4950    1.0000 </r>
       <r>    2.0218    1.0000 </r>
       <r>    2.1944    1.0000 </r>
       <r>    2.2960    1.0000 </r>
       <r>    2.6460    1.0000 </r>
       <r>    3.0103    1.0000 </r>
       <r>    3.2121    1.0000 </r>
       <r>    3.4946    1.0000 </r>
       <r>    3.8643    1.0000 </r>
       <r>    3.9350    1.0000 </r>
       <r>    4.3732    1.0000 </r>
       <r>    4.5930    1.0000 </r>
       <r>    4.7411    1.0000 </r>
       <r>    4.9347    1.0000 </r>
       <r>    5.0947    1.0000 </r>
       <r>    5.2895    1.0000 </r>
       <r>    5.6662    1.0000 </r>
       <r>    5.8539    1.0000 </r>
       <r>    5.9571    1.0000 </r>
       <r>    6.1499    1.0000 </r>
       <r>    6.1878    1.0000 </r>
       <r>    6.3169    1.0000 </r>
       <r>    6.4572    1.0000 </r>
       <r>    6.6025    1.0000 </r>
       <r>    6.8578    1.0000 </r>
       <r>    6.9605    1.0000 </r>
       <r>    7.2469    1.0014 </r>
       <r>    7.4366    1.0274 </r>
       <r>    7.5503    1.0174 </r>
       <r>    7.7773    0.3364 </r>
       <r>    7.9148   -0.0087 </r>
       <r>    8.0581   -0.0230 </r>
       <r>    8.1363   -0.0082 </r>
       <r>    8.3566   -0.0001 </r>
       <r>    8.4734   -0.0000 </r>
       <r>    8.7003   -0.0000 </r>
       <r>    9.3729   -0.0000 </r>
       <r>    9.5473   -0.0000 </r>
       <r>    9.6923   -0.0000 </r>
       <r>    9.8182   -0.0000 </r>
       <r>   10.0207   -0.0000 </r>
       <r>   10.1478   -0.0000 </r>
       <r>   10.3239   -0.0000 </r>
       <r>   10.4994   -0.0000 </r>
       <r>   10.5628   -0.0000 </r>
       <r>   10.7166   -0.0000 </r>
       <r>   10.8430   -0.0000 </r>
       <r>   11.0139   -0.0000 </r>
       <r>   11.1494   -0.0000 </r>
       <r>   11.2650   -0.0000 </r>
       <r>   11.4533   -0.0000 </r>
       <r>   11.6092   -0.0000 </r>
      </set>
      <set comment="kpoint 50">
       <r>   -3.5116    1.0000 </r>
       <r>   -2.3123    1.0000 </r>
       <r>   -2.0436    1.0000 </r>
       <r>   -1.5725    1.0000 </r>
       <r>   -0.9349    1.0000 </r>
       <r>   -0.6808    1.0000 </r>
       <r>   -0.2836    1.0000 </r>
       <r>    0.2871    1.0000 </r>
       <r>    0.5587    1.0000 </r>
       <r>    0.8435    1.0000 </r>
       <r>    1.1065    1.0000 </r>
       <r>    1.3963    1.0000 </r>
       <r>    1.7720    1.0000 </r>
       <r>    1.8222    1.0000 </r>
       <r>    2.1849    1.0000 </r>
       <r>    2.3946    1.0000 </r>
       <r>    2.5810    1.0000 </r>
       <r>    3.0885    1.0000 </r>
       <r>    3.3182    1.0000 </r>
       <r>    3.3358    1.0000 </r>
       <r>    3.7485    1.0000 </r>
       <r>    4.0256    1.0000 </r>
       <r>    4.4320    1.0000 </r>
       <r>    4.5772    1.0000 </r>
       <r>    4.7362    1.0000 </r>
       <r>    4.8529    1.0000 </r>
       <r>    5.0414    1.0000 </r>
       <r>    5.3177    1.0000 </r>
       <r>    5.5457    1.0000 </r>
       <r>    5.7267    1.0000 </r>
       <r>    5.9680    1.0000 </r>
       <r>    6.1170    1.0000 </r>
       <r>    6.2307    1.0000 </r>
       <r>    6.3231    1.0000 </r>
       <r>    6.5254    1.0000 </r>
       <r>    6.6765    1.0000 </r>
       <r>    6.8912    1.0000 </r>
       <r>    7.0383    1.0000 </r>
       <r>    7.2646    1.0021 </r>
       <r>    7.4195    1.0235 </r>
       <r>    7.5889    0.9744 </r>
       <r>    7.6941    0.6802 </r>
       <r>    7.8733    0.0483 </r>
       <r>    8.1191   -0.0107 </r>
       <r>    8.3457   -0.0001 </r>
       <r>    8.4027   -0.0000 </r>
       <r>    8.5403   -0.0000 </r>
       <r>    8.6313   -0.0000 </r>
       <r>    9.1432   -0.0000 </r>
       <r>    9.4010   -0.0000 </r>
       <r>    9.6206   -0.0000 </r>
       <r>    9.8223   -0.0000 </r>
       <r>   10.0073   -0.0000 </r>
       <r>   10.1992   -0.0000 </r>
       <r>   10.3939   -0.0000 </r>
       <r>   10.5754   -0.0000 </r>
       <r>   10.7276   -0.0000 </r>
       <r>   10.7825   -0.0000 </r>
       <r>   10.9588   -0.0000 </r>
       <r>   11.0733   -0.0000 </r>
       <r>   11.2565   -0.0000 </r>
       <r>   11.3378   -0.0000 </r>
       <r>   11.4407   -0.0000 </r>
       <r>   11.6195   -0.0000 </r>
      </set>
      <set comment="kpoint 51">
       <r>   -3.4989    1.0000 </r>
       <r>   -2.4209    1.0000 </r>
       <r>   -1.8566    1.0000 </r>
       <r>   -1.6405    1.0000 </r>
       <r>   -1.1274    1.0000 </r>
       <r>   -0.5909    1.0000 </r>
       <r>   -0.1689    1.0000 </r>
       <r>    0.2938    1.0000 </r>
       <r>    0.7029    1.0000 </r>
       <r>    0.8942    1.0000 </r>
       <r>    1.1968    1.0000 </r>
       <r>    1.2587    1.0000 </r>
       <r>    1.5737    1.0000 </r>
       <r>    1.8279    1.0000 </r>
       <r>    2.0723    1.0000 </r>
       <r>    2.2482    1.0000 </r>
       <r>    2.6577    1.0000 </r>
       <r>    3.0761    1.0000 </r>
       <r>    3.3159    1.0000 </r>
       <r>    3.4626    1.0000 </r>
       <r>    3.7784    1.0000 </r>
       <r>    3.9811    1.0000 </r>
       <r>    4.3700    1.0000 </r>
       <r>    4.6449    1.0000 </r>
       <r>    4.8413    1.0000 </r>
       <r>    4.9122    1.0000 </r>
       <r>    5.1071    1.0000 </r>
       <r>    5.2589    1.0000 </r>
       <r>    5.6240    1.0000 </r>
       <r>    5.7097    1.0000 </r>
       <r>    5.8299    1.0000 </r>
       <r>    6.1248    1.0000 </r>
       <r>    6.1921    1.0000 </r>
       <r>    6.3590    1.0000 </r>
       <r>    6.5194    1.0000 </r>
       <r>    6.6215    1.0000 </r>
       <r>    6.9911    1.0000 </r>
       <r>    7.0706    1.0000 </r>
       <r>    7.3225    1.0062 </r>
       <r>    7.4710    1.0339 </r>
       <r>    7.6509    0.8319 </r>
       <r>    7.7663    0.3808 </r>
       <r>    7.8727    0.0492 </r>
       <r>    8.0179   -0.0318 </r>
       <r>    8.1659   -0.0049 </r>
       <r>    8.3476   -0.0001 </r>
       <r>    8.4014   -0.0000 </r>
       <r>    8.6746   -0.0000 </r>
       <r>    9.3577   -0.0000 </r>
       <r>    9.4512   -0.0000 </r>
       <r>    9.6754   -0.0000 </r>
       <r>    9.9452   -0.0000 </r>
       <r>   10.0068   -0.0000 </r>
       <r>   10.1443   -0.0000 </r>
       <r>   10.3181   -0.0000 </r>
       <r>   10.4338   -0.0000 </r>
       <r>   10.5978   -0.0000 </r>
       <r>   10.6848   -0.0000 </r>
       <r>   10.8761   -0.0000 </r>
       <r>   11.0068   -0.0000 </r>
       <r>   11.0444   -0.0000 </r>
       <r>   11.2064   -0.0000 </r>
       <r>   11.3163   -0.0000 </r>
       <r>   11.6053   -0.0000 </r>
      </set>
      <set comment="kpoint 52">
       <r>   -3.5366    1.0000 </r>
       <r>   -2.1712    1.0000 </r>
       <r>   -1.9530    1.0000 </r>
       <r>   -1.6165    1.0000 </r>
       <r>   -1.3312    1.0000 </r>
       <r>   -0.7808    1.0000 </r>
       <r>    0.0695    1.0000 </r>
       <r>    0.3538    1.0000 </r>
       <r>    0.6179    1.0000 </r>
       <r>    0.9022    1.0000 </r>
       <r>    1.0175    1.0000 </r>
       <r>    1.4248    1.0000 </r>
       <r>    1.5985    1.0000 </r>
       <r>    1.7665    1.0000 </r>
       <r>    2.1573    1.0000 </r>
       <r>    2.3069    1.0000 </r>
       <r>    2.9249    1.0000 </r>
       <r>    3.0842    1.0000 </r>
       <r>    3.3563    1.0000 </r>
       <r>    3.4408    1.0000 </r>
       <r>    3.8685    1.0000 </r>
       <r>    3.9502    1.0000 </r>
       <r>    4.2196    1.0000 </r>
       <r>    4.3650    1.0000 </r>
       <r>    4.5396    1.0000 </r>
       <r>    4.7859    1.0000 </r>
       <r>    5.2324    1.0000 </r>
       <r>    5.3468    1.0000 </r>
       <r>    5.5875    1.0000 </r>
       <r>    5.6084    1.0000 </r>
       <r>    5.8791    1.0000 </r>
       <r>    5.9878    1.0000 </r>
       <r>    6.3273    1.0000 </r>
       <r>    6.3687    1.0000 </r>
       <r>    6.5989    1.0000 </r>
       <r>    6.7058    1.0000 </r>
       <r>    7.0602    1.0000 </r>
       <r>    7.1351    1.0001 </r>
       <r>    7.3130    1.0053 </r>
       <r>    7.5365    1.0258 </r>
       <r>    7.5684    1.0011 </r>
       <r>    7.6888    0.7005 </r>
       <r>    7.9014    0.0055 </r>
       <r>    8.0053   -0.0338 </r>
       <r>    8.1421   -0.0075 </r>
       <r>    8.4436   -0.0000 </r>
       <r>    8.5133   -0.0000 </r>
       <r>    8.6997   -0.0000 </r>
       <r>    9.2537   -0.0000 </r>
       <r>    9.5960   -0.0000 </r>
       <r>    9.6503   -0.0000 </r>
       <r>    9.8304   -0.0000 </r>
       <r>   10.0093   -0.0000 </r>
       <r>   10.2503   -0.0000 </r>
       <r>   10.3668   -0.0000 </r>
       <r>   10.5083   -0.0000 </r>
       <r>   10.5660   -0.0000 </r>
       <r>   10.7489   -0.0000 </r>
       <r>   10.8900   -0.0000 </r>
       <r>   11.0465   -0.0000 </r>
       <r>   11.1585   -0.0000 </r>
       <r>   11.2742   -0.0000 </r>
       <r>   11.3802   -0.0000 </r>
       <r>   11.5485   -0.0000 </r>
      </set>
      <set comment="kpoint 53">
       <r>   -3.3057    1.0000 </r>
       <r>   -2.6590    1.0000 </r>
       <r>   -1.9712    1.0000 </r>
       <r>   -1.9156    1.0000 </r>
       <r>   -0.8853    1.0000 </r>
       <r>   -0.5146    1.0000 </r>
       <r>   -0.2611    1.0000 </r>
       <r>    0.2947    1.0000 </r>
       <r>    0.7522    1.0000 </r>
       <r>    1.0403    1.0000 </r>
       <r>    1.3731    1.0000 </r>
       <r>    1.4853    1.0000 </r>
       <r>    1.9421    1.0000 </r>
       <r>    2.0703    1.0000 </r>
       <r>    2.2838    1.0000 </r>
       <r>    2.4790    1.0000 </r>
       <r>    2.7211    1.0000 </r>
       <r>    3.0548    1.0000 </r>
       <r>    3.1902    1.0000 </r>
       <r>    3.2743    1.0000 </r>
       <r>    3.4080    1.0000 </r>
       <r>    3.7608    1.0000 </r>
       <r>    4.0388    1.0000 </r>
       <r>    4.1157    1.0000 </r>
       <r>    4.2250    1.0000 </r>
       <r>    4.4676    1.0000 </r>
       <r>    4.6462    1.0000 </r>
       <r>    4.9213    1.0000 </r>
       <r>    5.0623    1.0000 </r>
       <r>    5.5999    1.0000 </r>
       <r>    6.0181    1.0000 </r>
       <r>    6.2422    1.0000 </r>
       <r>    6.4220    1.0000 </r>
       <r>    6.5608    1.0000 </r>
       <r>    6.7169    1.0000 </r>
       <r>    7.0131    1.0000 </r>
       <r>    7.2041    1.0005 </r>
       <r>    7.3529    1.0101 </r>
       <r>    7.4222    1.0241 </r>
       <r>    7.6760    0.7482 </r>
       <r>    7.9438   -0.0280 </r>
       <r>    8.0299   -0.0294 </r>
       <r>    8.2331   -0.0013 </r>
       <r>    8.4515   -0.0000 </r>
       <r>    8.5317   -0.0000 </r>
       <r>    8.7886   -0.0000 </r>
       <r>    8.8854   -0.0000 </r>
       <r>    9.1028   -0.0000 </r>
       <r>    9.2212   -0.0000 </r>
       <r>    9.4360   -0.0000 </r>
       <r>    9.5750   -0.0000 </r>
       <r>    9.8099   -0.0000 </r>
       <r>    9.8671   -0.0000 </r>
       <r>   10.0411   -0.0000 </r>
       <r>   10.1189   -0.0000 </r>
       <r>   10.2513   -0.0000 </r>
       <r>   10.4274   -0.0000 </r>
       <r>   10.6549   -0.0000 </r>
       <r>   10.7135   -0.0000 </r>
       <r>   11.0408   -0.0000 </r>
       <r>   11.1272   -0.0000 </r>
       <r>   11.2652   -0.0000 </r>
       <r>   11.4429   -0.0000 </r>
       <r>   11.5861   -0.0000 </r>
      </set>
      <set comment="kpoint 54">
       <r>   -3.3812    1.0000 </r>
       <r>   -2.3597    1.0000 </r>
       <r>   -2.1677    1.0000 </r>
       <r>   -1.8481    1.0000 </r>
       <r>   -1.1472    1.0000 </r>
       <r>   -0.4985    1.0000 </r>
       <r>   -0.2091    1.0000 </r>
       <r>    0.3132    1.0000 </r>
       <r>    0.7638    1.0000 </r>
       <r>    1.1109    1.0000 </r>
       <r>    1.3390    1.0000 </r>
       <r>    1.5993    1.0000 </r>
       <r>    1.8070    1.0000 </r>
       <r>    2.0925    1.0000 </r>
       <r>    2.2511    1.0000 </r>
       <r>    2.6433    1.0000 </r>
       <r>    2.8277    1.0000 </r>
       <r>    3.0608    1.0000 </r>
       <r>    3.2237    1.0000 </r>
       <r>    3.3262    1.0000 </r>
       <r>    3.4437    1.0000 </r>
       <r>    3.6288    1.0000 </r>
       <r>    3.9165    1.0000 </r>
       <r>    3.9788    1.0000 </r>
       <r>    4.3041    1.0000 </r>
       <r>    4.4652    1.0000 </r>
       <r>    4.6492    1.0000 </r>
       <r>    5.0825    1.0000 </r>
       <r>    5.1067    1.0000 </r>
       <r>    5.3906    1.0000 </r>
       <r>    5.5997    1.0000 </r>
       <r>    6.2047    1.0000 </r>
       <r>    6.4242    1.0000 </r>
       <r>    6.5664    1.0000 </r>
       <r>    6.8467    1.0000 </r>
       <r>    7.0118    1.0000 </r>
       <r>    7.1052    1.0000 </r>
       <r>    7.4759    1.0345 </r>
       <r>    7.7488    0.4534 </r>
       <r>    7.9066   -0.0005 </r>
       <r>    7.9669   -0.0344 </r>
       <r>    8.1175   -0.0109 </r>
       <r>    8.1904   -0.0031 </r>
       <r>    8.3417   -0.0001 </r>
       <r>    8.6469   -0.0000 </r>
       <r>    8.7561   -0.0000 </r>
       <r>    8.8305   -0.0000 </r>
       <r>    9.0279   -0.0000 </r>
       <r>    9.1066   -0.0000 </r>
       <r>    9.2349   -0.0000 </r>
       <r>    9.5524   -0.0000 </r>
       <r>    9.6802   -0.0000 </r>
       <r>    9.9069   -0.0000 </r>
       <r>   10.0444   -0.0000 </r>
       <r>   10.1211   -0.0000 </r>
       <r>   10.3214   -0.0000 </r>
       <r>   10.4846   -0.0000 </r>
       <r>   10.6914   -0.0000 </r>
       <r>   10.8085   -0.0000 </r>
       <r>   10.9554   -0.0000 </r>
       <r>   11.0952   -0.0000 </r>
       <r>   11.2420   -0.0000 </r>
       <r>   11.5149   -0.0000 </r>
       <r>   11.5751   -0.0000 </r>
      </set>
      <set comment="kpoint 55">
       <r>   -3.2957    1.0000 </r>
       <r>   -2.6750    1.0000 </r>
       <r>   -2.1337    1.0000 </r>
       <r>   -1.6913    1.0000 </r>
       <r>   -1.0240    1.0000 </r>
       <r>   -0.3812    1.0000 </r>
       <r>   -0.1585    1.0000 </r>
       <r>    0.2964    1.0000 </r>
       <r>    0.5179    1.0000 </r>
       <r>    1.0740    1.0000 </r>
       <r>    1.4046    1.0000 </r>
       <r>    1.4663    1.0000 </r>
       <r>    1.8730    1.0000 </r>
       <r>    1.9606    1.0000 </r>
       <r>    2.2971    1.0000 </r>
       <r>    2.5954    1.0000 </r>
       <r>    2.6910    1.0000 </r>
       <r>    3.0071    1.0000 </r>
       <r>    3.1425    1.0000 </r>
       <r>    3.3294    1.0000 </r>
       <r>    3.6084    1.0000 </r>
       <r>    3.7744    1.0000 </r>
       <r>    3.9540    1.0000 </r>
       <r>    4.2263    1.0000 </r>
       <r>    4.2959    1.0000 </r>
       <r>    4.5690    1.0000 </r>
       <r>    4.6664    1.0000 </r>
       <r>    4.9121    1.0000 </r>
       <r>    5.1706    1.0000 </r>
       <r>    5.3583    1.0000 </r>
       <r>    5.9164    1.0000 </r>
       <r>    6.1200    1.0000 </r>
       <r>    6.4984    1.0000 </r>
       <r>    6.6592    1.0000 </r>
       <r>    6.7108    1.0000 </r>
       <r>    6.8483    1.0000 </r>
       <r>    7.1999    1.0005 </r>
       <r>    7.3122    1.0052 </r>
       <r>    7.5515    1.0165 </r>
       <r>    7.6341    0.8801 </r>
       <r>    7.8142    0.2014 </r>
       <r>    8.0463   -0.0257 </r>
       <r>    8.3231   -0.0001 </r>
       <r>    8.4370   -0.0000 </r>
       <r>    8.6380   -0.0000 </r>
       <r>    8.7035   -0.0000 </r>
       <r>    8.7905   -0.0000 </r>
       <r>    9.0911   -0.0000 </r>
       <r>    9.2245   -0.0000 </r>
       <r>    9.3706   -0.0000 </r>
       <r>    9.5650   -0.0000 </r>
       <r>    9.6991   -0.0000 </r>
       <r>    9.8683   -0.0000 </r>
       <r>    9.9842   -0.0000 </r>
       <r>   10.2424   -0.0000 </r>
       <r>   10.3338   -0.0000 </r>
       <r>   10.4174   -0.0000 </r>
       <r>   10.6974   -0.0000 </r>
       <r>   10.7821   -0.0000 </r>
       <r>   11.0082   -0.0000 </r>
       <r>   11.1735   -0.0000 </r>
       <r>   11.3422   -0.0000 </r>
       <r>   11.4474   -0.0000 </r>
       <r>   11.6524   -0.0000 </r>
      </set>
      <set comment="kpoint 56">
       <r>   -3.3120    1.0000 </r>
       <r>   -2.6175    1.0000 </r>
       <r>   -2.1924    1.0000 </r>
       <r>   -1.6716    1.0000 </r>
       <r>   -0.9645    1.0000 </r>
       <r>   -0.5115    1.0000 </r>
       <r>   -0.1055    1.0000 </r>
       <r>    0.2479    1.0000 </r>
       <r>    0.5799    1.0000 </r>
       <r>    1.0598    1.0000 </r>
       <r>    1.2856    1.0000 </r>
       <r>    1.5635    1.0000 </r>
       <r>    1.9523    1.0000 </r>
       <r>    2.0721    1.0000 </r>
       <r>    2.1565    1.0000 </r>
       <r>    2.4516    1.0000 </r>
       <r>    2.7564    1.0000 </r>
       <r>    2.9689    1.0000 </r>
       <r>    3.2336    1.0000 </r>
       <r>    3.4887    1.0000 </r>
       <r>    3.6034    1.0000 </r>
       <r>    3.8499    1.0000 </r>
       <r>    4.0297    1.0000 </r>
       <r>    4.0800    1.0000 </r>
       <r>    4.2143    1.0000 </r>
       <r>    4.5193    1.0000 </r>
       <r>    4.7715    1.0000 </r>
       <r>    4.9108    1.0000 </r>
       <r>    5.0890    1.0000 </r>
       <r>    5.2783    1.0000 </r>
       <r>    5.8464    1.0000 </r>
       <r>    6.0779    1.0000 </r>
       <r>    6.4819    1.0000 </r>
       <r>    6.6394    1.0000 </r>
       <r>    6.6599    1.0000 </r>
       <r>    6.9177    1.0000 </r>
       <r>    7.1351    1.0001 </r>
       <r>    7.3604    1.0113 </r>
       <r>    7.6671    0.7793 </r>
       <r>    7.7645    0.3881 </r>
       <r>    7.9661   -0.0343 </r>
       <r>    8.0907   -0.0158 </r>
       <r>    8.2764   -0.0005 </r>
       <r>    8.4283   -0.0000 </r>
       <r>    8.5285   -0.0000 </r>
       <r>    8.6296   -0.0000 </r>
       <r>    8.7142   -0.0000 </r>
       <r>    9.0191   -0.0000 </r>
       <r>    9.2452   -0.0000 </r>
       <r>    9.3342   -0.0000 </r>
       <r>    9.5013   -0.0000 </r>
       <r>    9.7700   -0.0000 </r>
       <r>    9.9033   -0.0000 </r>
       <r>   10.1322   -0.0000 </r>
       <r>   10.2511   -0.0000 </r>
       <r>   10.3848   -0.0000 </r>
       <r>   10.4574   -0.0000 </r>
       <r>   10.6128   -0.0000 </r>
       <r>   10.7876   -0.0000 </r>
       <r>   11.0058   -0.0000 </r>
       <r>   11.2155   -0.0000 </r>
       <r>   11.3658   -0.0000 </r>
       <r>   11.5654   -0.0000 </r>
       <r>   11.6188   -0.0000 </r>
      </set>
      <set comment="kpoint 57">
       <r>   -3.2748    1.0000 </r>
       <r>   -2.7542    1.0000 </r>
       <r>   -1.9587    1.0000 </r>
       <r>   -1.7980    1.0000 </r>
       <r>   -1.0298    1.0000 </r>
       <r>   -0.4227    1.0000 </r>
       <r>   -0.2026    1.0000 </r>
       <r>    0.1854    1.0000 </r>
       <r>    0.7157    1.0000 </r>
       <r>    1.1510    1.0000 </r>
       <r>    1.4295    1.0000 </r>
       <r>    1.5588    1.0000 </r>
       <r>    1.8581    1.0000 </r>
       <r>    2.0298    1.0000 </r>
       <r>    2.2072    1.0000 </r>
       <r>    2.4756    1.0000 </r>
       <r>    2.6126    1.0000 </r>
       <r>    3.0094    1.0000 </r>
       <r>    3.1723    1.0000 </r>
       <r>    3.3047    1.0000 </r>
       <r>    3.5624    1.0000 </r>
       <r>    3.8509    1.0000 </r>
       <r>    3.9072    1.0000 </r>
       <r>    4.2348    1.0000 </r>
       <r>    4.3292    1.0000 </r>
       <r>    4.4646    1.0000 </r>
       <r>    4.5300    1.0000 </r>
       <r>    4.8411    1.0000 </r>
       <r>    5.2123    1.0000 </r>
       <r>    5.3424    1.0000 </r>
       <r>    5.9758    1.0000 </r>
       <r>    6.3548    1.0000 </r>
       <r>    6.4713    1.0000 </r>
       <r>    6.5647    1.0000 </r>
       <r>    6.8915    1.0000 </r>
       <r>    7.0298    1.0000 </r>
       <r>    7.2466    1.0014 </r>
       <r>    7.3704    1.0130 </r>
       <r>    7.6199    0.9153 </r>
       <r>    7.6665    0.7815 </r>
       <r>    7.7915    0.2814 </r>
       <r>    8.1472   -0.0068 </r>
       <r>    8.2153   -0.0019 </r>
       <r>    8.3434   -0.0001 </r>
       <r>    8.4992   -0.0000 </r>
       <r>    8.6232   -0.0000 </r>
       <r>    8.8791   -0.0000 </r>
       <r>    8.9245   -0.0000 </r>
       <r>    9.2660   -0.0000 </r>
       <r>    9.3800   -0.0000 </r>
       <r>    9.5871   -0.0000 </r>
       <r>    9.7492   -0.0000 </r>
       <r>    9.8502   -0.0000 </r>
       <r>    9.9547   -0.0000 </r>
       <r>   10.1500   -0.0000 </r>
       <r>   10.2847   -0.0000 </r>
       <r>   10.4566   -0.0000 </r>
       <r>   10.5145   -0.0000 </r>
       <r>   10.7446   -0.0000 </r>
       <r>   10.9100   -0.0000 </r>
       <r>   11.1143   -0.0000 </r>
       <r>   11.3022   -0.0000 </r>
       <r>   11.4424   -0.0000 </r>
       <r>   11.6461   -0.0000 </r>
      </set>
      <set comment="kpoint 58">
       <r>   -3.3879    1.0000 </r>
       <r>   -2.2830    1.0000 </r>
       <r>   -2.2015    1.0000 </r>
       <r>   -1.8798    1.0000 </r>
       <r>   -1.2047    1.0000 </r>
       <r>   -0.5219    1.0000 </r>
       <r>   -0.0226    1.0000 </r>
       <r>    0.3049    1.0000 </r>
       <r>    0.6480    1.0000 </r>
       <r>    1.0645    1.0000 </r>
       <r>    1.2810    1.0000 </r>
       <r>    1.5684    1.0000 </r>
       <r>    2.0128    1.0000 </r>
       <r>    2.0978    1.0000 </r>
       <r>    2.3827    1.0000 </r>
       <r>    2.4883    1.0000 </r>
       <r>    2.8784    1.0000 </r>
       <r>    2.9897    1.0000 </r>
       <r>    3.0917    1.0000 </r>
       <r>    3.3325    1.0000 </r>
       <r>    3.4155    1.0000 </r>
       <r>    3.7222    1.0000 </r>
       <r>    3.8826    1.0000 </r>
       <r>    4.1518    1.0000 </r>
       <r>    4.2394    1.0000 </r>
       <r>    4.4179    1.0000 </r>
       <r>    4.8461    1.0000 </r>
       <r>    5.0397    1.0000 </r>
       <r>    5.1745    1.0000 </r>
       <r>    5.2182    1.0000 </r>
       <r>    5.5242    1.0000 </r>
       <r>    6.2972    1.0000 </r>
       <r>    6.4465    1.0000 </r>
       <r>    6.5623    1.0000 </r>
       <r>    6.7743    1.0000 </r>
       <r>    6.8980    1.0000 </r>
       <r>    7.0326    1.0000 </r>
       <r>    7.5277    1.0296 </r>
       <r>    7.6867    0.7084 </r>
       <r>    7.8308    0.1497 </r>
       <r>    8.0249   -0.0304 </r>
       <r>    8.1853   -0.0034 </r>
       <r>    8.2718   -0.0005 </r>
       <r>    8.4661   -0.0000 </r>
       <r>    8.6359   -0.0000 </r>
       <r>    8.6887   -0.0000 </r>
       <r>    8.8014   -0.0000 </r>
       <r>    8.9520   -0.0000 </r>
       <r>    9.0637   -0.0000 </r>
       <r>    9.3949   -0.0000 </r>
       <r>    9.6173   -0.0000 </r>
       <r>    9.8517   -0.0000 </r>
       <r>    9.8916   -0.0000 </r>
       <r>   10.0511   -0.0000 </r>
       <r>   10.1476   -0.0000 </r>
       <r>   10.2583   -0.0000 </r>
       <r>   10.5294   -0.0000 </r>
       <r>   10.6742   -0.0000 </r>
       <r>   10.7868   -0.0000 </r>
       <r>   11.0395   -0.0000 </r>
       <r>   11.0978   -0.0000 </r>
       <r>   11.2448   -0.0000 </r>
       <r>   11.3813   -0.0000 </r>
       <r>   11.4944   -0.0000 </r>
      </set>
      <set comment="kpoint 59">
       <r>   -3.3595    1.0000 </r>
       <r>   -2.4126    1.0000 </r>
       <r>   -2.2033    1.0000 </r>
       <r>   -1.8792    1.0000 </r>
       <r>   -0.8692    1.0000 </r>
       <r>   -0.6217    1.0000 </r>
       <r>   -0.1942    1.0000 </r>
       <r>    0.2605    1.0000 </r>
       <r>    0.8228    1.0000 </r>
       <r>    1.0347    1.0000 </r>
       <r>    1.2700    1.0000 </r>
       <r>    1.6016    1.0000 </r>
       <r>    1.8287    1.0000 </r>
       <r>    2.1620    1.0000 </r>
       <r>    2.2497    1.0000 </r>
       <r>    2.4695    1.0000 </r>
       <r>    2.9179    1.0000 </r>
       <r>    2.9957    1.0000 </r>
       <r>    3.1657    1.0000 </r>
       <r>    3.2855    1.0000 </r>
       <r>    3.5633    1.0000 </r>
       <r>    3.7455    1.0000 </r>
       <r>    3.9143    1.0000 </r>
       <r>    4.0147    1.0000 </r>
       <r>    4.2603    1.0000 </r>
       <r>    4.3713    1.0000 </r>
       <r>    4.7112    1.0000 </r>
       <r>    5.0514    1.0000 </r>
       <r>    5.1730    1.0000 </r>
       <r>    5.4991    1.0000 </r>
       <r>    5.8938    1.0000 </r>
       <r>    6.1411    1.0000 </r>
       <r>    6.3185    1.0000 </r>
       <r>    6.5630    1.0000 </r>
       <r>    6.6967    1.0000 </r>
       <r>    7.0701    1.0000 </r>
       <r>    7.1376    1.0001 </r>
       <r>    7.3198    1.0059 </r>
       <r>    7.4650    1.0330 </r>
       <r>    7.7375    0.5013 </r>
       <r>    7.9321   -0.0219 </r>
       <r>    8.0521   -0.0244 </r>
       <r>    8.1712   -0.0045 </r>
       <r>    8.4556   -0.0000 </r>
       <r>    8.6855   -0.0000 </r>
       <r>    8.8079   -0.0000 </r>
       <r>    8.8575   -0.0000 </r>
       <r>    9.0302   -0.0000 </r>
       <r>    9.2452   -0.0000 </r>
       <r>    9.4637   -0.0000 </r>
       <r>    9.5638   -0.0000 </r>
       <r>    9.7756   -0.0000 </r>
       <r>    9.9617   -0.0000 </r>
       <r>   10.0479   -0.0000 </r>
       <r>   10.1714   -0.0000 </r>
       <r>   10.3409   -0.0000 </r>
       <r>   10.5732   -0.0000 </r>
       <r>   10.7139   -0.0000 </r>
       <r>   10.7898   -0.0000 </r>
       <r>   10.9261   -0.0000 </r>
       <r>   11.0932   -0.0000 </r>
       <r>   11.1856   -0.0000 </r>
       <r>   11.4182   -0.0000 </r>
       <r>   11.6521   -0.0000 </r>
      </set>
      <set comment="kpoint 60">
       <r>   -3.3352    1.0000 </r>
       <r>   -2.5703    1.0000 </r>
       <r>   -2.1175    1.0000 </r>
       <r>   -1.7654    1.0000 </r>
       <r>   -0.8638    1.0000 </r>
       <r>   -0.7207    1.0000 </r>
       <r>   -0.2147    1.0000 </r>
       <r>    0.1600    1.0000 </r>
       <r>    0.9474    1.0000 </r>
       <r>    1.2050    1.0000 </r>
       <r>    1.3058    1.0000 </r>
       <r>    1.5187    1.0000 </r>
       <r>    1.9380    1.0000 </r>
       <r>    2.1059    1.0000 </r>
       <r>    2.2159    1.0000 </r>
       <r>    2.5281    1.0000 </r>
       <r>    2.6585    1.0000 </r>
       <r>    3.0006    1.0000 </r>
       <r>    3.1797    1.0000 </r>
       <r>    3.2852    1.0000 </r>
       <r>    3.4913    1.0000 </r>
       <r>    3.7359    1.0000 </r>
       <r>    3.8971    1.0000 </r>
       <r>    4.1063    1.0000 </r>
       <r>    4.2191    1.0000 </r>
       <r>    4.4519    1.0000 </r>
       <r>    4.7026    1.0000 </r>
       <r>    4.9796    1.0000 </r>
       <r>    5.1656    1.0000 </r>
       <r>    5.3975    1.0000 </r>
       <r>    5.8752    1.0000 </r>
       <r>    6.1815    1.0000 </r>
       <r>    6.4795    1.0000 </r>
       <r>    6.7117    1.0000 </r>
       <r>    6.7948    1.0000 </r>
       <r>    6.8652    1.0000 </r>
       <r>    7.1689    1.0002 </r>
       <r>    7.4429    1.0288 </r>
       <r>    7.6097    0.9374 </r>
       <r>    7.8143    0.2011 </r>
       <r>    8.0045   -0.0339 </r>
       <r>    8.0830   -0.0174 </r>
       <r>    8.2308   -0.0014 </r>
       <r>    8.4294   -0.0000 </r>
       <r>    8.5535   -0.0000 </r>
       <r>    8.6898   -0.0000 </r>
       <r>    8.8018   -0.0000 </r>
       <r>    9.0678   -0.0000 </r>
       <r>    9.1806   -0.0000 </r>
       <r>    9.3097   -0.0000 </r>
       <r>    9.5848   -0.0000 </r>
       <r>    9.6693   -0.0000 </r>
       <r>    9.8360   -0.0000 </r>
       <r>    9.9479   -0.0000 </r>
       <r>   10.1676   -0.0000 </r>
       <r>   10.3319   -0.0000 </r>
       <r>   10.4712   -0.0000 </r>
       <r>   10.6453   -0.0000 </r>
       <r>   10.7695   -0.0000 </r>
       <r>   11.0009   -0.0000 </r>
       <r>   11.1675   -0.0000 </r>
       <r>   11.2365   -0.0000 </r>
       <r>   11.3946   -0.0000 </r>
       <r>   11.7115   -0.0000 </r>
      </set>
      <set comment="kpoint 61">
       <r>   -3.2664    1.0000 </r>
       <r>   -2.7634    1.0000 </r>
       <r>   -1.9763    1.0000 </r>
       <r>   -1.8093    1.0000 </r>
       <r>   -1.0326    1.0000 </r>
       <r>   -0.4062    1.0000 </r>
       <r>   -0.0047    1.0000 </r>
       <r>    0.1762    1.0000 </r>
       <r>    0.7140    1.0000 </r>
       <r>    0.9849    1.0000 </r>
       <r>    1.2375    1.0000 </r>
       <r>    1.4595    1.0000 </r>
       <r>    1.8212    1.0000 </r>
       <r>    2.0961    1.0000 </r>
       <r>    2.1951    1.0000 </r>
       <r>    2.6492    1.0000 </r>
       <r>    2.8658    1.0000 </r>
       <r>    3.0574    1.0000 </r>
       <r>    3.1345    1.0000 </r>
       <r>    3.3161    1.0000 </r>
       <r>    3.5161    1.0000 </r>
       <r>    3.6488    1.0000 </r>
       <r>    3.9566    1.0000 </r>
       <r>    4.0764    1.0000 </r>
       <r>    4.3663    1.0000 </r>
       <r>    4.5502    1.0000 </r>
       <r>    4.6589    1.0000 </r>
       <r>    5.0459    1.0000 </r>
       <r>    5.1357    1.0000 </r>
       <r>    5.4001    1.0000 </r>
       <r>    5.8346    1.0000 </r>
       <r>    6.3045    1.0000 </r>
       <r>    6.3578    1.0000 </r>
       <r>    6.6304    1.0000 </r>
       <r>    6.8685    1.0000 </r>
       <r>    7.0493    1.0000 </r>
       <r>    7.1257    1.0001 </r>
       <r>    7.3098    1.0050 </r>
       <r>    7.4850    1.0352 </r>
       <r>    7.6739    0.7557 </r>
       <r>    7.8784    0.0391 </r>
       <r>    8.0964   -0.0147 </r>
       <r>    8.1927   -0.0030 </r>
       <r>    8.4144   -0.0000 </r>
       <r>    8.5182   -0.0000 </r>
       <r>    8.6631   -0.0000 </r>
       <r>    8.9169   -0.0000 </r>
       <r>    9.0071   -0.0000 </r>
       <r>    9.2451   -0.0000 </r>
       <r>    9.3039   -0.0000 </r>
       <r>    9.5397   -0.0000 </r>
       <r>    9.7566   -0.0000 </r>
       <r>    9.8376   -0.0000 </r>
       <r>   10.0573   -0.0000 </r>
       <r>   10.1395   -0.0000 </r>
       <r>   10.4369   -0.0000 </r>
       <r>   10.5287   -0.0000 </r>
       <r>   10.6260   -0.0000 </r>
       <r>   10.7378   -0.0000 </r>
       <r>   10.9751   -0.0000 </r>
       <r>   11.0535   -0.0000 </r>
       <r>   11.2793   -0.0000 </r>
       <r>   11.3816   -0.0000 </r>
       <r>   11.5001   -0.0000 </r>
      </set>
      <set comment="kpoint 62">
       <r>   -3.2863    1.0000 </r>
       <r>   -2.7128    1.0000 </r>
       <r>   -2.0550    1.0000 </r>
       <r>   -1.7664    1.0000 </r>
       <r>   -0.9248    1.0000 </r>
       <r>   -0.5753    1.0000 </r>
       <r>   -0.0280    1.0000 </r>
       <r>    0.2670    1.0000 </r>
       <r>    0.6639    1.0000 </r>
       <r>    1.0452    1.0000 </r>
       <r>    1.2404    1.0000 </r>
       <r>    1.3602    1.0000 </r>
       <r>    1.9549    1.0000 </r>
       <r>    2.0510    1.0000 </r>
       <r>    2.2943    1.0000 </r>
       <r>    2.5406    1.0000 </r>
       <r>    2.7855    1.0000 </r>
       <r>    2.9999    1.0000 </r>
       <r>    3.2088    1.0000 </r>
       <r>    3.3782    1.0000 </r>
       <r>    3.5659    1.0000 </r>
       <r>    3.8166    1.0000 </r>
       <r>    3.9393    1.0000 </r>
       <r>    4.1045    1.0000 </r>
       <r>    4.2515    1.0000 </r>
       <r>    4.5349    1.0000 </r>
       <r>    4.7183    1.0000 </r>
       <r>    4.8665    1.0000 </r>
       <r>    5.1485    1.0000 </r>
       <r>    5.3480    1.0000 </r>
       <r>    5.8901    1.0000 </r>
       <r>    6.1570    1.0000 </r>
       <r>    6.4486    1.0000 </r>
       <r>    6.5520    1.0000 </r>
       <r>    6.8131    1.0000 </r>
       <r>    6.9908    1.0000 </r>
       <r>    7.1872    1.0003 </r>
       <r>    7.4233    1.0243 </r>
       <r>    7.5666    1.0030 </r>
       <r>    7.6479    0.8411 </r>
       <r>    7.9151   -0.0090 </r>
       <r>    8.0836   -0.0173 </r>
       <r>    8.2288   -0.0014 </r>
       <r>    8.4206   -0.0000 </r>
       <r>    8.4949   -0.0000 </r>
       <r>    8.6753   -0.0000 </r>
       <r>    8.7533   -0.0000 </r>
       <r>    9.0717   -0.0000 </r>
       <r>    9.2129   -0.0000 </r>
       <r>    9.3286   -0.0000 </r>
       <r>    9.6017   -0.0000 </r>
       <r>    9.8363   -0.0000 </r>
       <r>    9.9279   -0.0000 </r>
       <r>    9.9710   -0.0000 </r>
       <r>   10.2141   -0.0000 </r>
       <r>   10.3534   -0.0000 </r>
       <r>   10.5625   -0.0000 </r>
       <r>   10.6794   -0.0000 </r>
       <r>   10.8434   -0.0000 </r>
       <r>   10.8796   -0.0000 </r>
       <r>   11.0721   -0.0000 </r>
       <r>   11.2171   -0.0000 </r>
       <r>   11.4078   -0.0000 </r>
       <r>   11.5841   -0.0000 </r>
      </set>
      <set comment="kpoint 63">
       <r>   -3.3346    1.0000 </r>
       <r>   -2.5800    1.0000 </r>
       <r>   -2.0959    1.0000 </r>
       <r>   -1.7857    1.0000 </r>
       <r>   -0.9687    1.0000 </r>
       <r>   -0.5783    1.0000 </r>
       <r>   -0.0793    1.0000 </r>
       <r>    0.1112    1.0000 </r>
       <r>    0.7433    1.0000 </r>
       <r>    1.0770    1.0000 </r>
       <r>    1.4070    1.0000 </r>
       <r>    1.6166    1.0000 </r>
       <r>    1.9695    1.0000 </r>
       <r>    2.0363    1.0000 </r>
       <r>    2.1809    1.0000 </r>
       <r>    2.4474    1.0000 </r>
       <r>    2.7160    1.0000 </r>
       <r>    3.0248    1.0000 </r>
       <r>    3.1353    1.0000 </r>
       <r>    3.2415    1.0000 </r>
       <r>    3.5992    1.0000 </r>
       <r>    3.8369    1.0000 </r>
       <r>    4.0007    1.0000 </r>
       <r>    4.0735    1.0000 </r>
       <r>    4.2362    1.0000 </r>
       <r>    4.4881    1.0000 </r>
       <r>    4.8216    1.0000 </r>
       <r>    4.9396    1.0000 </r>
       <r>    5.1678    1.0000 </r>
       <r>    5.4055    1.0000 </r>
       <r>    5.9157    1.0000 </r>
       <r>    5.9706    1.0000 </r>
       <r>    6.4824    1.0000 </r>
       <r>    6.5877    1.0000 </r>
       <r>    6.7355    1.0000 </r>
       <r>    6.9314    1.0000 </r>
       <r>    7.1625    1.0002 </r>
       <r>    7.2661    1.0021 </r>
       <r>    7.6698    0.7701 </r>
       <r>    7.7777    0.3349 </r>
       <r>    7.9238   -0.0163 </r>
       <r>    8.0595   -0.0227 </r>
       <r>    8.1895   -0.0032 </r>
       <r>    8.3804   -0.0000 </r>
       <r>    8.5653   -0.0000 </r>
       <r>    8.8158   -0.0000 </r>
       <r>    8.8743   -0.0000 </r>
       <r>    9.1102   -0.0000 </r>
       <r>    9.2350   -0.0000 </r>
       <r>    9.4121   -0.0000 </r>
       <r>    9.6135   -0.0000 </r>
       <r>    9.7085   -0.0000 </r>
       <r>    9.8517   -0.0000 </r>
       <r>    9.9311   -0.0000 </r>
       <r>   10.0871   -0.0000 </r>
       <r>   10.4145   -0.0000 </r>
       <r>   10.5960   -0.0000 </r>
       <r>   10.6200   -0.0000 </r>
       <r>   10.7592   -0.0000 </r>
       <r>   10.9001   -0.0000 </r>
       <r>   11.0598   -0.0000 </r>
       <r>   11.2330   -0.0000 </r>
       <r>   11.3576   -0.0000 </r>
       <r>   11.6352   -0.0000 </r>
      </set>
      <set comment="kpoint 64">
       <r>   -3.3451    1.0000 </r>
       <r>   -2.5367    1.0000 </r>
       <r>   -2.0898    1.0000 </r>
       <r>   -1.8188    1.0000 </r>
       <r>   -1.0020    1.0000 </r>
       <r>   -0.6359    1.0000 </r>
       <r>   -0.0944    1.0000 </r>
       <r>    0.2140    1.0000 </r>
       <r>    0.7507    1.0000 </r>
       <r>    1.1446    1.0000 </r>
       <r>    1.3262    1.0000 </r>
       <r>    1.6106    1.0000 </r>
       <r>    1.9103    1.0000 </r>
       <r>    2.1139    1.0000 </r>
       <r>    2.3158    1.0000 </r>
       <r>    2.5754    1.0000 </r>
       <r>    2.7997    1.0000 </r>
       <r>    2.8900    1.0000 </r>
       <r>    2.9813    1.0000 </r>
       <r>    3.2869    1.0000 </r>
       <r>    3.4755    1.0000 </r>
       <r>    3.7621    1.0000 </r>
       <r>    3.8470    1.0000 </r>
       <r>    4.1767    1.0000 </r>
       <r>    4.3386    1.0000 </r>
       <r>    4.4296    1.0000 </r>
       <r>    4.7295    1.0000 </r>
       <r>    4.9752    1.0000 </r>
       <r>    5.0878    1.0000 </r>
       <r>    5.4341    1.0000 </r>
       <r>    5.7952    1.0000 </r>
       <r>    6.2086    1.0000 </r>
       <r>    6.4805    1.0000 </r>
       <r>    6.5681    1.0000 </r>
       <r>    6.8303    1.0000 </r>
       <r>    6.8991    1.0000 </r>
       <r>    7.2076    1.0006 </r>
       <r>    7.3808    1.0150 </r>
       <r>    7.6344    0.8793 </r>
       <r>    7.7599    0.4068 </r>
       <r>    8.0208   -0.0312 </r>
       <r>    8.1852   -0.0035 </r>
       <r>    8.2887   -0.0003 </r>
       <r>    8.4384   -0.0000 </r>
       <r>    8.5434   -0.0000 </r>
       <r>    8.6871   -0.0000 </r>
       <r>    8.7557   -0.0000 </r>
       <r>    8.9293   -0.0000 </r>
       <r>    9.2582   -0.0000 </r>
       <r>    9.4211   -0.0000 </r>
       <r>    9.5753   -0.0000 </r>
       <r>    9.7261   -0.0000 </r>
       <r>    9.8950   -0.0000 </r>
       <r>   10.0252   -0.0000 </r>
       <r>   10.1574   -0.0000 </r>
       <r>   10.2473   -0.0000 </r>
       <r>   10.3894   -0.0000 </r>
       <r>   10.7306   -0.0000 </r>
       <r>   10.8316   -0.0000 </r>
       <r>   10.9888   -0.0000 </r>
       <r>   11.0183   -0.0000 </r>
       <r>   11.2014   -0.0000 </r>
       <r>   11.4517   -0.0000 </r>
       <r>   11.6089   -0.0000 </r>
      </set>
      <set comment="kpoint 65">
       <r>   -3.3783    1.0000 </r>
       <r>   -2.4366    1.0000 </r>
       <r>   -2.0667    1.0000 </r>
       <r>   -1.8560    1.0000 </r>
       <r>   -1.1555    1.0000 </r>
       <r>   -0.4796    1.0000 </r>
       <r>   -0.2052    1.0000 </r>
       <r>    0.3211    1.0000 </r>
       <r>    0.6056    1.0000 </r>
       <r>    1.0910    1.0000 </r>
       <r>    1.3608    1.0000 </r>
       <r>    1.6366    1.0000 </r>
       <r>    1.9639    1.0000 </r>
       <r>    2.0994    1.0000 </r>
       <r>    2.3112    1.0000 </r>
       <r>    2.5494    1.0000 </r>
       <r>    2.8541    1.0000 </r>
       <r>    2.9619    1.0000 </r>
       <r>    3.1145    1.0000 </r>
       <r>    3.2675    1.0000 </r>
       <r>    3.4634    1.0000 </r>
       <r>    3.7261    1.0000 </r>
       <r>    3.9959    1.0000 </r>
       <r>    4.1010    1.0000 </r>
       <r>    4.2865    1.0000 </r>
       <r>    4.4156    1.0000 </r>
       <r>    4.8178    1.0000 </r>
       <r>    4.9996    1.0000 </r>
       <r>    5.1280    1.0000 </r>
       <r>    5.2654    1.0000 </r>
       <r>    5.5170    1.0000 </r>
       <r>    6.2613    1.0000 </r>
       <r>    6.4697    1.0000 </r>
       <r>    6.5286    1.0000 </r>
       <r>    6.7796    1.0000 </r>
       <r>    6.9608    1.0000 </r>
       <r>    7.1941    1.0004 </r>
       <r>    7.3560    1.0106 </r>
       <r>    7.7219    0.5671 </r>
       <r>    7.8598    0.0754 </r>
       <r>    7.9414   -0.0269 </r>
       <r>    8.2132   -0.0020 </r>
       <r>    8.2453   -0.0010 </r>
       <r>    8.3812   -0.0000 </r>
       <r>    8.6207   -0.0000 </r>
       <r>    8.6730   -0.0000 </r>
       <r>    8.8325   -0.0000 </r>
       <r>    9.0245   -0.0000 </r>
       <r>    9.1504   -0.0000 </r>
       <r>    9.2867   -0.0000 </r>
       <r>    9.4866   -0.0000 </r>
       <r>    9.7480   -0.0000 </r>
       <r>    9.9802   -0.0000 </r>
       <r>   10.0849   -0.0000 </r>
       <r>   10.2094   -0.0000 </r>
       <r>   10.2961   -0.0000 </r>
       <r>   10.4541   -0.0000 </r>
       <r>   10.6782   -0.0000 </r>
       <r>   10.8373   -0.0000 </r>
       <r>   10.9468   -0.0000 </r>
       <r>   11.0881   -0.0000 </r>
       <r>   11.2488   -0.0000 </r>
       <r>   11.3387   -0.0000 </r>
       <r>   11.6922   -0.0000 </r>
      </set>
      <set comment="kpoint 66">
       <r>   -3.3012    1.0000 </r>
       <r>   -2.6324    1.0000 </r>
       <r>   -2.1350    1.0000 </r>
       <r>   -1.7822    1.0000 </r>
       <r>   -1.0571    1.0000 </r>
       <r>   -0.3031    1.0000 </r>
       <r>   -0.0457    1.0000 </r>
       <r>    0.2649    1.0000 </r>
       <r>    0.5084    1.0000 </r>
       <r>    1.0040    1.0000 </r>
       <r>    1.4637    1.0000 </r>
       <r>    1.5125    1.0000 </r>
       <r>    1.7907    1.0000 </r>
       <r>    2.1456    1.0000 </r>
       <r>    2.2729    1.0000 </r>
       <r>    2.4278    1.0000 </r>
       <r>    2.5854    1.0000 </r>
       <r>    2.9471    1.0000 </r>
       <r>    3.1192    1.0000 </r>
       <r>    3.4455    1.0000 </r>
       <r>    3.5834    1.0000 </r>
       <r>    3.8074    1.0000 </r>
       <r>    4.0307    1.0000 </r>
       <r>    4.1868    1.0000 </r>
       <r>    4.2961    1.0000 </r>
       <r>    4.5180    1.0000 </r>
       <r>    4.6948    1.0000 </r>
       <r>    4.9012    1.0000 </r>
       <r>    5.1034    1.0000 </r>
       <r>    5.3070    1.0000 </r>
       <r>    5.9202    1.0000 </r>
       <r>    6.2733    1.0000 </r>
       <r>    6.4555    1.0000 </r>
       <r>    6.6814    1.0000 </r>
       <r>    6.7628    1.0000 </r>
       <r>    6.9158    1.0000 </r>
       <r>    7.1638    1.0002 </r>
       <r>    7.3993    1.0189 </r>
       <r>    7.6449    0.8499 </r>
       <r>    7.7197    0.5760 </r>
       <r>    7.9655   -0.0342 </r>
       <r>    8.1208   -0.0104 </r>
       <r>    8.1973   -0.0027 </r>
       <r>    8.3559   -0.0001 </r>
       <r>    8.5784   -0.0000 </r>
       <r>    8.6535   -0.0000 </r>
       <r>    8.7195   -0.0000 </r>
       <r>    8.8710   -0.0000 </r>
       <r>    9.1492   -0.0000 </r>
       <r>    9.4384   -0.0000 </r>
       <r>    9.5023   -0.0000 </r>
       <r>    9.7435   -0.0000 </r>
       <r>    9.8488   -0.0000 </r>
       <r>    9.9793   -0.0000 </r>
       <r>   10.2417   -0.0000 </r>
       <r>   10.3805   -0.0000 </r>
       <r>   10.5021   -0.0000 </r>
       <r>   10.6010   -0.0000 </r>
       <r>   10.7835   -0.0000 </r>
       <r>   11.0421   -0.0000 </r>
       <r>   11.1648   -0.0000 </r>
       <r>   11.3416   -0.0000 </r>
       <r>   11.4588   -0.0000 </r>
       <r>   11.5982   -0.0000 </r>
      </set>
      <set comment="kpoint 67">
       <r>   -3.3030    1.0000 </r>
       <r>   -2.6949    1.0000 </r>
       <r>   -2.0341    1.0000 </r>
       <r>   -1.7176    1.0000 </r>
       <r>   -1.0079    1.0000 </r>
       <r>   -0.5357    1.0000 </r>
       <r>   -0.2610    1.0000 </r>
       <r>    0.3629    1.0000 </r>
       <r>    0.6540    1.0000 </r>
       <r>    1.0632    1.0000 </r>
       <r>    1.3108    1.0000 </r>
       <r>    1.7201    1.0000 </r>
       <r>    1.8439    1.0000 </r>
       <r>    1.9699    1.0000 </r>
       <r>    2.2795    1.0000 </r>
       <r>    2.4916    1.0000 </r>
       <r>    2.7335    1.0000 </r>
       <r>    3.0124    1.0000 </r>
       <r>    3.1489    1.0000 </r>
       <r>    3.3795    1.0000 </r>
       <r>    3.5160    1.0000 </r>
       <r>    3.8956    1.0000 </r>
       <r>    3.9786    1.0000 </r>
       <r>    4.0928    1.0000 </r>
       <r>    4.3293    1.0000 </r>
       <r>    4.4980    1.0000 </r>
       <r>    4.5532    1.0000 </r>
       <r>    4.9393    1.0000 </r>
       <r>    5.0142    1.0000 </r>
       <r>    5.4840    1.0000 </r>
       <r>    5.8089    1.0000 </r>
       <r>    6.3283    1.0000 </r>
       <r>    6.4341    1.0000 </r>
       <r>    6.5220    1.0000 </r>
       <r>    6.6885    1.0000 </r>
       <r>    7.0700    1.0000 </r>
       <r>    7.2311    1.0010 </r>
       <r>    7.2745    1.0025 </r>
       <r>    7.4145    1.0223 </r>
       <r>    7.6725    0.7605 </r>
       <r>    7.9088   -0.0028 </r>
       <r>    8.1603   -0.0055 </r>
       <r>    8.2771   -0.0005 </r>
       <r>    8.4182   -0.0000 </r>
       <r>    8.6510   -0.0000 </r>
       <r>    8.7361   -0.0000 </r>
       <r>    8.9521   -0.0000 </r>
       <r>    9.0737   -0.0000 </r>
       <r>    9.2353   -0.0000 </r>
       <r>    9.4575   -0.0000 </r>
       <r>    9.5394   -0.0000 </r>
       <r>    9.7424   -0.0000 </r>
       <r>    9.8479   -0.0000 </r>
       <r>   10.0213   -0.0000 </r>
       <r>   10.1842   -0.0000 </r>
       <r>   10.3291   -0.0000 </r>
       <r>   10.4401   -0.0000 </r>
       <r>   10.5731   -0.0000 </r>
       <r>   10.7031   -0.0000 </r>
       <r>   10.9377   -0.0000 </r>
       <r>   11.1990   -0.0000 </r>
       <r>   11.2442   -0.0000 </r>
       <r>   11.3801   -0.0000 </r>
       <r>   11.6220   -0.0000 </r>
      </set>
      <set comment="kpoint 68">
       <r>   -3.3440    1.0000 </r>
       <r>   -2.5841    1.0000 </r>
       <r>   -2.0475    1.0000 </r>
       <r>   -1.7569    1.0000 </r>
       <r>   -1.0195    1.0000 </r>
       <r>   -0.5924    1.0000 </r>
       <r>   -0.3084    1.0000 </r>
       <r>    0.2755    1.0000 </r>
       <r>    0.8455    1.0000 </r>
       <r>    1.0753    1.0000 </r>
       <r>    1.3687    1.0000 </r>
       <r>    1.6634    1.0000 </r>
       <r>    1.7764    1.0000 </r>
       <r>    2.0707    1.0000 </r>
       <r>    2.4328    1.0000 </r>
       <r>    2.5063    1.0000 </r>
       <r>    2.6850    1.0000 </r>
       <r>    3.0354    1.0000 </r>
       <r>    3.1656    1.0000 </r>
       <r>    3.2822    1.0000 </r>
       <r>    3.5941    1.0000 </r>
       <r>    3.7201    1.0000 </r>
       <r>    3.8765    1.0000 </r>
       <r>    4.0292    1.0000 </r>
       <r>    4.2165    1.0000 </r>
       <r>    4.4748    1.0000 </r>
       <r>    4.7122    1.0000 </r>
       <r>    4.9622    1.0000 </r>
       <r>    5.0733    1.0000 </r>
       <r>    5.5203    1.0000 </r>
       <r>    5.7825    1.0000 </r>
       <r>    6.2913    1.0000 </r>
       <r>    6.4076    1.0000 </r>
       <r>    6.5050    1.0000 </r>
       <r>    6.7879    1.0000 </r>
       <r>    6.9160    1.0000 </r>
       <r>    7.2322    1.0010 </r>
       <r>    7.3390    1.0082 </r>
       <r>    7.5096    1.0342 </r>
       <r>    7.8695    0.0555 </r>
       <r>    7.9758   -0.0353 </r>
       <r>    8.0798   -0.0181 </r>
       <r>    8.2016   -0.0025 </r>
       <r>    8.3732   -0.0000 </r>
       <r>    8.5853   -0.0000 </r>
       <r>    8.7288   -0.0000 </r>
       <r>    8.9266   -0.0000 </r>
       <r>    9.1032   -0.0000 </r>
       <r>    9.3050   -0.0000 </r>
       <r>    9.4740   -0.0000 </r>
       <r>    9.5710   -0.0000 </r>
       <r>    9.6407   -0.0000 </r>
       <r>    9.8193   -0.0000 </r>
       <r>    9.9878   -0.0000 </r>
       <r>   10.1289   -0.0000 </r>
       <r>   10.3635   -0.0000 </r>
       <r>   10.4836   -0.0000 </r>
       <r>   10.6594   -0.0000 </r>
       <r>   10.8295   -0.0000 </r>
       <r>   10.9431   -0.0000 </r>
       <r>   11.0608   -0.0000 </r>
       <r>   11.1746   -0.0000 </r>
       <r>   11.4441   -0.0000 </r>
       <r>   11.6143   -0.0000 </r>
      </set>
      <set comment="kpoint 69">
       <r>   -3.2878    1.0000 </r>
       <r>   -2.6752    1.0000 </r>
       <r>   -2.0920    1.0000 </r>
       <r>   -1.8357    1.0000 </r>
       <r>   -0.8575    1.0000 </r>
       <r>   -0.4881    1.0000 </r>
       <r>   -0.1384    1.0000 </r>
       <r>    0.2831    1.0000 </r>
       <r>    0.7636    1.0000 </r>
       <r>    1.0127    1.0000 </r>
       <r>    1.1462    1.0000 </r>
       <r>    1.4878    1.0000 </r>
       <r>    1.8687    1.0000 </r>
       <r>    2.0998    1.0000 </r>
       <r>    2.2580    1.0000 </r>
       <r>    2.5802    1.0000 </r>
       <r>    2.7382    1.0000 </r>
       <r>    2.9526    1.0000 </r>
       <r>    3.2196    1.0000 </r>
       <r>    3.3723    1.0000 </r>
       <r>    3.5297    1.0000 </r>
       <r>    3.7270    1.0000 </r>
       <r>    3.9118    1.0000 </r>
       <r>    4.1842    1.0000 </r>
       <r>    4.2519    1.0000 </r>
       <r>    4.4928    1.0000 </r>
       <r>    4.6920    1.0000 </r>
       <r>    4.9975    1.0000 </r>
       <r>    5.2012    1.0000 </r>
       <r>    5.4061    1.0000 </r>
       <r>    5.8138    1.0000 </r>
       <r>    6.1577    1.0000 </r>
       <r>    6.4840    1.0000 </r>
       <r>    6.5921    1.0000 </r>
       <r>    6.8763    1.0000 </r>
       <r>    6.9873    1.0000 </r>
       <r>    7.2840    1.0031 </r>
       <r>    7.3471    1.0093 </r>
       <r>    7.5185    1.0325 </r>
       <r>    7.7006    0.6542 </r>
       <r>    7.8696    0.0553 </r>
       <r>    8.0281   -0.0297 </r>
       <r>    8.1882   -0.0033 </r>
       <r>    8.2481   -0.0009 </r>
       <r>    8.6200   -0.0000 </r>
       <r>    8.6863   -0.0000 </r>
       <r>    8.8338   -0.0000 </r>
       <r>    9.0474   -0.0000 </r>
       <r>    9.1904   -0.0000 </r>
       <r>    9.3283   -0.0000 </r>
       <r>    9.5670   -0.0000 </r>
       <r>    9.7765   -0.0000 </r>
       <r>    9.8405   -0.0000 </r>
       <r>   10.0873   -0.0000 </r>
       <r>   10.2610   -0.0000 </r>
       <r>   10.3654   -0.0000 </r>
       <r>   10.5936   -0.0000 </r>
       <r>   10.6998   -0.0000 </r>
       <r>   10.8436   -0.0000 </r>
       <r>   10.9069   -0.0000 </r>
       <r>   11.0728   -0.0000 </r>
       <r>   11.1724   -0.0000 </r>
       <r>   11.4158   -0.0000 </r>
       <r>   11.5827   -0.0000 </r>
      </set>
      <set comment="kpoint 70">
       <r>   -3.3379    1.0000 </r>
       <r>   -2.5519    1.0000 </r>
       <r>   -2.1034    1.0000 </r>
       <r>   -1.8211    1.0000 </r>
       <r>   -1.0127    1.0000 </r>
       <r>   -0.4956    1.0000 </r>
       <r>   -0.1060    1.0000 </r>
       <r>    0.0925    1.0000 </r>
       <r>    0.8910    1.0000 </r>
       <r>    1.0938    1.0000 </r>
       <r>    1.3363    1.0000 </r>
       <r>    1.6074    1.0000 </r>
       <r>    1.8770    1.0000 </r>
       <r>    1.9496    1.0000 </r>
       <r>    2.2136    1.0000 </r>
       <r>    2.4658    1.0000 </r>
       <r>    2.7961    1.0000 </r>
       <r>    2.9970    1.0000 </r>
       <r>    3.1219    1.0000 </r>
       <r>    3.4338    1.0000 </r>
       <r>    3.5899    1.0000 </r>
       <r>    3.7234    1.0000 </r>
       <r>    3.9235    1.0000 </r>
       <r>    4.0319    1.0000 </r>
       <r>    4.2415    1.0000 </r>
       <r>    4.4118    1.0000 </r>
       <r>    4.8198    1.0000 </r>
       <r>    4.9816    1.0000 </r>
       <r>    5.2191    1.0000 </r>
       <r>    5.4249    1.0000 </r>
       <r>    5.7885    1.0000 </r>
       <r>    6.1893    1.0000 </r>
       <r>    6.3999    1.0000 </r>
       <r>    6.5368    1.0000 </r>
       <r>    6.8347    1.0000 </r>
       <r>    6.9966    1.0000 </r>
       <r>    7.1227    1.0001 </r>
       <r>    7.4334    1.0267 </r>
       <r>    7.5799    0.9873 </r>
       <r>    7.7519    0.4405 </r>
       <r>    8.0108   -0.0330 </r>
       <r>    8.0627   -0.0219 </r>
       <r>    8.1840   -0.0035 </r>
       <r>    8.2921   -0.0003 </r>
       <r>    8.5784   -0.0000 </r>
       <r>    8.7802   -0.0000 </r>
       <r>    8.9803   -0.0000 </r>
       <r>    9.0617   -0.0000 </r>
       <r>    9.1694   -0.0000 </r>
       <r>    9.3998   -0.0000 </r>
       <r>    9.5543   -0.0000 </r>
       <r>    9.7350   -0.0000 </r>
       <r>    9.8223   -0.0000 </r>
       <r>    9.9190   -0.0000 </r>
       <r>   10.0519   -0.0000 </r>
       <r>   10.4058   -0.0000 </r>
       <r>   10.5161   -0.0000 </r>
       <r>   10.5973   -0.0000 </r>
       <r>   10.7842   -0.0000 </r>
       <r>   10.9304   -0.0000 </r>
       <r>   11.0411   -0.0000 </r>
       <r>   11.2061   -0.0000 </r>
       <r>   11.4091   -0.0000 </r>
       <r>   11.4804   -0.0000 </r>
      </set>
      <set comment="kpoint 71">
       <r>   -3.2681    1.0000 </r>
       <r>   -2.7288    1.0000 </r>
       <r>   -2.0778    1.0000 </r>
       <r>   -1.7710    1.0000 </r>
       <r>   -1.0288    1.0000 </r>
       <r>   -0.4064    1.0000 </r>
       <r>    0.0574    1.0000 </r>
       <r>    0.2009    1.0000 </r>
       <r>    0.6703    1.0000 </r>
       <r>    1.0735    1.0000 </r>
       <r>    1.1862    1.0000 </r>
       <r>    1.4906    1.0000 </r>
       <r>    1.7741    1.0000 </r>
       <r>    2.1252    1.0000 </r>
       <r>    2.2989    1.0000 </r>
       <r>    2.5206    1.0000 </r>
       <r>    2.6572    1.0000 </r>
       <r>    3.0136    1.0000 </r>
       <r>    3.0868    1.0000 </r>
       <r>    3.3670    1.0000 </r>
       <r>    3.5053    1.0000 </r>
       <r>    3.7436    1.0000 </r>
       <r>    3.9507    1.0000 </r>
       <r>    4.2150    1.0000 </r>
       <r>    4.3984    1.0000 </r>
       <r>    4.6057    1.0000 </r>
       <r>    4.7478    1.0000 </r>
       <r>    4.9305    1.0000 </r>
       <r>    5.0472    1.0000 </r>
       <r>    5.4282    1.0000 </r>
       <r>    5.8569    1.0000 </r>
       <r>    6.2439    1.0000 </r>
       <r>    6.3038    1.0000 </r>
       <r>    6.5001    1.0000 </r>
       <r>    6.8929    1.0000 </r>
       <r>    7.1134    1.0000 </r>
       <r>    7.1749    1.0003 </r>
       <r>    7.4590    1.0320 </r>
       <r>    7.5872    0.9769 </r>
       <r>    7.8162    0.1948 </r>
       <r>    7.8831    0.0312 </r>
       <r>    8.0554   -0.0236 </r>
       <r>    8.1729   -0.0044 </r>
       <r>    8.3467   -0.0001 </r>
       <r>    8.4633   -0.0000 </r>
       <r>    8.5770   -0.0000 </r>
       <r>    8.8278   -0.0000 </r>
       <r>    8.9987   -0.0000 </r>
       <r>    9.1170   -0.0000 </r>
       <r>    9.3171   -0.0000 </r>
       <r>    9.6398   -0.0000 </r>
       <r>    9.7504   -0.0000 </r>
       <r>    9.9028   -0.0000 </r>
       <r>   10.1470   -0.0000 </r>
       <r>   10.2388   -0.0000 </r>
       <r>   10.3695   -0.0000 </r>
       <r>   10.5406   -0.0000 </r>
       <r>   10.6648   -0.0000 </r>
       <r>   10.7096   -0.0000 </r>
       <r>   10.8055   -0.0000 </r>
       <r>   11.0613   -0.0000 </r>
       <r>   11.1976   -0.0000 </r>
       <r>   11.5137   -0.0000 </r>
       <r>   11.6398   -0.0000 </r>
      </set>
      <set comment="kpoint 72">
       <r>   -3.3564    1.0000 </r>
       <r>   -2.5029    1.0000 </r>
       <r>   -2.1594    1.0000 </r>
       <r>   -1.7433    1.0000 </r>
       <r>   -0.9492    1.0000 </r>
       <r>   -0.6864    1.0000 </r>
       <r>   -0.1675    1.0000 </r>
       <r>    0.3417    1.0000 </r>
       <r>    0.6530    1.0000 </r>
       <r>    1.1127    1.0000 </r>
       <r>    1.2131    1.0000 </r>
       <r>    1.6684    1.0000 </r>
       <r>    1.8548    1.0000 </r>
       <r>    2.1029    1.0000 </r>
       <r>    2.2837    1.0000 </r>
       <r>    2.4367    1.0000 </r>
       <r>    2.8658    1.0000 </r>
       <r>    3.0302    1.0000 </r>
       <r>    3.2161    1.0000 </r>
       <r>    3.3645    1.0000 </r>
       <r>    3.5485    1.0000 </r>
       <r>    3.7688    1.0000 </r>
       <r>    3.9525    1.0000 </r>
       <r>    4.0995    1.0000 </r>
       <r>    4.2856    1.0000 </r>
       <r>    4.4502    1.0000 </r>
       <r>    4.7339    1.0000 </r>
       <r>    4.8556    1.0000 </r>
       <r>    5.1740    1.0000 </r>
       <r>    5.3703    1.0000 </r>
       <r>    5.8006    1.0000 </r>
       <r>    6.1643    1.0000 </r>
       <r>    6.3599    1.0000 </r>
       <r>    6.4889    1.0000 </r>
       <r>    6.6456    1.0000 </r>
       <r>    7.0229    1.0000 </r>
       <r>    7.1051    1.0000 </r>
       <r>    7.3745    1.0138 </r>
       <r>    7.5276    1.0297 </r>
       <r>    7.8210    0.1794 </r>
       <r>    7.8764    0.0426 </r>
       <r>    8.0734   -0.0195 </r>
       <r>    8.2031   -0.0024 </r>
       <r>    8.4905   -0.0000 </r>
       <r>    8.6640   -0.0000 </r>
       <r>    8.8189   -0.0000 </r>
       <r>    8.8835   -0.0000 </r>
       <r>    9.0994   -0.0000 </r>
       <r>    9.2486   -0.0000 </r>
       <r>    9.4571   -0.0000 </r>
       <r>    9.5228   -0.0000 </r>
       <r>    9.7411   -0.0000 </r>
       <r>    9.8501   -0.0000 </r>
       <r>   10.0190   -0.0000 </r>
       <r>   10.1966   -0.0000 </r>
       <r>   10.4255   -0.0000 </r>
       <r>   10.5151   -0.0000 </r>
       <r>   10.7064   -0.0000 </r>
       <r>   10.7923   -0.0000 </r>
       <r>   11.0472   -0.0000 </r>
       <r>   11.1115   -0.0000 </r>
       <r>   11.2359   -0.0000 </r>
       <r>   11.4187   -0.0000 </r>
       <r>   11.5458   -0.0000 </r>
      </set>
      <set comment="kpoint 73">
       <r>   -3.3365    1.0000 </r>
       <r>   -2.5902    1.0000 </r>
       <r>   -2.0589    1.0000 </r>
       <r>   -1.7881    1.0000 </r>
       <r>   -0.8775    1.0000 </r>
       <r>   -0.7336    1.0000 </r>
       <r>   -0.2087    1.0000 </r>
       <r>    0.1685    1.0000 </r>
       <r>    0.8704    1.0000 </r>
       <r>    1.1488    1.0000 </r>
       <r>    1.4886    1.0000 </r>
       <r>    1.6032    1.0000 </r>
       <r>    1.7073    1.0000 </r>
       <r>    2.1476    1.0000 </r>
       <r>    2.3081    1.0000 </r>
       <r>    2.5522    1.0000 </r>
       <r>    2.6427    1.0000 </r>
       <r>    2.8481    1.0000 </r>
       <r>    3.1588    1.0000 </r>
       <r>    3.4637    1.0000 </r>
       <r>    3.5876    1.0000 </r>
       <r>    3.7173    1.0000 </r>
       <r>    3.8583    1.0000 </r>
       <r>    4.1016    1.0000 </r>
       <r>    4.2553    1.0000 </r>
       <r>    4.3825    1.0000 </r>
       <r>    4.6857    1.0000 </r>
       <r>    4.9032    1.0000 </r>
       <r>    5.0911    1.0000 </r>
       <r>    5.3927    1.0000 </r>
       <r>    5.9051    1.0000 </r>
       <r>    6.2434    1.0000 </r>
       <r>    6.4767    1.0000 </r>
       <r>    6.6949    1.0000 </r>
       <r>    6.8547    1.0000 </r>
       <r>    6.9428    1.0000 </r>
       <r>    7.1989    1.0005 </r>
       <r>    7.3302    1.0071 </r>
       <r>    7.6366    0.8734 </r>
       <r>    7.9338   -0.0230 </r>
       <r>    8.0541   -0.0239 </r>
       <r>    8.1210   -0.0104 </r>
       <r>    8.2199   -0.0017 </r>
       <r>    8.3024   -0.0002 </r>
       <r>    8.4344   -0.0000 </r>
       <r>    8.6205   -0.0000 </r>
       <r>    8.8033   -0.0000 </r>
       <r>    9.0112   -0.0000 </r>
       <r>    9.1369   -0.0000 </r>
       <r>    9.3022   -0.0000 </r>
       <r>    9.6166   -0.0000 </r>
       <r>    9.7373   -0.0000 </r>
       <r>    9.8609   -0.0000 </r>
       <r>   10.0095   -0.0000 </r>
       <r>   10.1180   -0.0000 </r>
       <r>   10.2928   -0.0000 </r>
       <r>   10.4867   -0.0000 </r>
       <r>   10.6935   -0.0000 </r>
       <r>   10.7687   -0.0000 </r>
       <r>   11.0316   -0.0000 </r>
       <r>   11.0842   -0.0000 </r>
       <r>   11.3089   -0.0000 </r>
       <r>   11.4037   -0.0000 </r>
       <r>   11.6395   -0.0000 </r>
      </set>
      <set comment="kpoint 74">
       <r>   -3.2742    1.0000 </r>
       <r>   -2.7388    1.0000 </r>
       <r>   -2.0481    1.0000 </r>
       <r>   -1.7364    1.0000 </r>
       <r>   -0.9844    1.0000 </r>
       <r>   -0.4722    1.0000 </r>
       <r>   -0.2152    1.0000 </r>
       <r>    0.1731    1.0000 </r>
       <r>    0.8526    1.0000 </r>
       <r>    1.2402    1.0000 </r>
       <r>    1.3603    1.0000 </r>
       <r>    1.4098    1.0000 </r>
       <r>    1.9117    1.0000 </r>
       <r>    2.0428    1.0000 </r>
       <r>    2.1930    1.0000 </r>
       <r>    2.3210    1.0000 </r>
       <r>    2.6740    1.0000 </r>
       <r>    3.0248    1.0000 </r>
       <r>    3.2021    1.0000 </r>
       <r>    3.4320    1.0000 </r>
       <r>    3.5680    1.0000 </r>
       <r>    3.7412    1.0000 </r>
       <r>    3.9290    1.0000 </r>
       <r>    4.0644    1.0000 </r>
       <r>    4.2190    1.0000 </r>
       <r>    4.5444    1.0000 </r>
       <r>    4.7078    1.0000 </r>
       <r>    4.8712    1.0000 </r>
       <r>    5.1563    1.0000 </r>
       <r>    5.5237    1.0000 </r>
       <r>    6.1057    1.0000 </r>
       <r>    6.2222    1.0000 </r>
       <r>    6.3382    1.0000 </r>
       <r>    6.5687    1.0000 </r>
       <r>    6.7426    1.0000 </r>
       <r>    7.0713    1.0000 </r>
       <r>    7.1788    1.0003 </r>
       <r>    7.3313    1.0072 </r>
       <r>    7.6288    0.8937 </r>
       <r>    7.7097    0.6176 </r>
       <r>    7.7939    0.2725 </r>
       <r>    8.1561   -0.0059 </r>
       <r>    8.2842   -0.0004 </r>
       <r>    8.3956   -0.0000 </r>
       <r>    8.5506   -0.0000 </r>
       <r>    8.7387   -0.0000 </r>
       <r>    8.8427   -0.0000 </r>
       <r>    8.9855   -0.0000 </r>
       <r>    9.1612   -0.0000 </r>
       <r>    9.3585   -0.0000 </r>
       <r>    9.6224   -0.0000 </r>
       <r>    9.7497   -0.0000 </r>
       <r>    9.8213   -0.0000 </r>
       <r>    9.9008   -0.0000 </r>
       <r>   10.1743   -0.0000 </r>
       <r>   10.3254   -0.0000 </r>
       <r>   10.4414   -0.0000 </r>
       <r>   10.5360   -0.0000 </r>
       <r>   10.7416   -0.0000 </r>
       <r>   11.0035   -0.0000 </r>
       <r>   11.1362   -0.0000 </r>
       <r>   11.2329   -0.0000 </r>
       <r>   11.4860   -0.0000 </r>
       <r>   11.5568   -0.0000 </r>
      </set>
      <set comment="kpoint 75">
       <r>   -3.3178    1.0000 </r>
       <r>   -2.5606    1.0000 </r>
       <r>   -2.1876    1.0000 </r>
       <r>   -1.8313    1.0000 </r>
       <r>   -0.8625    1.0000 </r>
       <r>   -0.4413    1.0000 </r>
       <r>   -0.2138    1.0000 </r>
       <r>    0.3957    1.0000 </r>
       <r>    0.5297    1.0000 </r>
       <r>    1.0033    1.0000 </r>
       <r>    1.3815    1.0000 </r>
       <r>    1.5342    1.0000 </r>
       <r>    1.8223    1.0000 </r>
       <r>    2.0972    1.0000 </r>
       <r>    2.2413    1.0000 </r>
       <r>    2.5540    1.0000 </r>
       <r>    2.7142    1.0000 </r>
       <r>    2.9842    1.0000 </r>
       <r>    3.0984    1.0000 </r>
       <r>    3.3894    1.0000 </r>
       <r>    3.6315    1.0000 </r>
       <r>    3.8023    1.0000 </r>
       <r>    4.0044    1.0000 </r>
       <r>    4.1404    1.0000 </r>
       <r>    4.2825    1.0000 </r>
       <r>    4.3564    1.0000 </r>
       <r>    4.6192    1.0000 </r>
       <r>    4.9246    1.0000 </r>
       <r>    5.1735    1.0000 </r>
       <r>    5.3928    1.0000 </r>
       <r>    5.9430    1.0000 </r>
       <r>    6.2319    1.0000 </r>
       <r>    6.5082    1.0000 </r>
       <r>    6.6588    1.0000 </r>
       <r>    6.7745    1.0000 </r>
       <r>    7.0486    1.0000 </r>
       <r>    7.1766    1.0003 </r>
       <r>    7.3503    1.0097 </r>
       <r>    7.5448    1.0211 </r>
       <r>    7.6504    0.8336 </r>
       <r>    7.7822    0.3169 </r>
       <r>    7.9333   -0.0226 </r>
       <r>    8.1315   -0.0088 </r>
       <r>    8.4854   -0.0000 </r>
       <r>    8.5881   -0.0000 </r>
       <r>    8.6870   -0.0000 </r>
       <r>    8.8176   -0.0000 </r>
       <r>    9.1239   -0.0000 </r>
       <r>    9.2631   -0.0000 </r>
       <r>    9.3946   -0.0000 </r>
       <r>    9.4994   -0.0000 </r>
       <r>    9.6973   -0.0000 </r>
       <r>    9.8557   -0.0000 </r>
       <r>   10.0582   -0.0000 </r>
       <r>   10.2179   -0.0000 </r>
       <r>   10.3667   -0.0000 </r>
       <r>   10.4743   -0.0000 </r>
       <r>   10.6387   -0.0000 </r>
       <r>   10.8279   -0.0000 </r>
       <r>   11.0084   -0.0000 </r>
       <r>   11.1863   -0.0000 </r>
       <r>   11.3466   -0.0000 </r>
       <r>   11.4782   -0.0000 </r>
       <r>   11.6076   -0.0000 </r>
      </set>
      <set comment="kpoint 76">
       <r>   -3.3858    1.0000 </r>
       <r>   -2.4324    1.0000 </r>
       <r>   -2.0220    1.0000 </r>
       <r>   -1.8602    1.0000 </r>
       <r>   -1.2072    1.0000 </r>
       <r>   -0.5166    1.0000 </r>
       <r>   -0.1723    1.0000 </r>
       <r>    0.3386    1.0000 </r>
       <r>    0.7014    1.0000 </r>
       <r>    1.0302    1.0000 </r>
       <r>    1.2556    1.0000 </r>
       <r>    1.5964    1.0000 </r>
       <r>    1.8344    1.0000 </r>
       <r>    2.2566    1.0000 </r>
       <r>    2.3934    1.0000 </r>
       <r>    2.6075    1.0000 </r>
       <r>    2.8125    1.0000 </r>
       <r>    3.0690    1.0000 </r>
       <r>    3.0807    1.0000 </r>
       <r>    3.3417    1.0000 </r>
       <r>    3.5091    1.0000 </r>
       <r>    3.6363    1.0000 </r>
       <r>    3.9068    1.0000 </r>
       <r>    4.1875    1.0000 </r>
       <r>    4.2554    1.0000 </r>
       <r>    4.3302    1.0000 </r>
       <r>    4.7432    1.0000 </r>
       <r>    5.0500    1.0000 </r>
       <r>    5.1497    1.0000 </r>
       <r>    5.2536    1.0000 </r>
       <r>    5.5935    1.0000 </r>
       <r>    6.2793    1.0000 </r>
       <r>    6.4053    1.0000 </r>
       <r>    6.6290    1.0000 </r>
       <r>    6.7513    1.0000 </r>
       <r>    6.8636    1.0000 </r>
       <r>    6.9849    1.0000 </r>
       <r>    7.4572    1.0317 </r>
       <r>    7.6358    0.8755 </r>
       <r>    7.8338    0.1411 </r>
       <r>    7.9302   -0.0207 </r>
       <r>    8.0310   -0.0291 </r>
       <r>    8.4284   -0.0000 </r>
       <r>    8.4627   -0.0000 </r>
       <r>    8.5494   -0.0000 </r>
       <r>    8.7263   -0.0000 </r>
       <r>    8.8971   -0.0000 </r>
       <r>    9.1119   -0.0000 </r>
       <r>    9.2253   -0.0000 </r>
       <r>    9.3334   -0.0000 </r>
       <r>    9.6497   -0.0000 </r>
       <r>    9.7845   -0.0000 </r>
       <r>    9.8433   -0.0000 </r>
       <r>   10.0462   -0.0000 </r>
       <r>   10.1930   -0.0000 </r>
       <r>   10.3031   -0.0000 </r>
       <r>   10.4824   -0.0000 </r>
       <r>   10.7259   -0.0000 </r>
       <r>   10.7914   -0.0000 </r>
       <r>   10.8958   -0.0000 </r>
       <r>   11.1138   -0.0000 </r>
       <r>   11.2422   -0.0000 </r>
       <r>   11.4966   -0.0000 </r>
       <r>   11.6720   -0.0000 </r>
      </set>
      <set comment="kpoint 77">
       <r>   -3.4818    1.0000 </r>
       <r>   -2.2932    1.0000 </r>
       <r>   -2.0575    1.0000 </r>
       <r>   -1.7249    1.0000 </r>
       <r>   -1.0604    1.0000 </r>
       <r>   -0.5506    1.0000 </r>
       <r>   -0.1265    1.0000 </r>
       <r>    0.2796    1.0000 </r>
       <r>    0.5336    1.0000 </r>
       <r>    0.7401    1.0000 </r>
       <r>    1.0882    1.0000 </r>
       <r>    1.4499    1.0000 </r>
       <r>    1.8035    1.0000 </r>
       <r>    1.9538    1.0000 </r>
       <r>    2.3816    1.0000 </r>
       <r>    2.5949    1.0000 </r>
       <r>    2.7765    1.0000 </r>
       <r>    3.0346    1.0000 </r>
       <r>    3.1875    1.0000 </r>
       <r>    3.5464    1.0000 </r>
       <r>    3.7881    1.0000 </r>
       <r>    3.8433    1.0000 </r>
       <r>    4.0257    1.0000 </r>
       <r>    4.2879    1.0000 </r>
       <r>    4.4890    1.0000 </r>
       <r>    4.8805    1.0000 </r>
       <r>    4.9648    1.0000 </r>
       <r>    5.1563    1.0000 </r>
       <r>    5.2618    1.0000 </r>
       <r>    5.4609    1.0000 </r>
       <r>    5.6452    1.0000 </r>
       <r>    5.9238    1.0000 </r>
       <r>    6.3111    1.0000 </r>
       <r>    6.4142    1.0000 </r>
       <r>    6.6115    1.0000 </r>
       <r>    6.8062    1.0000 </r>
       <r>    7.0814    1.0000 </r>
       <r>    7.2584    1.0018 </r>
       <r>    7.3861    1.0161 </r>
       <r>    7.7349    0.5122 </r>
       <r>    7.8431    0.1155 </r>
       <r>    7.9378   -0.0251 </r>
       <r>    8.2031   -0.0024 </r>
       <r>    8.2928   -0.0003 </r>
       <r>    8.5029   -0.0000 </r>
       <r>    8.6955   -0.0000 </r>
       <r>    9.0170   -0.0000 </r>
       <r>    9.0550   -0.0000 </r>
       <r>    9.1740   -0.0000 </r>
       <r>    9.2375   -0.0000 </r>
       <r>    9.4258   -0.0000 </r>
       <r>    9.5883   -0.0000 </r>
       <r>    9.7871   -0.0000 </r>
       <r>   10.0139   -0.0000 </r>
       <r>   10.2055   -0.0000 </r>
       <r>   10.3065   -0.0000 </r>
       <r>   10.5248   -0.0000 </r>
       <r>   10.6547   -0.0000 </r>
       <r>   10.7209   -0.0000 </r>
       <r>   10.9918   -0.0000 </r>
       <r>   11.0103   -0.0000 </r>
       <r>   11.2908   -0.0000 </r>
       <r>   11.3862   -0.0000 </r>
       <r>   11.6190   -0.0000 </r>
      </set>
      <set comment="kpoint 78">
       <r>   -3.4746    1.0000 </r>
       <r>   -2.4614    1.0000 </r>
       <r>   -1.8944    1.0000 </r>
       <r>   -1.6251    1.0000 </r>
       <r>   -0.9926    1.0000 </r>
       <r>   -0.7002    1.0000 </r>
       <r>   -0.0387    1.0000 </r>
       <r>    0.1336    1.0000 </r>
       <r>    0.3531    1.0000 </r>
       <r>    0.8230    1.0000 </r>
       <r>    1.0428    1.0000 </r>
       <r>    1.5461    1.0000 </r>
       <r>    1.7947    1.0000 </r>
       <r>    1.9257    1.0000 </r>
       <r>    2.4953    1.0000 </r>
       <r>    2.7281    1.0000 </r>
       <r>    2.7822    1.0000 </r>
       <r>    3.0552    1.0000 </r>
       <r>    3.1833    1.0000 </r>
       <r>    3.5264    1.0000 </r>
       <r>    3.6265    1.0000 </r>
       <r>    3.8946    1.0000 </r>
       <r>    4.1022    1.0000 </r>
       <r>    4.3105    1.0000 </r>
       <r>    4.4753    1.0000 </r>
       <r>    4.7764    1.0000 </r>
       <r>    5.0452    1.0000 </r>
       <r>    5.2457    1.0000 </r>
       <r>    5.2812    1.0000 </r>
       <r>    5.4828    1.0000 </r>
       <r>    5.6061    1.0000 </r>
       <r>    5.7711    1.0000 </r>
       <r>    6.2781    1.0000 </r>
       <r>    6.5752    1.0000 </r>
       <r>    6.7630    1.0000 </r>
       <r>    6.8863    1.0000 </r>
       <r>    6.9629    1.0000 </r>
       <r>    7.1272    1.0001 </r>
       <r>    7.3158    1.0055 </r>
       <r>    7.4848    1.0352 </r>
       <r>    7.7413    0.4850 </r>
       <r>    7.8775    0.0406 </r>
       <r>    8.2144   -0.0019 </r>
       <r>    8.3169   -0.0002 </r>
       <r>    8.4731   -0.0000 </r>
       <r>    8.6418   -0.0000 </r>
       <r>    8.9169   -0.0000 </r>
       <r>    8.9729   -0.0000 </r>
       <r>    9.2384   -0.0000 </r>
       <r>    9.3540   -0.0000 </r>
       <r>    9.4982   -0.0000 </r>
       <r>    9.5942   -0.0000 </r>
       <r>    9.9103   -0.0000 </r>
       <r>   10.1295   -0.0000 </r>
       <r>   10.1696   -0.0000 </r>
       <r>   10.3749   -0.0000 </r>
       <r>   10.5211   -0.0000 </r>
       <r>   10.7363   -0.0000 </r>
       <r>   10.8505   -0.0000 </r>
       <r>   10.9877   -0.0000 </r>
       <r>   11.1477   -0.0000 </r>
       <r>   11.2181   -0.0000 </r>
       <r>   11.3417   -0.0000 </r>
       <r>   11.4540   -0.0000 </r>
      </set>
      <set comment="kpoint 79">
       <r>   -3.4206    1.0000 </r>
       <r>   -2.5905    1.0000 </r>
       <r>   -2.0391    1.0000 </r>
       <r>   -1.4966    1.0000 </r>
       <r>   -0.8331    1.0000 </r>
       <r>   -0.4835    1.0000 </r>
       <r>   -0.2431    1.0000 </r>
       <r>    0.0751    1.0000 </r>
       <r>    0.3798    1.0000 </r>
       <r>    0.8333    1.0000 </r>
       <r>    1.1855    1.0000 </r>
       <r>    1.4131    1.0000 </r>
       <r>    1.7714    1.0000 </r>
       <r>    2.0150    1.0000 </r>
       <r>    2.2784    1.0000 </r>
       <r>    2.5472    1.0000 </r>
       <r>    2.8234    1.0000 </r>
       <r>    3.0333    1.0000 </r>
       <r>    3.1987    1.0000 </r>
       <r>    3.4842    1.0000 </r>
       <r>    3.6468    1.0000 </r>
       <r>    4.0042    1.0000 </r>
       <r>    4.1773    1.0000 </r>
       <r>    4.2585    1.0000 </r>
       <r>    4.4116    1.0000 </r>
       <r>    4.6929    1.0000 </r>
       <r>    5.0155    1.0000 </r>
       <r>    5.2394    1.0000 </r>
       <r>    5.4610    1.0000 </r>
       <r>    5.5831    1.0000 </r>
       <r>    5.7370    1.0000 </r>
       <r>    6.0890    1.0000 </r>
       <r>    6.2636    1.0000 </r>
       <r>    6.4036    1.0000 </r>
       <r>    6.6669    1.0000 </r>
       <r>    6.7887    1.0000 </r>
       <r>    6.9706    1.0000 </r>
       <r>    7.1871    1.0003 </r>
       <r>    7.3432    1.0087 </r>
       <r>    7.4017    1.0194 </r>
       <r>    7.7530    0.4357 </r>
       <r>    8.0345   -0.0284 </r>
       <r>    8.1518   -0.0063 </r>
       <r>    8.2427   -0.0010 </r>
       <r>    8.4787   -0.0000 </r>
       <r>    8.7803   -0.0000 </r>
       <r>    8.8915   -0.0000 </r>
       <r>    9.1060   -0.0000 </r>
       <r>    9.1851   -0.0000 </r>
       <r>    9.3130   -0.0000 </r>
       <r>    9.4924   -0.0000 </r>
       <r>    9.6497   -0.0000 </r>
       <r>    9.8215   -0.0000 </r>
       <r>   10.0470   -0.0000 </r>
       <r>   10.2039   -0.0000 </r>
       <r>   10.3603   -0.0000 </r>
       <r>   10.4393   -0.0000 </r>
       <r>   10.6730   -0.0000 </r>
       <r>   10.8075   -0.0000 </r>
       <r>   10.9627   -0.0000 </r>
       <r>   11.0191   -0.0000 </r>
       <r>   11.1876   -0.0000 </r>
       <r>   11.4419   -0.0000 </r>
       <r>   11.5106   -0.0000 </r>
      </set>
      <set comment="kpoint 80">
       <r>   -3.4135    1.0000 </r>
       <r>   -2.6773    1.0000 </r>
       <r>   -1.8407    1.0000 </r>
       <r>   -1.5263    1.0000 </r>
       <r>   -0.9144    1.0000 </r>
       <r>   -0.5954    1.0000 </r>
       <r>   -0.1936    1.0000 </r>
       <r>    0.0873    1.0000 </r>
       <r>    0.5053    1.0000 </r>
       <r>    0.6871    1.0000 </r>
       <r>    1.2641    1.0000 </r>
       <r>    1.4347    1.0000 </r>
       <r>    1.6478    1.0000 </r>
       <r>    1.8860    1.0000 </r>
       <r>    2.4806    1.0000 </r>
       <r>    2.5028    1.0000 </r>
       <r>    2.8797    1.0000 </r>
       <r>    3.0677    1.0000 </r>
       <r>    3.3758    1.0000 </r>
       <r>    3.4894    1.0000 </r>
       <r>    3.7161    1.0000 </r>
       <r>    3.8405    1.0000 </r>
       <r>    3.9850    1.0000 </r>
       <r>    4.3035    1.0000 </r>
       <r>    4.4119    1.0000 </r>
       <r>    4.7752    1.0000 </r>
       <r>    5.0260    1.0000 </r>
       <r>    5.1836    1.0000 </r>
       <r>    5.4295    1.0000 </r>
       <r>    5.6845    1.0000 </r>
       <r>    5.7760    1.0000 </r>
       <r>    6.0597    1.0000 </r>
       <r>    6.2619    1.0000 </r>
       <r>    6.5209    1.0000 </r>
       <r>    6.6662    1.0000 </r>
       <r>    6.7132    1.0000 </r>
       <r>    6.8801    1.0000 </r>
       <r>    7.0214    1.0000 </r>
       <r>    7.1674    1.0002 </r>
       <r>    7.4907    1.0354 </r>
       <r>    7.7102    0.6153 </r>
       <r>    8.0599   -0.0226 </r>
       <r>    8.2593   -0.0007 </r>
       <r>    8.3782   -0.0000 </r>
       <r>    8.4926   -0.0000 </r>
       <r>    8.7014   -0.0000 </r>
       <r>    8.9917   -0.0000 </r>
       <r>    9.1188   -0.0000 </r>
       <r>    9.2090   -0.0000 </r>
       <r>    9.3134   -0.0000 </r>
       <r>    9.4082   -0.0000 </r>
       <r>    9.5279   -0.0000 </r>
       <r>    9.8316   -0.0000 </r>
       <r>   10.0060   -0.0000 </r>
       <r>   10.1144   -0.0000 </r>
       <r>   10.3141   -0.0000 </r>
       <r>   10.4945   -0.0000 </r>
       <r>   10.8015   -0.0000 </r>
       <r>   10.9203   -0.0000 </r>
       <r>   11.0006   -0.0000 </r>
       <r>   11.1109   -0.0000 </r>
       <r>   11.2092   -0.0000 </r>
       <r>   11.3104   -0.0000 </r>
       <r>   11.4181   -0.0000 </r>
      </set>
      <set comment="kpoint 81">
       <r>   -3.4810    1.0000 </r>
       <r>   -2.2475    1.0000 </r>
       <r>   -2.1994    1.0000 </r>
       <r>   -1.5626    1.0000 </r>
       <r>   -1.0326    1.0000 </r>
       <r>   -0.5692    1.0000 </r>
       <r>   -0.3139    1.0000 </r>
       <r>    0.3243    1.0000 </r>
       <r>    0.5210    1.0000 </r>
       <r>    0.8099    1.0000 </r>
       <r>    1.0450    1.0000 </r>
       <r>    1.5084    1.0000 </r>
       <r>    1.7410    1.0000 </r>
       <r>    1.9668    1.0000 </r>
       <r>    2.3886    1.0000 </r>
       <r>    2.7424    1.0000 </r>
       <r>    2.9141    1.0000 </r>
       <r>    3.0226    1.0000 </r>
       <r>    3.1437    1.0000 </r>
       <r>    3.4792    1.0000 </r>
       <r>    3.6065    1.0000 </r>
       <r>    3.7629    1.0000 </r>
       <r>    4.1036    1.0000 </r>
       <r>    4.2688    1.0000 </r>
       <r>    4.5628    1.0000 </r>
       <r>    4.7410    1.0000 </r>
       <r>    4.9635    1.0000 </r>
       <r>    5.1141    1.0000 </r>
       <r>    5.2868    1.0000 </r>
       <r>    5.6263    1.0000 </r>
       <r>    5.7142    1.0000 </r>
       <r>    5.9588    1.0000 </r>
       <r>    6.2791    1.0000 </r>
       <r>    6.5095    1.0000 </r>
       <r>    6.6542    1.0000 </r>
       <r>    6.7533    1.0000 </r>
       <r>    6.9573    1.0000 </r>
       <r>    7.2074    1.0006 </r>
       <r>    7.4000    1.0190 </r>
       <r>    7.6325    0.8843 </r>
       <r>    7.8583    0.0789 </r>
       <r>    8.0956   -0.0148 </r>
       <r>    8.1710   -0.0045 </r>
       <r>    8.3237   -0.0001 </r>
       <r>    8.5335   -0.0000 </r>
       <r>    8.6651   -0.0000 </r>
       <r>    8.7734   -0.0000 </r>
       <r>    8.9931   -0.0000 </r>
       <r>    9.1318   -0.0000 </r>
       <r>    9.3630   -0.0000 </r>
       <r>    9.3943   -0.0000 </r>
       <r>    9.6723   -0.0000 </r>
       <r>    9.7525   -0.0000 </r>
       <r>    9.8821   -0.0000 </r>
       <r>   10.2650   -0.0000 </r>
       <r>   10.4437   -0.0000 </r>
       <r>   10.6024   -0.0000 </r>
       <r>   10.6911   -0.0000 </r>
       <r>   10.8727   -0.0000 </r>
       <r>   11.0261   -0.0000 </r>
       <r>   11.0733   -0.0000 </r>
       <r>   11.1725   -0.0000 </r>
       <r>   11.4167   -0.0000 </r>
       <r>   11.4870   -0.0000 </r>
      </set>
      <set comment="kpoint 82">
       <r>   -3.4820    1.0000 </r>
       <r>   -2.4255    1.0000 </r>
       <r>   -1.9416    1.0000 </r>
       <r>   -1.5871    1.0000 </r>
       <r>   -0.9769    1.0000 </r>
       <r>   -0.7492    1.0000 </r>
       <r>   -0.1243    1.0000 </r>
       <r>    0.2191    1.0000 </r>
       <r>    0.4040    1.0000 </r>
       <r>    0.8093    1.0000 </r>
       <r>    0.9817    1.0000 </r>
       <r>    1.5876    1.0000 </r>
       <r>    1.7195    1.0000 </r>
       <r>    1.9450    1.0000 </r>
       <r>    2.4231    1.0000 </r>
       <r>    2.7346    1.0000 </r>
       <r>    2.9432    1.0000 </r>
       <r>    3.1089    1.0000 </r>
       <r>    3.2696    1.0000 </r>
       <r>    3.5170    1.0000 </r>
       <r>    3.6150    1.0000 </r>
       <r>    3.8666    1.0000 </r>
       <r>    4.0764    1.0000 </r>
       <r>    4.3835    1.0000 </r>
       <r>    4.4388    1.0000 </r>
       <r>    4.6649    1.0000 </r>
       <r>    4.8472    1.0000 </r>
       <r>    5.2378    1.0000 </r>
       <r>    5.3770    1.0000 </r>
       <r>    5.5113    1.0000 </r>
       <r>    5.6617    1.0000 </r>
       <r>    5.7762    1.0000 </r>
       <r>    6.2817    1.0000 </r>
       <r>    6.4858    1.0000 </r>
       <r>    6.6452    1.0000 </r>
       <r>    6.8081    1.0000 </r>
       <r>    6.9710    1.0000 </r>
       <r>    7.1754    1.0003 </r>
       <r>    7.3120    1.0052 </r>
       <r>    7.6391    0.8664 </r>
       <r>    7.7499    0.4489 </r>
       <r>    7.9955   -0.0349 </r>
       <r>    8.1444   -0.0072 </r>
       <r>    8.3618   -0.0000 </r>
       <r>    8.5823   -0.0000 </r>
       <r>    8.6584   -0.0000 </r>
       <r>    8.7979   -0.0000 </r>
       <r>    8.9368   -0.0000 </r>
       <r>    9.1935   -0.0000 </r>
       <r>    9.2718   -0.0000 </r>
       <r>    9.4457   -0.0000 </r>
       <r>    9.6355   -0.0000 </r>
       <r>   10.0100   -0.0000 </r>
       <r>   10.0817   -0.0000 </r>
       <r>   10.3081   -0.0000 </r>
       <r>   10.4496   -0.0000 </r>
       <r>   10.6287   -0.0000 </r>
       <r>   10.6994   -0.0000 </r>
       <r>   10.8538   -0.0000 </r>
       <r>   10.9419   -0.0000 </r>
       <r>   11.0499   -0.0000 </r>
       <r>   11.2221   -0.0000 </r>
       <r>   11.4309   -0.0000 </r>
       <r>   11.5061   -0.0000 </r>
      </set>
      <set comment="kpoint 83">
       <r>   -3.4501    1.0000 </r>
       <r>   -2.4867    1.0000 </r>
       <r>   -1.9668    1.0000 </r>
       <r>   -1.6735    1.0000 </r>
       <r>   -0.8974    1.0000 </r>
       <r>   -0.6216    1.0000 </r>
       <r>   -0.1380    1.0000 </r>
       <r>    0.1258    1.0000 </r>
       <r>    0.5970    1.0000 </r>
       <r>    0.8266    1.0000 </r>
       <r>    1.0166    1.0000 </r>
       <r>    1.5699    1.0000 </r>
       <r>    1.8555    1.0000 </r>
       <r>    1.9641    1.0000 </r>
       <r>    2.2470    1.0000 </r>
       <r>    2.4448    1.0000 </r>
       <r>    2.7304    1.0000 </r>
       <r>    3.0629    1.0000 </r>
       <r>    3.2457    1.0000 </r>
       <r>    3.5102    1.0000 </r>
       <r>    3.6595    1.0000 </r>
       <r>    3.9775    1.0000 </r>
       <r>    4.0823    1.0000 </r>
       <r>    4.2374    1.0000 </r>
       <r>    4.4776    1.0000 </r>
       <r>    4.8823    1.0000 </r>
       <r>    4.9883    1.0000 </r>
       <r>    5.1251    1.0000 </r>
       <r>    5.3134    1.0000 </r>
       <r>    5.5425    1.0000 </r>
       <r>    5.7955    1.0000 </r>
       <r>    5.9761    1.0000 </r>
       <r>    6.1654    1.0000 </r>
       <r>    6.3967    1.0000 </r>
       <r>    6.7085    1.0000 </r>
       <r>    6.8558    1.0000 </r>
       <r>    6.9446    1.0000 </r>
       <r>    7.2531    1.0016 </r>
       <r>    7.4312    1.0262 </r>
       <r>    7.7505    0.4465 </r>
       <r>    7.8598    0.0754 </r>
       <r>    8.0174   -0.0318 </r>
       <r>    8.0842   -0.0172 </r>
       <r>    8.3526   -0.0001 </r>
       <r>    8.4905   -0.0000 </r>
       <r>    8.5734   -0.0000 </r>
       <r>    8.9123   -0.0000 </r>
       <r>    8.9991   -0.0000 </r>
       <r>    9.1853   -0.0000 </r>
       <r>    9.3150   -0.0000 </r>
       <r>    9.4282   -0.0000 </r>
       <r>    9.7103   -0.0000 </r>
       <r>    9.8309   -0.0000 </r>
       <r>    9.9132   -0.0000 </r>
       <r>   10.1553   -0.0000 </r>
       <r>   10.3105   -0.0000 </r>
       <r>   10.5790   -0.0000 </r>
       <r>   10.6673   -0.0000 </r>
       <r>   10.8071   -0.0000 </r>
       <r>   10.9365   -0.0000 </r>
       <r>   11.0813   -0.0000 </r>
       <r>   11.2172   -0.0000 </r>
       <r>   11.3765   -0.0000 </r>
       <r>   11.5524   -0.0000 </r>
      </set>
      <set comment="kpoint 84">
       <r>   -3.3873    1.0000 </r>
       <r>   -2.7445    1.0000 </r>
       <r>   -1.7786    1.0000 </r>
       <r>   -1.5331    1.0000 </r>
       <r>   -0.9423    1.0000 </r>
       <r>   -0.5600    1.0000 </r>
       <r>   -0.3671    1.0000 </r>
       <r>    0.2445    1.0000 </r>
       <r>    0.6112    1.0000 </r>
       <r>    0.7999    1.0000 </r>
       <r>    1.0861    1.0000 </r>
       <r>    1.3090    1.0000 </r>
       <r>    1.7502    1.0000 </r>
       <r>    2.0063    1.0000 </r>
       <r>    2.3461    1.0000 </r>
       <r>    2.6427    1.0000 </r>
       <r>    2.7592    1.0000 </r>
       <r>    3.0247    1.0000 </r>
       <r>    3.2106    1.0000 </r>
       <r>    3.4547    1.0000 </r>
       <r>    3.6619    1.0000 </r>
       <r>    3.9880    1.0000 </r>
       <r>    4.1413    1.0000 </r>
       <r>    4.2318    1.0000 </r>
       <r>    4.4990    1.0000 </r>
       <r>    4.7209    1.0000 </r>
       <r>    4.9118    1.0000 </r>
       <r>    5.0246    1.0000 </r>
       <r>    5.5112    1.0000 </r>
       <r>    5.6129    1.0000 </r>
       <r>    5.7698    1.0000 </r>
       <r>    5.9294    1.0000 </r>
       <r>    6.3582    1.0000 </r>
       <r>    6.5066    1.0000 </r>
       <r>    6.7650    1.0000 </r>
       <r>    6.9000    1.0000 </r>
       <r>    7.0588    1.0000 </r>
       <r>    7.3605    1.0113 </r>
       <r>    7.4907    1.0354 </r>
       <r>    7.6484    0.8395 </r>
       <r>    7.7430    0.4779 </r>
       <r>    7.8326    0.1445 </r>
       <r>    7.9428   -0.0275 </r>
       <r>    8.2529   -0.0008 </r>
       <r>    8.3935   -0.0000 </r>
       <r>    8.6424   -0.0000 </r>
       <r>    8.8021   -0.0000 </r>
       <r>    9.0197   -0.0000 </r>
       <r>    9.1202   -0.0000 </r>
       <r>    9.2895   -0.0000 </r>
       <r>    9.4603   -0.0000 </r>
       <r>    9.6260   -0.0000 </r>
       <r>    9.7480   -0.0000 </r>
       <r>   10.0470   -0.0000 </r>
       <r>   10.2062   -0.0000 </r>
       <r>   10.3594   -0.0000 </r>
       <r>   10.5127   -0.0000 </r>
       <r>   10.6329   -0.0000 </r>
       <r>   10.7601   -0.0000 </r>
       <r>   10.9952   -0.0000 </r>
       <r>   11.1299   -0.0000 </r>
       <r>   11.1940   -0.0000 </r>
       <r>   11.4246   -0.0000 </r>
       <r>   11.5441   -0.0000 </r>
      </set>
      <set comment="kpoint 85">
       <r>   -3.4604    1.0000 </r>
       <r>   -2.3444    1.0000 </r>
       <r>   -2.2139    1.0000 </r>
       <r>   -1.5585    1.0000 </r>
       <r>   -0.8251    1.0000 </r>
       <r>   -0.4955    1.0000 </r>
       <r>   -0.2575    1.0000 </r>
       <r>    0.0548    1.0000 </r>
       <r>    0.4051    1.0000 </r>
       <r>    0.8481    1.0000 </r>
       <r>    1.0701    1.0000 </r>
       <r>    1.4865    1.0000 </r>
       <r>    1.9502    1.0000 </r>
       <r>    2.0459    1.0000 </r>
       <r>    2.2902    1.0000 </r>
       <r>    2.5785    1.0000 </r>
       <r>    2.7480    1.0000 </r>
       <r>    2.9536    1.0000 </r>
       <r>    3.1674    1.0000 </r>
       <r>    3.5555    1.0000 </r>
       <r>    3.8205    1.0000 </r>
       <r>    3.8961    1.0000 </r>
       <r>    4.0119    1.0000 </r>
       <r>    4.1936    1.0000 </r>
       <r>    4.5252    1.0000 </r>
       <r>    4.7835    1.0000 </r>
       <r>    4.8858    1.0000 </r>
       <r>    5.1691    1.0000 </r>
       <r>    5.3949    1.0000 </r>
       <r>    5.6690    1.0000 </r>
       <r>    5.8088    1.0000 </r>
       <r>    5.9714    1.0000 </r>
       <r>    6.2435    1.0000 </r>
       <r>    6.4908    1.0000 </r>
       <r>    6.6969    1.0000 </r>
       <r>    6.8552    1.0000 </r>
       <r>    6.9715    1.0000 </r>
       <r>    7.1562    1.0002 </r>
       <r>    7.3032    1.0044 </r>
       <r>    7.5394    1.0243 </r>
       <r>    7.7946    0.2699 </r>
       <r>    7.8658    0.0628 </r>
       <r>    8.0678   -0.0208 </r>
       <r>    8.2313   -0.0013 </r>
       <r>    8.5712   -0.0000 </r>
       <r>    8.6699   -0.0000 </r>
       <r>    8.8772   -0.0000 </r>
       <r>    9.0655   -0.0000 </r>
       <r>    9.1393   -0.0000 </r>
       <r>    9.2666   -0.0000 </r>
       <r>    9.5232   -0.0000 </r>
       <r>    9.6850   -0.0000 </r>
       <r>    9.8611   -0.0000 </r>
       <r>   10.1444   -0.0000 </r>
       <r>   10.2844   -0.0000 </r>
       <r>   10.3583   -0.0000 </r>
       <r>   10.5098   -0.0000 </r>
       <r>   10.6364   -0.0000 </r>
       <r>   10.8129   -0.0000 </r>
       <r>   10.9872   -0.0000 </r>
       <r>   11.1117   -0.0000 </r>
       <r>   11.2738   -0.0000 </r>
       <r>   11.4432   -0.0000 </r>
       <r>   11.4777   -0.0000 </r>
      </set>
      <set comment="kpoint 86">
       <r>   -3.4501    1.0000 </r>
       <r>   -2.5395    1.0000 </r>
       <r>   -2.0085    1.0000 </r>
       <r>   -1.4119    1.0000 </r>
       <r>   -0.9593    1.0000 </r>
       <r>   -0.5118    1.0000 </r>
       <r>   -0.3861    1.0000 </r>
       <r>    0.1142    1.0000 </r>
       <r>    0.5163    1.0000 </r>
       <r>    0.7789    1.0000 </r>
       <r>    1.0448    1.0000 </r>
       <r>    1.4493    1.0000 </r>
       <r>    1.7509    1.0000 </r>
       <r>    2.1731    1.0000 </r>
       <r>    2.3753    1.0000 </r>
       <r>    2.5233    1.0000 </r>
       <r>    2.7448    1.0000 </r>
       <r>    3.0641    1.0000 </r>
       <r>    3.3051    1.0000 </r>
       <r>    3.6584    1.0000 </r>
       <r>    3.7388    1.0000 </r>
       <r>    3.7909    1.0000 </r>
       <r>    4.0426    1.0000 </r>
       <r>    4.2384    1.0000 </r>
       <r>    4.6665    1.0000 </r>
       <r>    4.7710    1.0000 </r>
       <r>    4.9079    1.0000 </r>
       <r>    5.1177    1.0000 </r>
       <r>    5.4483    1.0000 </r>
       <r>    5.5645    1.0000 </r>
       <r>    5.7336    1.0000 </r>
       <r>    5.9353    1.0000 </r>
       <r>    6.0980    1.0000 </r>
       <r>    6.5776    1.0000 </r>
       <r>    6.6838    1.0000 </r>
       <r>    6.8384    1.0000 </r>
       <r>    6.9573    1.0000 </r>
       <r>    7.0994    1.0000 </r>
       <r>    7.2125    1.0006 </r>
       <r>    7.4384    1.0278 </r>
       <r>    7.6911    0.6918 </r>
       <r>    7.8598    0.0755 </r>
       <r>    8.2132   -0.0020 </r>
       <r>    8.4077   -0.0000 </r>
       <r>    8.4971   -0.0000 </r>
       <r>    8.7353   -0.0000 </r>
       <r>    8.8565   -0.0000 </r>
       <r>    9.0506   -0.0000 </r>
       <r>    9.2100   -0.0000 </r>
       <r>    9.3295   -0.0000 </r>
       <r>    9.5175   -0.0000 </r>
       <r>    9.6421   -0.0000 </r>
       <r>    9.8862   -0.0000 </r>
       <r>    9.9840   -0.0000 </r>
       <r>   10.0754   -0.0000 </r>
       <r>   10.4364   -0.0000 </r>
       <r>   10.6345   -0.0000 </r>
       <r>   10.7744   -0.0000 </r>
       <r>   10.8700   -0.0000 </r>
       <r>   11.0525   -0.0000 </r>
       <r>   11.1488   -0.0000 </r>
       <r>   11.2335   -0.0000 </r>
       <r>   11.3794   -0.0000 </r>
       <r>   11.4607   -0.0000 </r>
      </set>
      <set comment="kpoint 87">
       <r>   -3.4467    1.0000 </r>
       <r>   -2.4999    1.0000 </r>
       <r>   -2.0643    1.0000 </r>
       <r>   -1.4899    1.0000 </r>
       <r>   -0.7955    1.0000 </r>
       <r>   -0.6528    1.0000 </r>
       <r>   -0.4067    1.0000 </r>
       <r>    0.1239    1.0000 </r>
       <r>    0.6678    1.0000 </r>
       <r>    0.7858    1.0000 </r>
       <r>    1.1938    1.0000 </r>
       <r>    1.3860    1.0000 </r>
       <r>    1.9468    1.0000 </r>
       <r>    2.0201    1.0000 </r>
       <r>    2.1531    1.0000 </r>
       <r>    2.5661    1.0000 </r>
       <r>    2.7249    1.0000 </r>
       <r>    3.0786    1.0000 </r>
       <r>    3.2637    1.0000 </r>
       <r>    3.4213    1.0000 </r>
       <r>    3.6698    1.0000 </r>
       <r>    3.8916    1.0000 </r>
       <r>    4.1122    1.0000 </r>
       <r>    4.2993    1.0000 </r>
       <r>    4.5125    1.0000 </r>
       <r>    4.7325    1.0000 </r>
       <r>    4.8939    1.0000 </r>
       <r>    5.2760    1.0000 </r>
       <r>    5.4059    1.0000 </r>
       <r>    5.5651    1.0000 </r>
       <r>    5.8343    1.0000 </r>
       <r>    5.9601    1.0000 </r>
       <r>    6.1435    1.0000 </r>
       <r>    6.5134    1.0000 </r>
       <r>    6.6585    1.0000 </r>
       <r>    6.7914    1.0000 </r>
       <r>    7.0135    1.0000 </r>
       <r>    7.1618    1.0002 </r>
       <r>    7.2920    1.0036 </r>
       <r>    7.5416    1.0230 </r>
       <r>    7.7988    0.2546 </r>
       <r>    8.0260   -0.0302 </r>
       <r>    8.1452   -0.0071 </r>
       <r>    8.3859   -0.0000 </r>
       <r>    8.4895   -0.0000 </r>
       <r>    8.6938   -0.0000 </r>
       <r>    8.9299   -0.0000 </r>
       <r>    9.0722   -0.0000 </r>
       <r>    9.2301   -0.0000 </r>
       <r>    9.2660   -0.0000 </r>
       <r>    9.4746   -0.0000 </r>
       <r>    9.6758   -0.0000 </r>
       <r>    9.9501   -0.0000 </r>
       <r>   10.0134   -0.0000 </r>
       <r>   10.1258   -0.0000 </r>
       <r>   10.1938   -0.0000 </r>
       <r>   10.5839   -0.0000 </r>
       <r>   10.6544   -0.0000 </r>
       <r>   10.7976   -0.0000 </r>
       <r>   10.9375   -0.0000 </r>
       <r>   11.0839   -0.0000 </r>
       <r>   11.2451   -0.0000 </r>
       <r>   11.4190   -0.0000 </r>
       <r>   11.5403   -0.0000 </r>
      </set>
      <set comment="kpoint 88">
       <r>   -3.3985    1.0000 </r>
       <r>   -2.7188    1.0000 </r>
       <r>   -1.8107    1.0000 </r>
       <r>   -1.4928    1.0000 </r>
       <r>   -0.9597    1.0000 </r>
       <r>   -0.5391    1.0000 </r>
       <r>   -0.4175    1.0000 </r>
       <r>    0.2876    1.0000 </r>
       <r>    0.5271    1.0000 </r>
       <r>    0.8270    1.0000 </r>
       <r>    1.1027    1.0000 </r>
       <r>    1.2933    1.0000 </r>
       <r>    1.7365    1.0000 </r>
       <r>    2.0471    1.0000 </r>
       <r>    2.3513    1.0000 </r>
       <r>    2.6867    1.0000 </r>
       <r>    2.8083    1.0000 </r>
       <r>    2.9990    1.0000 </r>
       <r>    3.1855    1.0000 </r>
       <r>    3.5064    1.0000 </r>
       <r>    3.6475    1.0000 </r>
       <r>    3.9452    1.0000 </r>
       <r>    4.0677    1.0000 </r>
       <r>    4.3316    1.0000 </r>
       <r>    4.5071    1.0000 </r>
       <r>    4.6750    1.0000 </r>
       <r>    4.9646    1.0000 </r>
       <r>    5.0946    1.0000 </r>
       <r>    5.3770    1.0000 </r>
       <r>    5.6156    1.0000 </r>
       <r>    5.7432    1.0000 </r>
       <r>    5.9694    1.0000 </r>
       <r>    6.2793    1.0000 </r>
       <r>    6.4911    1.0000 </r>
       <r>    6.7160    1.0000 </r>
       <r>    6.8295    1.0000 </r>
       <r>    7.0185    1.0000 </r>
       <r>    7.3659    1.0123 </r>
       <r>    7.4565    1.0315 </r>
       <r>    7.5492    1.0181 </r>
       <r>    7.7843    0.3089 </r>
       <r>    7.8722    0.0503 </r>
       <r>    8.1132   -0.0117 </r>
       <r>    8.2294   -0.0014 </r>
       <r>    8.5386   -0.0000 </r>
       <r>    8.6447   -0.0000 </r>
       <r>    8.9131   -0.0000 </r>
       <r>    9.0076   -0.0000 </r>
       <r>    9.1545   -0.0000 </r>
       <r>    9.2899   -0.0000 </r>
       <r>    9.5239   -0.0000 </r>
       <r>    9.6530   -0.0000 </r>
       <r>    9.7640   -0.0000 </r>
       <r>    9.9958   -0.0000 </r>
       <r>   10.1806   -0.0000 </r>
       <r>   10.3248   -0.0000 </r>
       <r>   10.4246   -0.0000 </r>
       <r>   10.6569   -0.0000 </r>
       <r>   10.8104   -0.0000 </r>
       <r>   10.9457   -0.0000 </r>
       <r>   11.1145   -0.0000 </r>
       <r>   11.1804   -0.0000 </r>
       <r>   11.3127   -0.0000 </r>
       <r>   11.4637   -0.0000 </r>
      </set>
      <set comment="kpoint 89">
       <r>   -3.4767    1.0000 </r>
       <r>   -2.3893    1.0000 </r>
       <r>   -1.9905    1.0000 </r>
       <r>   -1.6643    1.0000 </r>
       <r>   -0.9878    1.0000 </r>
       <r>   -0.6458    1.0000 </r>
       <r>   -0.1051    1.0000 </r>
       <r>    0.1616    1.0000 </r>
       <r>    0.5172    1.0000 </r>
       <r>    0.7700    1.0000 </r>
       <r>    1.1288    1.0000 </r>
       <r>    1.5764    1.0000 </r>
       <r>    1.6959    1.0000 </r>
       <r>    1.8739    1.0000 </r>
       <r>    2.3222    1.0000 </r>
       <r>    2.6608    1.0000 </r>
       <r>    2.8789    1.0000 </r>
       <r>    3.1463    1.0000 </r>
       <r>    3.3171    1.0000 </r>
       <r>    3.4074    1.0000 </r>
       <r>    3.5718    1.0000 </r>
       <r>    3.8476    1.0000 </r>
       <r>    4.1914    1.0000 </r>
       <r>    4.3275    1.0000 </r>
       <r>    4.3906    1.0000 </r>
       <r>    4.7500    1.0000 </r>
       <r>    4.9305    1.0000 </r>
       <r>    5.1154    1.0000 </r>
       <r>    5.4285    1.0000 </r>
       <r>    5.5649    1.0000 </r>
       <r>    5.6943    1.0000 </r>
       <r>    6.0011    1.0000 </r>
       <r>    6.3752    1.0000 </r>
       <r>    6.4945    1.0000 </r>
       <r>    6.5906    1.0000 </r>
       <r>    6.7813    1.0000 </r>
       <r>    6.8821    1.0000 </r>
       <r>    7.1649    1.0002 </r>
       <r>    7.3357    1.0077 </r>
       <r>    7.6352    0.8770 </r>
       <r>    7.8633    0.0679 </r>
       <r>    7.9186   -0.0121 </r>
       <r>    8.1544   -0.0061 </r>
       <r>    8.2767   -0.0005 </r>
       <r>    8.4754   -0.0000 </r>
       <r>    8.5972   -0.0000 </r>
       <r>    8.9590   -0.0000 </r>
       <r>    9.1082   -0.0000 </r>
       <r>    9.1877   -0.0000 </r>
       <r>    9.3214   -0.0000 </r>
       <r>    9.4603   -0.0000 </r>
       <r>    9.7448   -0.0000 </r>
       <r>    9.8110   -0.0000 </r>
       <r>   10.0930   -0.0000 </r>
       <r>   10.2232   -0.0000 </r>
       <r>   10.2860   -0.0000 </r>
       <r>   10.4559   -0.0000 </r>
       <r>   10.6304   -0.0000 </r>
       <r>   10.8442   -0.0000 </r>
       <r>   10.9458   -0.0000 </r>
       <r>   11.0074   -0.0000 </r>
       <r>   11.2375   -0.0000 </r>
       <r>   11.2851   -0.0000 </r>
       <r>   11.4865   -0.0000 </r>
      </set>
      <set comment="kpoint 90">
       <r>   -3.4228    1.0000 </r>
       <r>   -2.6295    1.0000 </r>
       <r>   -1.8986    1.0000 </r>
       <r>   -1.5660    1.0000 </r>
       <r>   -0.8310    1.0000 </r>
       <r>   -0.6186    1.0000 </r>
       <r>   -0.1946    1.0000 </r>
       <r>    0.1451    1.0000 </r>
       <r>    0.4302    1.0000 </r>
       <r>    0.6847    1.0000 </r>
       <r>    1.1730    1.0000 </r>
       <r>    1.4974    1.0000 </r>
       <r>    1.8127    1.0000 </r>
       <r>    1.8961    1.0000 </r>
       <r>    2.3595    1.0000 </r>
       <r>    2.5507    1.0000 </r>
       <r>    2.8774    1.0000 </r>
       <r>    3.0664    1.0000 </r>
       <r>    3.2415    1.0000 </r>
       <r>    3.4960    1.0000 </r>
       <r>    3.6868    1.0000 </r>
       <r>    3.9299    1.0000 </r>
       <r>    4.0816    1.0000 </r>
       <r>    4.2777    1.0000 </r>
       <r>    4.4699    1.0000 </r>
       <r>    4.5654    1.0000 </r>
       <r>    4.8826    1.0000 </r>
       <r>    5.3687    1.0000 </r>
       <r>    5.4888    1.0000 </r>
       <r>    5.6664    1.0000 </r>
       <r>    5.7530    1.0000 </r>
       <r>    5.9471    1.0000 </r>
       <r>    6.3600    1.0000 </r>
       <r>    6.4019    1.0000 </r>
       <r>    6.5989    1.0000 </r>
       <r>    6.8298    1.0000 </r>
       <r>    6.9679    1.0000 </r>
       <r>    7.1517    1.0001 </r>
       <r>    7.3240    1.0064 </r>
       <r>    7.4323    1.0264 </r>
       <r>    7.6430    0.8553 </r>
       <r>    7.9507   -0.0306 </r>
       <r>    8.2279   -0.0014 </r>
       <r>    8.3364   -0.0001 </r>
       <r>    8.4791   -0.0000 </r>
       <r>    8.8397   -0.0000 </r>
       <r>    9.0688   -0.0000 </r>
       <r>    9.0884   -0.0000 </r>
       <r>    9.2129   -0.0000 </r>
       <r>    9.3398   -0.0000 </r>
       <r>    9.5003   -0.0000 </r>
       <r>    9.6129   -0.0000 </r>
       <r>    9.6894   -0.0000 </r>
       <r>    9.9175   -0.0000 </r>
       <r>   10.1952   -0.0000 </r>
       <r>   10.3175   -0.0000 </r>
       <r>   10.4399   -0.0000 </r>
       <r>   10.6948   -0.0000 </r>
       <r>   10.8484   -0.0000 </r>
       <r>   10.9751   -0.0000 </r>
       <r>   11.0765   -0.0000 </r>
       <r>   11.1700   -0.0000 </r>
       <r>   11.3303   -0.0000 </r>
       <r>   11.3881   -0.0000 </r>
      </set>
      <set comment="kpoint 91">
       <r>   -3.4796    1.0000 </r>
       <r>   -2.4610    1.0000 </r>
       <r>   -1.9074    1.0000 </r>
       <r>   -1.5170    1.0000 </r>
       <r>   -1.0925    1.0000 </r>
       <r>   -0.6310    1.0000 </r>
       <r>   -0.2931    1.0000 </r>
       <r>    0.1862    1.0000 </r>
       <r>    0.5701    1.0000 </r>
       <r>    0.7463    1.0000 </r>
       <r>    1.0865    1.0000 </r>
       <r>    1.3546    1.0000 </r>
       <r>    1.7970    1.0000 </r>
       <r>    2.1785    1.0000 </r>
       <r>    2.3725    1.0000 </r>
       <r>    2.7415    1.0000 </r>
       <r>    2.8823    1.0000 </r>
       <r>    2.9968    1.0000 </r>
       <r>    3.2635    1.0000 </r>
       <r>    3.4323    1.0000 </r>
       <r>    3.6980    1.0000 </r>
       <r>    3.8988    1.0000 </r>
       <r>    4.0795    1.0000 </r>
       <r>    4.3686    1.0000 </r>
       <r>    4.5435    1.0000 </r>
       <r>    4.6801    1.0000 </r>
       <r>    4.9458    1.0000 </r>
       <r>    5.1174    1.0000 </r>
       <r>    5.3666    1.0000 </r>
       <r>    5.4224    1.0000 </r>
       <r>    5.6625    1.0000 </r>
       <r>    5.7458    1.0000 </r>
       <r>    6.3734    1.0000 </r>
       <r>    6.4412    1.0000 </r>
       <r>    6.7099    1.0000 </r>
       <r>    6.7938    1.0000 </r>
       <r>    6.9627    1.0000 </r>
       <r>    7.0886    1.0000 </r>
       <r>    7.3322    1.0073 </r>
       <r>    7.6377    0.8704 </r>
       <r>    7.8361    0.1345 </r>
       <r>    7.9881   -0.0353 </r>
       <r>    8.1078   -0.0126 </r>
       <r>    8.3381   -0.0001 </r>
       <r>    8.5002   -0.0000 </r>
       <r>    8.6383   -0.0000 </r>
       <r>    8.8705   -0.0000 </r>
       <r>    9.0413   -0.0000 </r>
       <r>    9.2382   -0.0000 </r>
       <r>    9.3183   -0.0000 </r>
       <r>    9.4948   -0.0000 </r>
       <r>    9.5824   -0.0000 </r>
       <r>    9.9053   -0.0000 </r>
       <r>   10.1430   -0.0000 </r>
       <r>   10.1700   -0.0000 </r>
       <r>   10.4635   -0.0000 </r>
       <r>   10.5827   -0.0000 </r>
       <r>   10.7453   -0.0000 </r>
       <r>   10.8420   -0.0000 </r>
       <r>   10.9179   -0.0000 </r>
       <r>   11.1347   -0.0000 </r>
       <r>   11.2898   -0.0000 </r>
       <r>   11.4138   -0.0000 </r>
       <r>   11.5465   -0.0000 </r>
      </set>
      <set comment="kpoint 92">
       <r>   -3.3993    1.0000 </r>
       <r>   -2.6882    1.0000 </r>
       <r>   -1.8830    1.0000 </r>
       <r>   -1.5514    1.0000 </r>
       <r>   -0.8395    1.0000 </r>
       <r>   -0.5449    1.0000 </r>
       <r>   -0.3508    1.0000 </r>
       <r>    0.1690    1.0000 </r>
       <r>    0.6335    1.0000 </r>
       <r>    0.7767    1.0000 </r>
       <r>    1.0661    1.0000 </r>
       <r>    1.4000    1.0000 </r>
       <r>    1.6501    1.0000 </r>
       <r>    2.0440    1.0000 </r>
       <r>    2.4437    1.0000 </r>
       <r>    2.6676    1.0000 </r>
       <r>    2.7750    1.0000 </r>
       <r>    2.9770    1.0000 </r>
       <r>    3.1806    1.0000 </r>
       <r>    3.3945    1.0000 </r>
       <r>    3.6880    1.0000 </r>
       <r>    3.8557    1.0000 </r>
       <r>    4.1227    1.0000 </r>
       <r>    4.2750    1.0000 </r>
       <r>    4.4903    1.0000 </r>
       <r>    4.7497    1.0000 </r>
       <r>    4.9103    1.0000 </r>
       <r>    5.1517    1.0000 </r>
       <r>    5.3624    1.0000 </r>
       <r>    5.6229    1.0000 </r>
       <r>    5.8842    1.0000 </r>
       <r>    6.1195    1.0000 </r>
       <r>    6.2605    1.0000 </r>
       <r>    6.4047    1.0000 </r>
       <r>    6.5692    1.0000 </r>
       <r>    6.9776    1.0000 </r>
       <r>    7.0837    1.0000 </r>
       <r>    7.3895    1.0168 </r>
       <r>    7.4713    1.0339 </r>
       <r>    7.5884    0.9751 </r>
       <r>    7.6682    0.7755 </r>
       <r>    7.9260   -0.0179 </r>
       <r>    8.1246   -0.0098 </r>
       <r>    8.2119   -0.0020 </r>
       <r>    8.4392   -0.0000 </r>
       <r>    8.6040   -0.0000 </r>
       <r>    8.7803   -0.0000 </r>
       <r>    8.9959   -0.0000 </r>
       <r>    9.1597   -0.0000 </r>
       <r>    9.2151   -0.0000 </r>
       <r>    9.4649   -0.0000 </r>
       <r>    9.6836   -0.0000 </r>
       <r>    9.8717   -0.0000 </r>
       <r>   10.0515   -0.0000 </r>
       <r>   10.1814   -0.0000 </r>
       <r>   10.3135   -0.0000 </r>
       <r>   10.5358   -0.0000 </r>
       <r>   10.7350   -0.0000 </r>
       <r>   10.8507   -0.0000 </r>
       <r>   10.9322   -0.0000 </r>
       <r>   11.0052   -0.0000 </r>
       <r>   11.2031   -0.0000 </r>
       <r>   11.2975   -0.0000 </r>
       <r>   11.4443   -0.0000 </r>
      </set>
      <set comment="kpoint 93">
       <r>   -3.4528    1.0000 </r>
       <r>   -2.4274    1.0000 </r>
       <r>   -2.0795    1.0000 </r>
       <r>   -1.6500    1.0000 </r>
       <r>   -0.9540    1.0000 </r>
       <r>   -0.3563    1.0000 </r>
       <r>   -0.1635    1.0000 </r>
       <r>   -0.0251    1.0000 </r>
       <r>    0.6780    1.0000 </r>
       <r>    0.7619    1.0000 </r>
       <r>    1.0416    1.0000 </r>
       <r>    1.5757    1.0000 </r>
       <r>    1.7160    1.0000 </r>
       <r>    1.8939    1.0000 </r>
       <r>    2.3273    1.0000 </r>
       <r>    2.4376    1.0000 </r>
       <r>    2.7239    1.0000 </r>
       <r>    3.0344    1.0000 </r>
       <r>    3.2638    1.0000 </r>
       <r>    3.5462    1.0000 </r>
       <r>    3.7734    1.0000 </r>
       <r>    3.9887    1.0000 </r>
       <r>    4.0927    1.0000 </r>
       <r>    4.2342    1.0000 </r>
       <r>    4.6078    1.0000 </r>
       <r>    4.8033    1.0000 </r>
       <r>    4.9426    1.0000 </r>
       <r>    5.1231    1.0000 </r>
       <r>    5.3149    1.0000 </r>
       <r>    5.5260    1.0000 </r>
       <r>    5.7584    1.0000 </r>
       <r>    5.9162    1.0000 </r>
       <r>    6.3506    1.0000 </r>
       <r>    6.5359    1.0000 </r>
       <r>    6.5936    1.0000 </r>
       <r>    6.7685    1.0000 </r>
       <r>    7.0336    1.0000 </r>
       <r>    7.2674    1.0022 </r>
       <r>    7.3491    1.0096 </r>
       <r>    7.5851    0.9800 </r>
       <r>    7.8669    0.0606 </r>
       <r>    7.8825    0.0321 </r>
       <r>    8.1347   -0.0084 </r>
       <r>    8.2700   -0.0005 </r>
       <r>    8.4925   -0.0000 </r>
       <r>    8.7026   -0.0000 </r>
       <r>    8.8593   -0.0000 </r>
       <r>    9.0477   -0.0000 </r>
       <r>    9.1859   -0.0000 </r>
       <r>    9.3011   -0.0000 </r>
       <r>    9.4109   -0.0000 </r>
       <r>    9.6418   -0.0000 </r>
       <r>    9.7984   -0.0000 </r>
       <r>    9.9711   -0.0000 </r>
       <r>   10.2546   -0.0000 </r>
       <r>   10.4150   -0.0000 </r>
       <r>   10.5045   -0.0000 </r>
       <r>   10.6584   -0.0000 </r>
       <r>   10.7087   -0.0000 </r>
       <r>   10.9339   -0.0000 </r>
       <r>   11.1559   -0.0000 </r>
       <r>   11.2464   -0.0000 </r>
       <r>   11.3267   -0.0000 </r>
       <r>   11.5139   -0.0000 </r>
      </set>
      <set comment="kpoint 94">
       <r>   -3.4494    1.0000 </r>
       <r>   -2.5431    1.0000 </r>
       <r>   -1.9460    1.0000 </r>
       <r>   -1.5194    1.0000 </r>
       <r>   -0.8483    1.0000 </r>
       <r>   -0.7180    1.0000 </r>
       <r>   -0.2963    1.0000 </r>
       <r>    0.0754    1.0000 </r>
       <r>    0.5014    1.0000 </r>
       <r>    0.9374    1.0000 </r>
       <r>    1.1624    1.0000 </r>
       <r>    1.4438    1.0000 </r>
       <r>    1.8565    1.0000 </r>
       <r>    2.1127    1.0000 </r>
       <r>    2.1844    1.0000 </r>
       <r>    2.5816    1.0000 </r>
       <r>    2.7685    1.0000 </r>
       <r>    2.9677    1.0000 </r>
       <r>    3.3515    1.0000 </r>
       <r>    3.4333    1.0000 </r>
       <r>    3.6884    1.0000 </r>
       <r>    3.8830    1.0000 </r>
       <r>    4.1111    1.0000 </r>
       <r>    4.2523    1.0000 </r>
       <r>    4.4995    1.0000 </r>
       <r>    4.8293    1.0000 </r>
       <r>    4.9019    1.0000 </r>
       <r>    5.1069    1.0000 </r>
       <r>    5.2710    1.0000 </r>
       <r>    5.5999    1.0000 </r>
       <r>    5.7692    1.0000 </r>
       <r>    5.9213    1.0000 </r>
       <r>    6.2885    1.0000 </r>
       <r>    6.4751    1.0000 </r>
       <r>    6.7470    1.0000 </r>
       <r>    6.9222    1.0000 </r>
       <r>    7.0082    1.0000 </r>
       <r>    7.2529    1.0016 </r>
       <r>    7.3668    1.0124 </r>
       <r>    7.5099    1.0342 </r>
       <r>    7.7728    0.3542 </r>
       <r>    7.9924   -0.0351 </r>
       <r>    8.0693   -0.0204 </r>
       <r>    8.3102   -0.0002 </r>
       <r>    8.5444   -0.0000 </r>
       <r>    8.6588   -0.0000 </r>
       <r>    8.7853   -0.0000 </r>
       <r>    8.9991   -0.0000 </r>
       <r>    9.1645   -0.0000 </r>
       <r>    9.3499   -0.0000 </r>
       <r>    9.4358   -0.0000 </r>
       <r>    9.5692   -0.0000 </r>
       <r>    9.8913   -0.0000 </r>
       <r>   10.0286   -0.0000 </r>
       <r>   10.2874   -0.0000 </r>
       <r>   10.3704   -0.0000 </r>
       <r>   10.6009   -0.0000 </r>
       <r>   10.7397   -0.0000 </r>
       <r>   10.8213   -0.0000 </r>
       <r>   10.9971   -0.0000 </r>
       <r>   11.2007   -0.0000 </r>
       <r>   11.2130   -0.0000 </r>
       <r>   11.2770   -0.0000 </r>
       <r>   11.4687   -0.0000 </r>
      </set>
      <set comment="kpoint 95">
       <r>   -3.4553    1.0000 </r>
       <r>   -2.4717    1.0000 </r>
       <r>   -2.1118    1.0000 </r>
       <r>   -1.3994    1.0000 </r>
       <r>   -0.9214    1.0000 </r>
       <r>   -0.4928    1.0000 </r>
       <r>   -0.3597    1.0000 </r>
       <r>    0.0048    1.0000 </r>
       <r>    0.5263    1.0000 </r>
       <r>    0.8209    1.0000 </r>
       <r>    1.0565    1.0000 </r>
       <r>    1.5404    1.0000 </r>
       <r>    1.7670    1.0000 </r>
       <r>    2.0147    1.0000 </r>
       <r>    2.3178    1.0000 </r>
       <r>    2.5990    1.0000 </r>
       <r>    2.7412    1.0000 </r>
       <r>    3.1390    1.0000 </r>
       <r>    3.2375    1.0000 </r>
       <r>    3.5504    1.0000 </r>
       <r>    3.7825    1.0000 </r>
       <r>    3.9614    1.0000 </r>
       <r>    4.0833    1.0000 </r>
       <r>    4.2124    1.0000 </r>
       <r>    4.5736    1.0000 </r>
       <r>    4.7569    1.0000 </r>
       <r>    4.9912    1.0000 </r>
       <r>    5.1158    1.0000 </r>
       <r>    5.2954    1.0000 </r>
       <r>    5.5634    1.0000 </r>
       <r>    5.6999    1.0000 </r>
       <r>    5.9220    1.0000 </r>
       <r>    6.1454    1.0000 </r>
       <r>    6.5285    1.0000 </r>
       <r>    6.6765    1.0000 </r>
       <r>    6.7725    1.0000 </r>
       <r>    6.9342    1.0000 </r>
       <r>    7.0993    1.0000 </r>
       <r>    7.3383    1.0081 </r>
       <r>    7.5377    1.0251 </r>
       <r>    7.7976    0.2590 </r>
       <r>    7.8700    0.0545 </r>
       <r>    8.1816   -0.0037 </r>
       <r>    8.4121   -0.0000 </r>
       <r>    8.6424   -0.0000 </r>
       <r>    8.7438   -0.0000 </r>
       <r>    8.8453   -0.0000 </r>
       <r>    9.0059   -0.0000 </r>
       <r>    9.1236   -0.0000 </r>
       <r>    9.2414   -0.0000 </r>
       <r>    9.4826   -0.0000 </r>
       <r>    9.6297   -0.0000 </r>
       <r>    9.8371   -0.0000 </r>
       <r>   10.0516   -0.0000 </r>
       <r>   10.2799   -0.0000 </r>
       <r>   10.4486   -0.0000 </r>
       <r>   10.5879   -0.0000 </r>
       <r>   10.7383   -0.0000 </r>
       <r>   10.8408   -0.0000 </r>
       <r>   10.9441   -0.0000 </r>
       <r>   11.0830   -0.0000 </r>
       <r>   11.2182   -0.0000 </r>
       <r>   11.3890   -0.0000 </r>
       <r>   11.4412   -0.0000 </r>
      </set>
      <set comment="kpoint 96">
       <r>   -3.4501    1.0000 </r>
       <r>   -2.5715    1.0000 </r>
       <r>   -1.9004    1.0000 </r>
       <r>   -1.4464    1.0000 </r>
       <r>   -0.9838    1.0000 </r>
       <r>   -0.6010    1.0000 </r>
       <r>   -0.4521    1.0000 </r>
       <r>    0.1523    1.0000 </r>
       <r>    0.5438    1.0000 </r>
       <r>    0.8460    1.0000 </r>
       <r>    1.2056    1.0000 </r>
       <r>    1.4272    1.0000 </r>
       <r>    1.7657    1.0000 </r>
       <r>    2.1664    1.0000 </r>
       <r>    2.2160    1.0000 </r>
       <r>    2.6003    1.0000 </r>
       <r>    2.7588    1.0000 </r>
       <r>    3.0156    1.0000 </r>
       <r>    3.2812    1.0000 </r>
       <r>    3.4667    1.0000 </r>
       <r>    3.7394    1.0000 </r>
       <r>    4.0547    1.0000 </r>
       <r>    4.1007    1.0000 </r>
       <r>    4.3081    1.0000 </r>
       <r>    4.3722    1.0000 </r>
       <r>    4.6879    1.0000 </r>
       <r>    5.0219    1.0000 </r>
       <r>    5.1542    1.0000 </r>
       <r>    5.2862    1.0000 </r>
       <r>    5.5413    1.0000 </r>
       <r>    5.7676    1.0000 </r>
       <r>    5.8529    1.0000 </r>
       <r>    6.3275    1.0000 </r>
       <r>    6.4789    1.0000 </r>
       <r>    6.7000    1.0000 </r>
       <r>    6.7510    1.0000 </r>
       <r>    6.8990    1.0000 </r>
       <r>    7.2008    1.0005 </r>
       <r>    7.3107    1.0050 </r>
       <r>    7.6347    0.8785 </r>
       <r>    7.7520    0.4400 </r>
       <r>    8.0169   -0.0319 </r>
       <r>    8.1255   -0.0097 </r>
       <r>    8.3348   -0.0001 </r>
       <r>    8.5175   -0.0000 </r>
       <r>    8.6272   -0.0000 </r>
       <r>    8.8522   -0.0000 </r>
       <r>    9.0612   -0.0000 </r>
       <r>    9.1668   -0.0000 </r>
       <r>    9.3381   -0.0000 </r>
       <r>    9.5411   -0.0000 </r>
       <r>    9.7141   -0.0000 </r>
       <r>    9.8856   -0.0000 </r>
       <r>   10.0304   -0.0000 </r>
       <r>   10.3003   -0.0000 </r>
       <r>   10.4033   -0.0000 </r>
       <r>   10.5891   -0.0000 </r>
       <r>   10.6508   -0.0000 </r>
       <r>   10.7935   -0.0000 </r>
       <r>   10.9450   -0.0000 </r>
       <r>   11.0869   -0.0000 </r>
       <r>   11.2366   -0.0000 </r>
       <r>   11.3957   -0.0000 </r>
       <r>   11.4743   -0.0000 </r>
      </set>
      <set comment="kpoint 97">
       <r>   -3.3879    1.0000 </r>
       <r>   -2.7157    1.0000 </r>
       <r>   -1.8988    1.0000 </r>
       <r>   -1.4765    1.0000 </r>
       <r>   -0.9066    1.0000 </r>
       <r>   -0.5610    1.0000 </r>
       <r>   -0.3972    1.0000 </r>
       <r>    0.3229    1.0000 </r>
       <r>    0.6769    1.0000 </r>
       <r>    0.8521    1.0000 </r>
       <r>    0.9904    1.0000 </r>
       <r>    1.3077    1.0000 </r>
       <r>    1.7283    1.0000 </r>
       <r>    1.9321    1.0000 </r>
       <r>    2.3226    1.0000 </r>
       <r>    2.5239    1.0000 </r>
       <r>    2.8826    1.0000 </r>
       <r>    3.0534    1.0000 </r>
       <r>    3.2668    1.0000 </r>
       <r>    3.4830    1.0000 </r>
       <r>    3.6241    1.0000 </r>
       <r>    3.9475    1.0000 </r>
       <r>    4.0315    1.0000 </r>
       <r>    4.3163    1.0000 </r>
       <r>    4.3913    1.0000 </r>
       <r>    4.5924    1.0000 </r>
       <r>    4.9614    1.0000 </r>
       <r>    5.1984    1.0000 </r>
       <r>    5.4878    1.0000 </r>
       <r>    5.7316    1.0000 </r>
       <r>    5.9058    1.0000 </r>
       <r>    6.0641    1.0000 </r>
       <r>    6.3414    1.0000 </r>
       <r>    6.3991    1.0000 </r>
       <r>    6.4542    1.0000 </r>
       <r>    6.8964    1.0000 </r>
       <r>    7.1009    1.0000 </r>
       <r>    7.3002    1.0042 </r>
       <r>    7.6016    0.9530 </r>
       <r>    7.6315    0.8869 </r>
       <r>    7.7679    0.3740 </r>
       <r>    7.8999    0.0073 </r>
       <r>    8.0249   -0.0304 </r>
       <r>    8.2505   -0.0009 </r>
       <r>    8.4423   -0.0000 </r>
       <r>    8.5829   -0.0000 </r>
       <r>    8.7351   -0.0000 </r>
       <r>    9.0508   -0.0000 </r>
       <r>    9.1091   -0.0000 </r>
       <r>    9.2841   -0.0000 </r>
       <r>    9.4889   -0.0000 </r>
       <r>    9.7299   -0.0000 </r>
       <r>    9.8326   -0.0000 </r>
       <r>    9.8569   -0.0000 </r>
       <r>   10.1015   -0.0000 </r>
       <r>   10.3601   -0.0000 </r>
       <r>   10.4360   -0.0000 </r>
       <r>   10.6472   -0.0000 </r>
       <r>   10.7601   -0.0000 </r>
       <r>   11.0436   -0.0000 </r>
       <r>   11.0933   -0.0000 </r>
       <r>   11.2196   -0.0000 </r>
       <r>   11.3364   -0.0000 </r>
       <r>   11.4714   -0.0000 </r>
      </set>
      <set comment="kpoint 98">
       <r>   -3.4767    1.0000 </r>
       <r>   -2.4256    1.0000 </r>
       <r>   -2.0028    1.0000 </r>
       <r>   -1.5177    1.0000 </r>
       <r>   -1.0597    1.0000 </r>
       <r>   -0.5157    1.0000 </r>
       <r>   -0.3279    1.0000 </r>
       <r>    0.1465    1.0000 </r>
       <r>    0.4763    1.0000 </r>
       <r>    0.7848    1.0000 </r>
       <r>    1.1133    1.0000 </r>
       <r>    1.4731    1.0000 </r>
       <r>    1.8677    1.0000 </r>
       <r>    2.0666    1.0000 </r>
       <r>    2.3264    1.0000 </r>
       <r>    2.6335    1.0000 </r>
       <r>    2.8867    1.0000 </r>
       <r>    3.0514    1.0000 </r>
       <r>    3.2633    1.0000 </r>
       <r>    3.3822    1.0000 </r>
       <r>    3.7155    1.0000 </r>
       <r>    3.8286    1.0000 </r>
       <r>    4.0903    1.0000 </r>
       <r>    4.2875    1.0000 </r>
       <r>    4.6272    1.0000 </r>
       <r>    4.8129    1.0000 </r>
       <r>    4.9839    1.0000 </r>
       <r>    5.1719    1.0000 </r>
       <r>    5.3359    1.0000 </r>
       <r>    5.3937    1.0000 </r>
       <r>    5.6117    1.0000 </r>
       <r>    5.7574    1.0000 </r>
       <r>    6.3077    1.0000 </r>
       <r>    6.4707    1.0000 </r>
       <r>    6.6214    1.0000 </r>
       <r>    6.8631    1.0000 </r>
       <r>    7.0410    1.0000 </r>
       <r>    7.1851    1.0003 </r>
       <r>    7.4133    1.0220 </r>
       <r>    7.5708    0.9984 </r>
       <r>    7.6678    0.7769 </r>
       <r>    7.9933   -0.0351 </r>
       <r>    8.1714   -0.0045 </r>
       <r>    8.3291   -0.0001 </r>
       <r>    8.5796   -0.0000 </r>
       <r>    8.7231   -0.0000 </r>
       <r>    8.8787   -0.0000 </r>
       <r>    9.0337   -0.0000 </r>
       <r>    9.1478   -0.0000 </r>
       <r>    9.2736   -0.0000 </r>
       <r>    9.4935   -0.0000 </r>
       <r>    9.7055   -0.0000 </r>
       <r>    9.7990   -0.0000 </r>
       <r>   10.0956   -0.0000 </r>
       <r>   10.1737   -0.0000 </r>
       <r>   10.2376   -0.0000 </r>
       <r>   10.5678   -0.0000 </r>
       <r>   10.7405   -0.0000 </r>
       <r>   10.9400   -0.0000 </r>
       <r>   11.0364   -0.0000 </r>
       <r>   11.1864   -0.0000 </r>
       <r>   11.2804   -0.0000 </r>
       <r>   11.3717   -0.0000 </r>
       <r>   11.4438   -0.0000 </r>
      </set>
      <set comment="kpoint 99">
       <r>   -3.4145    1.0000 </r>
       <r>   -2.6098    1.0000 </r>
       <r>   -1.9381    1.0000 </r>
       <r>   -1.6325    1.0000 </r>
       <r>   -0.9547    1.0000 </r>
       <r>   -0.4298    1.0000 </r>
       <r>   -0.1267    1.0000 </r>
       <r>    0.1939    1.0000 </r>
       <r>    0.4973    1.0000 </r>
       <r>    0.8000    1.0000 </r>
       <r>    1.0227    1.0000 </r>
       <r>    1.4755    1.0000 </r>
       <r>    1.7251    1.0000 </r>
       <r>    1.9566    1.0000 </r>
       <r>    2.1835    1.0000 </r>
       <r>    2.4725    1.0000 </r>
       <r>    2.8295    1.0000 </r>
       <r>    3.0941    1.0000 </r>
       <r>    3.2214    1.0000 </r>
       <r>    3.4793    1.0000 </r>
       <r>    3.6608    1.0000 </r>
       <r>    3.9593    1.0000 </r>
       <r>    4.1641    1.0000 </r>
       <r>    4.3576    1.0000 </r>
       <r>    4.5417    1.0000 </r>
       <r>    4.6017    1.0000 </r>
       <r>    5.0847    1.0000 </r>
       <r>    5.2343    1.0000 </r>
       <r>    5.3576    1.0000 </r>
       <r>    5.5752    1.0000 </r>
       <r>    5.7887    1.0000 </r>
       <r>    5.9378    1.0000 </r>
       <r>    6.2513    1.0000 </r>
       <r>    6.4626    1.0000 </r>
       <r>    6.6736    1.0000 </r>
       <r>    6.8394    1.0000 </r>
       <r>    6.9823    1.0000 </r>
       <r>    7.2556    1.0017 </r>
       <r>    7.4167    1.0228 </r>
       <r>    7.5672    1.0024 </r>
       <r>    7.7625    0.3964 </r>
       <r>    7.9942   -0.0350 </r>
       <r>    8.1583   -0.0057 </r>
       <r>    8.3450   -0.0001 </r>
       <r>    8.3787   -0.0000 </r>
       <r>    8.6300   -0.0000 </r>
       <r>    8.9421   -0.0000 </r>
       <r>    9.0550   -0.0000 </r>
       <r>    9.2447   -0.0000 </r>
       <r>    9.3308   -0.0000 </r>
       <r>    9.4498   -0.0000 </r>
       <r>    9.5889   -0.0000 </r>
       <r>    9.7502   -0.0000 </r>
       <r>    9.8972   -0.0000 </r>
       <r>   10.1358   -0.0000 </r>
       <r>   10.3418   -0.0000 </r>
       <r>   10.4332   -0.0000 </r>
       <r>   10.6820   -0.0000 </r>
       <r>   10.7541   -0.0000 </r>
       <r>   10.9781   -0.0000 </r>
       <r>   11.1746   -0.0000 </r>
       <r>   11.2345   -0.0000 </r>
       <r>   11.4084   -0.0000 </r>
       <r>   11.4803   -0.0000 </r>
      </set>
      <set comment="kpoint 100">
       <r>   -3.4845    1.0000 </r>
       <r>   -2.3071    1.0000 </r>
       <r>   -2.0942    1.0000 </r>
       <r>   -1.6303    1.0000 </r>
       <r>   -0.9980    1.0000 </r>
       <r>   -0.6051    1.0000 </r>
       <r>   -0.1138    1.0000 </r>
       <r>    0.1392    1.0000 </r>
       <r>    0.4650    1.0000 </r>
       <r>    0.7497    1.0000 </r>
       <r>    1.0645    1.0000 </r>
       <r>    1.5832    1.0000 </r>
       <r>    1.7308    1.0000 </r>
       <r>    2.0383    1.0000 </r>
       <r>    2.4811    1.0000 </r>
       <r>    2.5615    1.0000 </r>
       <r>    2.8159    1.0000 </r>
       <r>    3.0663    1.0000 </r>
       <r>    3.2436    1.0000 </r>
       <r>    3.4697    1.0000 </r>
       <r>    3.7268    1.0000 </r>
       <r>    3.8942    1.0000 </r>
       <r>    3.9768    1.0000 </r>
       <r>    4.3010    1.0000 </r>
       <r>    4.4569    1.0000 </r>
       <r>    4.8329    1.0000 </r>
       <r>    4.9479    1.0000 </r>
       <r>    5.0425    1.0000 </r>
       <r>    5.3745    1.0000 </r>
       <r>    5.5936    1.0000 </r>
       <r>    5.7017    1.0000 </r>
       <r>    5.8116    1.0000 </r>
       <r>    6.3860    1.0000 </r>
       <r>    6.5205    1.0000 </r>
       <r>    6.6779    1.0000 </r>
       <r>    6.8347    1.0000 </r>
       <r>    6.9535    1.0000 </r>
       <r>    7.2232    1.0008 </r>
       <r>    7.3106    1.0050 </r>
       <r>    7.4134    1.0221 </r>
       <r>    7.8189    0.1860 </r>
       <r>    8.0430   -0.0265 </r>
       <r>    8.1279   -0.0093 </r>
       <r>    8.3197   -0.0002 </r>
       <r>    8.4709   -0.0000 </r>
       <r>    8.6697   -0.0000 </r>
       <r>    8.8329   -0.0000 </r>
       <r>    8.9651   -0.0000 </r>
       <r>    9.1706   -0.0000 </r>
       <r>    9.2656   -0.0000 </r>
       <r>    9.5007   -0.0000 </r>
       <r>    9.6892   -0.0000 </r>
       <r>   10.0501   -0.0000 </r>
       <r>   10.1188   -0.0000 </r>
       <r>   10.2182   -0.0000 </r>
       <r>   10.3936   -0.0000 </r>
       <r>   10.5480   -0.0000 </r>
       <r>   10.7187   -0.0000 </r>
       <r>   10.8262   -0.0000 </r>
       <r>   10.9723   -0.0000 </r>
       <r>   11.1212   -0.0000 </r>
       <r>   11.2581   -0.0000 </r>
       <r>   11.3419   -0.0000 </r>
       <r>   11.5405   -0.0000 </r>
      </set>
      <set comment="kpoint 101">
       <r>   -3.3344    1.0000 </r>
       <r>   -2.5772    1.0000 </r>
       <r>   -2.1306    1.0000 </r>
       <r>   -1.5890    1.0000 </r>
       <r>   -1.2632    1.0000 </r>
       <r>   -0.7454    1.0000 </r>
       <r>    0.0972    1.0000 </r>
       <r>    0.4079    1.0000 </r>
       <r>    0.9803    1.0000 </r>
       <r>    1.0874    1.0000 </r>
       <r>    1.3482    1.0000 </r>
       <r>    1.7059    1.0000 </r>
       <r>    1.8645    1.0000 </r>
       <r>    1.9109    1.0000 </r>
       <r>    2.0996    1.0000 </r>
       <r>    2.2231    1.0000 </r>
       <r>    2.4643    1.0000 </r>
       <r>    2.7174    1.0000 </r>
       <r>    3.0766    1.0000 </r>
       <r>    3.2141    1.0000 </r>
       <r>    3.5041    1.0000 </r>
       <r>    3.7814    1.0000 </r>
       <r>    4.0319    1.0000 </r>
       <r>    4.5192    1.0000 </r>
       <r>    4.7424    1.0000 </r>
       <r>    4.8637    1.0000 </r>
       <r>    5.0513    1.0000 </r>
       <r>    5.1107    1.0000 </r>
       <r>    5.5292    1.0000 </r>
       <r>    5.5796    1.0000 </r>
       <r>    5.7275    1.0000 </r>
       <r>    5.8707    1.0000 </r>
       <r>    6.0014    1.0000 </r>
       <r>    6.2130    1.0000 </r>
       <r>    6.4161    1.0000 </r>
       <r>    6.7641    1.0000 </r>
       <r>    6.9436    1.0000 </r>
       <r>    7.1719    1.0002 </r>
       <r>    7.4876    1.0354 </r>
       <r>    7.6649    0.7870 </r>
       <r>    7.7381    0.4986 </r>
       <r>    8.0781   -0.0185 </r>
       <r>    8.3362   -0.0001 </r>
       <r>    8.5208   -0.0000 </r>
       <r>    8.7120   -0.0000 </r>
       <r>    8.8531   -0.0000 </r>
       <r>    9.0509   -0.0000 </r>
       <r>    9.2171   -0.0000 </r>
       <r>    9.2280   -0.0000 </r>
       <r>    9.3420   -0.0000 </r>
       <r>    9.6487   -0.0000 </r>
       <r>    9.8236   -0.0000 </r>
       <r>    9.9443   -0.0000 </r>
       <r>   10.1945   -0.0000 </r>
       <r>   10.3449   -0.0000 </r>
       <r>   10.3804   -0.0000 </r>
       <r>   10.5800   -0.0000 </r>
       <r>   10.6980   -0.0000 </r>
       <r>   10.8575   -0.0000 </r>
       <r>   10.9547   -0.0000 </r>
       <r>   11.0745   -0.0000 </r>
       <r>   11.2679   -0.0000 </r>
       <r>   11.3999   -0.0000 </r>
       <r>   11.5950   -0.0000 </r>
      </set>
      <set comment="kpoint 102">
       <r>   -3.3928    1.0000 </r>
       <r>   -2.3669    1.0000 </r>
       <r>   -2.0799    1.0000 </r>
       <r>   -1.7398    1.0000 </r>
       <r>   -1.3077    1.0000 </r>
       <r>   -0.9855    1.0000 </r>
       <r>    0.2951    1.0000 </r>
       <r>    0.4672    1.0000 </r>
       <r>    0.9411    1.0000 </r>
       <r>    1.0740    1.0000 </r>
       <r>    1.3498    1.0000 </r>
       <r>    1.6518    1.0000 </r>
       <r>    1.8630    1.0000 </r>
       <r>    2.0626    1.0000 </r>
       <r>    2.2403    1.0000 </r>
       <r>    2.3793    1.0000 </r>
       <r>    2.6409    1.0000 </r>
       <r>    2.7108    1.0000 </r>
       <r>    2.8958    1.0000 </r>
       <r>    3.0634    1.0000 </r>
       <r>    3.4418    1.0000 </r>
       <r>    3.7017    1.0000 </r>
       <r>    3.9315    1.0000 </r>
       <r>    4.2752    1.0000 </r>
       <r>    4.6988    1.0000 </r>
       <r>    4.7588    1.0000 </r>
       <r>    5.0202    1.0000 </r>
       <r>    5.1022    1.0000 </r>
       <r>    5.4345    1.0000 </r>
       <r>    5.6527    1.0000 </r>
       <r>    5.8425    1.0000 </r>
       <r>    5.9531    1.0000 </r>
       <r>    6.1620    1.0000 </r>
       <r>    6.2375    1.0000 </r>
       <r>    6.6128    1.0000 </r>
       <r>    6.7859    1.0000 </r>
       <r>    7.0737    1.0000 </r>
       <r>    7.1810    1.0003 </r>
       <r>    7.3865    1.0162 </r>
       <r>    7.5294    1.0289 </r>
       <r>    7.9075   -0.0014 </r>
       <r>    8.0156   -0.0322 </r>
       <r>    8.3007   -0.0003 </r>
       <r>    8.4843   -0.0000 </r>
       <r>    8.7314   -0.0000 </r>
       <r>    8.8678   -0.0000 </r>
       <r>    9.0911   -0.0000 </r>
       <r>    9.2212   -0.0000 </r>
       <r>    9.3859   -0.0000 </r>
       <r>    9.5363   -0.0000 </r>
       <r>    9.5868   -0.0000 </r>
       <r>    9.7284   -0.0000 </r>
       <r>    9.9802   -0.0000 </r>
       <r>   10.0429   -0.0000 </r>
       <r>   10.2417   -0.0000 </r>
       <r>   10.3729   -0.0000 </r>
       <r>   10.4948   -0.0000 </r>
       <r>   10.6537   -0.0000 </r>
       <r>   10.7782   -0.0000 </r>
       <r>   10.9371   -0.0000 </r>
       <r>   11.2000   -0.0000 </r>
       <r>   11.2392   -0.0000 </r>
       <r>   11.4252   -0.0000 </r>
       <r>   11.5770   -0.0000 </r>
      </set>
      <set comment="kpoint 103">
       <r>   -3.2985    1.0000 </r>
       <r>   -2.6942    1.0000 </r>
       <r>   -1.9433    1.0000 </r>
       <r>   -1.7224    1.0000 </r>
       <r>   -1.3373    1.0000 </r>
       <r>   -0.6829    1.0000 </r>
       <r>    0.2523    1.0000 </r>
       <r>    0.4700    1.0000 </r>
       <r>    0.9296    1.0000 </r>
       <r>    1.1086    1.0000 </r>
       <r>    1.4345    1.0000 </r>
       <r>    1.6050    1.0000 </r>
       <r>    1.7144    1.0000 </r>
       <r>    1.8842    1.0000 </r>
       <r>    2.0798    1.0000 </r>
       <r>    2.2467    1.0000 </r>
       <r>    2.5188    1.0000 </r>
       <r>    2.6434    1.0000 </r>
       <r>    2.9453    1.0000 </r>
       <r>    3.1597    1.0000 </r>
       <r>    3.5034    1.0000 </r>
       <r>    3.8283    1.0000 </r>
       <r>    4.1046    1.0000 </r>
       <r>    4.4953    1.0000 </r>
       <r>    4.6075    1.0000 </r>
       <r>    5.0380    1.0000 </r>
       <r>    5.0784    1.0000 </r>
       <r>    5.2875    1.0000 </r>
       <r>    5.3388    1.0000 </r>
       <r>    5.6099    1.0000 </r>
       <r>    5.7402    1.0000 </r>
       <r>    5.9546    1.0000 </r>
       <r>    6.0923    1.0000 </r>
       <r>    6.2803    1.0000 </r>
       <r>    6.4779    1.0000 </r>
       <r>    6.8053    1.0000 </r>
       <r>    7.0269    1.0000 </r>
       <r>    7.1626    1.0002 </r>
       <r>    7.4446    1.0291 </r>
       <r>    7.5847    0.9807 </r>
       <r>    7.7350    0.5119 </r>
       <r>    8.0052   -0.0338 </r>
       <r>    8.3273   -0.0001 </r>
       <r>    8.5509   -0.0000 </r>
       <r>    8.6676   -0.0000 </r>
       <r>    8.7926   -0.0000 </r>
       <r>    9.0417   -0.0000 </r>
       <r>    9.1927   -0.0000 </r>
       <r>    9.3104   -0.0000 </r>
       <r>    9.4059   -0.0000 </r>
       <r>    9.5842   -0.0000 </r>
       <r>    9.6705   -0.0000 </r>
       <r>    9.9318   -0.0000 </r>
       <r>   10.1919   -0.0000 </r>
       <r>   10.2779   -0.0000 </r>
       <r>   10.3636   -0.0000 </r>
       <r>   10.4917   -0.0000 </r>
       <r>   10.5730   -0.0000 </r>
       <r>   10.7645   -0.0000 </r>
       <r>   10.9168   -0.0000 </r>
       <r>   11.0335   -0.0000 </r>
       <r>   11.3022   -0.0000 </r>
       <r>   11.3689   -0.0000 </r>
       <r>   11.5030   -0.0000 </r>
      </set>
      <set comment="kpoint 104">
       <r>   -3.3367    1.0000 </r>
       <r>   -2.5556    1.0000 </r>
       <r>   -2.0978    1.0000 </r>
       <r>   -1.7684    1.0000 </r>
       <r>   -1.0889    1.0000 </r>
       <r>   -0.7662    1.0000 </r>
       <r>   -0.0330    1.0000 </r>
       <r>    0.6317    1.0000 </r>
       <r>    0.8732    1.0000 </r>
       <r>    1.1064    1.0000 </r>
       <r>    1.3972    1.0000 </r>
       <r>    1.5585    1.0000 </r>
       <r>    1.7970    1.0000 </r>
       <r>    1.9870    1.0000 </r>
       <r>    2.1241    1.0000 </r>
       <r>    2.3447    1.0000 </r>
       <r>    2.4702    1.0000 </r>
       <r>    2.7091    1.0000 </r>
       <r>    2.9676    1.0000 </r>
       <r>    3.2315    1.0000 </r>
       <r>    3.4949    1.0000 </r>
       <r>    3.8367    1.0000 </r>
       <r>    3.9993    1.0000 </r>
       <r>    4.4277    1.0000 </r>
       <r>    4.5644    1.0000 </r>
       <r>    4.8727    1.0000 </r>
       <r>    4.9843    1.0000 </r>
       <r>    5.2309    1.0000 </r>
       <r>    5.5734    1.0000 </r>
       <r>    5.6624    1.0000 </r>
       <r>    5.7246    1.0000 </r>
       <r>    5.9652    1.0000 </r>
       <r>    6.1147    1.0000 </r>
       <r>    6.3550    1.0000 </r>
       <r>    6.6045    1.0000 </r>
       <r>    6.6939    1.0000 </r>
       <r>    6.7853    1.0000 </r>
       <r>    6.9732    1.0000 </r>
       <r>    7.3425    1.0086 </r>
       <r>    7.6721    0.7620 </r>
       <r>    7.9261   -0.0180 </r>
       <r>    8.0180   -0.0317 </r>
       <r>    8.2939   -0.0003 </r>
       <r>    8.3435   -0.0001 </r>
       <r>    8.7343   -0.0000 </r>
       <r>    8.8482   -0.0000 </r>
       <r>    9.1416   -0.0000 </r>
       <r>    9.2310   -0.0000 </r>
       <r>    9.3386   -0.0000 </r>
       <r>    9.4336   -0.0000 </r>
       <r>    9.6885   -0.0000 </r>
       <r>    9.8294   -0.0000 </r>
       <r>   10.0315   -0.0000 </r>
       <r>   10.1188   -0.0000 </r>
       <r>   10.2080   -0.0000 </r>
       <r>   10.4013   -0.0000 </r>
       <r>   10.4555   -0.0000 </r>
       <r>   10.7029   -0.0000 </r>
       <r>   10.8590   -0.0000 </r>
       <r>   10.9187   -0.0000 </r>
       <r>   11.1483   -0.0000 </r>
       <r>   11.2105   -0.0000 </r>
       <r>   11.4609   -0.0000 </r>
       <r>   11.5749   -0.0000 </r>
      </set>
      <set comment="kpoint 105">
       <r>   -3.2965    1.0000 </r>
       <r>   -2.7067    1.0000 </r>
       <r>   -1.9623    1.0000 </r>
       <r>   -1.6695    1.0000 </r>
       <r>   -1.3229    1.0000 </r>
       <r>   -0.7110    1.0000 </r>
       <r>    0.1912    1.0000 </r>
       <r>    0.5744    1.0000 </r>
       <r>    0.7374    1.0000 </r>
       <r>    1.2285    1.0000 </r>
       <r>    1.4368    1.0000 </r>
       <r>    1.5507    1.0000 </r>
       <r>    1.7804    1.0000 </r>
       <r>    1.8508    1.0000 </r>
       <r>    2.1150    1.0000 </r>
       <r>    2.2626    1.0000 </r>
       <r>    2.5251    1.0000 </r>
       <r>    2.6426    1.0000 </r>
       <r>    2.9797    1.0000 </r>
       <r>    3.2421    1.0000 </r>
       <r>    3.4423    1.0000 </r>
       <r>    3.7311    1.0000 </r>
       <r>    4.0343    1.0000 </r>
       <r>    4.5686    1.0000 </r>
       <r>    4.6537    1.0000 </r>
       <r>    4.9778    1.0000 </r>
       <r>    5.1510    1.0000 </r>
       <r>    5.2504    1.0000 </r>
       <r>    5.4635    1.0000 </r>
       <r>    5.6015    1.0000 </r>
       <r>    5.6765    1.0000 </r>
       <r>    5.9598    1.0000 </r>
       <r>    6.1781    1.0000 </r>
       <r>    6.2857    1.0000 </r>
       <r>    6.4103    1.0000 </r>
       <r>    6.7539    1.0000 </r>
       <r>    6.9226    1.0000 </r>
       <r>    7.1437    1.0001 </r>
       <r>    7.4028    1.0196 </r>
       <r>    7.5695    0.9998 </r>
       <r>    7.7607    0.4036 </r>
       <r>    8.0374   -0.0277 </r>
       <r>    8.2971   -0.0003 </r>
       <r>    8.4283   -0.0000 </r>
       <r>    8.7409   -0.0000 </r>
       <r>    8.8331   -0.0000 </r>
       <r>    9.0333   -0.0000 </r>
       <r>    9.2197   -0.0000 </r>
       <r>    9.3442   -0.0000 </r>
       <r>    9.4901   -0.0000 </r>
       <r>    9.5847   -0.0000 </r>
       <r>    9.8397   -0.0000 </r>
       <r>    9.8772   -0.0000 </r>
       <r>   10.0917   -0.0000 </r>
       <r>   10.2443   -0.0000 </r>
       <r>   10.4461   -0.0000 </r>
       <r>   10.5544   -0.0000 </r>
       <r>   10.6363   -0.0000 </r>
       <r>   10.7304   -0.0000 </r>
       <r>   10.8660   -0.0000 </r>
       <r>   11.1197   -0.0000 </r>
       <r>   11.2031   -0.0000 </r>
       <r>   11.3737   -0.0000 </r>
       <r>   11.5215   -0.0000 </r>
      </set>
      <set comment="kpoint 106">
       <r>   -3.3933    1.0000 </r>
       <r>   -2.3969    1.0000 </r>
       <r>   -2.0449    1.0000 </r>
       <r>   -1.7062    1.0000 </r>
       <r>   -1.3469    1.0000 </r>
       <r>   -0.9630    1.0000 </r>
       <r>    0.1555    1.0000 </r>
       <r>    0.5164    1.0000 </r>
       <r>    1.0064    1.0000 </r>
       <r>    1.1306    1.0000 </r>
       <r>    1.3754    1.0000 </r>
       <r>    1.7159    1.0000 </r>
       <r>    1.7410    1.0000 </r>
       <r>    1.9324    1.0000 </r>
       <r>    2.1183    1.0000 </r>
       <r>    2.4784    1.0000 </r>
       <r>    2.6997    1.0000 </r>
       <r>    2.7922    1.0000 </r>
       <r>    2.9889    1.0000 </r>
       <r>    3.2362    1.0000 </r>
       <r>    3.3754    1.0000 </r>
       <r>    3.5190    1.0000 </r>
       <r>    3.8879    1.0000 </r>
       <r>    4.2783    1.0000 </r>
       <r>    4.5981    1.0000 </r>
       <r>    4.8357    1.0000 </r>
       <r>    5.0353    1.0000 </r>
       <r>    5.1082    1.0000 </r>
       <r>    5.4636    1.0000 </r>
       <r>    5.5383    1.0000 </r>
       <r>    5.9275    1.0000 </r>
       <r>    6.0550    1.0000 </r>
       <r>    6.1360    1.0000 </r>
       <r>    6.3643    1.0000 </r>
       <r>    6.5845    1.0000 </r>
       <r>    6.6342    1.0000 </r>
       <r>    7.0780    1.0000 </r>
       <r>    7.1766    1.0003 </r>
       <r>    7.2446    1.0013 </r>
       <r>    7.6051    0.9464 </r>
       <r>    7.9600   -0.0332 </r>
       <r>    8.0863   -0.0167 </r>
       <r>    8.2553   -0.0008 </r>
       <r>    8.4686   -0.0000 </r>
       <r>    8.6392   -0.0000 </r>
       <r>    8.9040   -0.0000 </r>
       <r>    9.0509   -0.0000 </r>
       <r>    9.1520   -0.0000 </r>
       <r>    9.3588   -0.0000 </r>
       <r>    9.4835   -0.0000 </r>
       <r>    9.7276   -0.0000 </r>
       <r>    9.7830   -0.0000 </r>
       <r>    9.9574   -0.0000 </r>
       <r>   10.1586   -0.0000 </r>
       <r>   10.2455   -0.0000 </r>
       <r>   10.3905   -0.0000 </r>
       <r>   10.5993   -0.0000 </r>
       <r>   10.6487   -0.0000 </r>
       <r>   10.7453   -0.0000 </r>
       <r>   10.8918   -0.0000 </r>
       <r>   11.1748   -0.0000 </r>
       <r>   11.2089   -0.0000 </r>
       <r>   11.4614   -0.0000 </r>
       <r>   11.5907   -0.0000 </r>
      </set>
      <set comment="kpoint 107">
       <r>   -3.3111    1.0000 </r>
       <r>   -2.6648    1.0000 </r>
       <r>   -2.0376    1.0000 </r>
       <r>   -1.6283    1.0000 </r>
       <r>   -1.2566    1.0000 </r>
       <r>   -0.7554    1.0000 </r>
       <r>    0.1648    1.0000 </r>
       <r>    0.4132    1.0000 </r>
       <r>    0.9843    1.0000 </r>
       <r>    1.1560    1.0000 </r>
       <r>    1.3260    1.0000 </r>
       <r>    1.4282    1.0000 </r>
       <r>    1.7371    1.0000 </r>
       <r>    2.0712    1.0000 </r>
       <r>    2.2166    1.0000 </r>
       <r>    2.3724    1.0000 </r>
       <r>    2.4711    1.0000 </r>
       <r>    2.7749    1.0000 </r>
       <r>    2.8752    1.0000 </r>
       <r>    3.0958    1.0000 </r>
       <r>    3.4714    1.0000 </r>
       <r>    3.9200    1.0000 </r>
       <r>    4.1433    1.0000 </r>
       <r>    4.4019    1.0000 </r>
       <r>    4.6820    1.0000 </r>
       <r>    4.8952    1.0000 </r>
       <r>    5.0083    1.0000 </r>
       <r>    5.1394    1.0000 </r>
       <r>    5.4044    1.0000 </r>
       <r>    5.5636    1.0000 </r>
       <r>    5.7790    1.0000 </r>
       <r>    5.9541    1.0000 </r>
       <r>    6.0476    1.0000 </r>
       <r>    6.3063    1.0000 </r>
       <r>    6.5374    1.0000 </r>
       <r>    6.7052    1.0000 </r>
       <r>    6.9313    1.0000 </r>
       <r>    7.1907    1.0004 </r>
       <r>    7.4425    1.0287 </r>
       <r>    7.6656    0.7846 </r>
       <r>    7.8005    0.2486 </r>
       <r>    8.0921   -0.0155 </r>
       <r>    8.1720   -0.0044 </r>
       <r>    8.4821   -0.0000 </r>
       <r>    8.6732   -0.0000 </r>
       <r>    8.8992   -0.0000 </r>
       <r>    9.0401   -0.0000 </r>
       <r>    9.1705   -0.0000 </r>
       <r>    9.2942   -0.0000 </r>
       <r>    9.4908   -0.0000 </r>
       <r>    9.7139   -0.0000 </r>
       <r>    9.8178   -0.0000 </r>
       <r>    9.9572   -0.0000 </r>
       <r>   10.0503   -0.0000 </r>
       <r>   10.2279   -0.0000 </r>
       <r>   10.4137   -0.0000 </r>
       <r>   10.5495   -0.0000 </r>
       <r>   10.7146   -0.0000 </r>
       <r>   10.8296   -0.0000 </r>
       <r>   10.9095   -0.0000 </r>
       <r>   11.0091   -0.0000 </r>
       <r>   11.3057   -0.0000 </r>
       <r>   11.3448   -0.0000 </r>
       <r>   11.5864   -0.0000 </r>
      </set>
      <set comment="kpoint 108">
       <r>   -3.4079    1.0000 </r>
       <r>   -2.2970    1.0000 </r>
       <r>   -2.0481    1.0000 </r>
       <r>   -1.7067    1.0000 </r>
       <r>   -1.5619    1.0000 </r>
       <r>   -0.8627    1.0000 </r>
       <r>    0.3557    1.0000 </r>
       <r>    0.4960    1.0000 </r>
       <r>    0.8656    1.0000 </r>
       <r>    1.0233    1.0000 </r>
       <r>    1.3623    1.0000 </r>
       <r>    1.6811    1.0000 </r>
       <r>    1.7871    1.0000 </r>
       <r>    2.0304    1.0000 </r>
       <r>    2.3054    1.0000 </r>
       <r>    2.4773    1.0000 </r>
       <r>    2.5541    1.0000 </r>
       <r>    2.6773    1.0000 </r>
       <r>    2.8971    1.0000 </r>
       <r>    3.2636    1.0000 </r>
       <r>    3.4869    1.0000 </r>
       <r>    3.7003    1.0000 </r>
       <r>    3.8569    1.0000 </r>
       <r>    4.3845    1.0000 </r>
       <r>    4.4727    1.0000 </r>
       <r>    4.6056    1.0000 </r>
       <r>    5.1447    1.0000 </r>
       <r>    5.2189    1.0000 </r>
       <r>    5.5060    1.0000 </r>
       <r>    5.6614    1.0000 </r>
       <r>    5.7262    1.0000 </r>
       <r>    5.8511    1.0000 </r>
       <r>    6.1162    1.0000 </r>
       <r>    6.2254    1.0000 </r>
       <r>    6.4989    1.0000 </r>
       <r>    6.8157    1.0000 </r>
       <r>    7.1952    1.0004 </r>
       <r>    7.2908    1.0035 </r>
       <r>    7.4651    1.0330 </r>
       <r>    7.5611    1.0084 </r>
       <r>    7.7652    0.3853 </r>
       <r>    7.8796    0.0370 </r>
       <r>    8.4735   -0.0000 </r>
       <r>    8.6283   -0.0000 </r>
       <r>    8.7227   -0.0000 </r>
       <r>    8.9294   -0.0000 </r>
       <r>    9.0355   -0.0000 </r>
       <r>    9.0851   -0.0000 </r>
       <r>    9.2071   -0.0000 </r>
       <r>    9.3630   -0.0000 </r>
       <r>    9.7304   -0.0000 </r>
       <r>    9.8804   -0.0000 </r>
       <r>    9.9776   -0.0000 </r>
       <r>   10.1686   -0.0000 </r>
       <r>   10.2283   -0.0000 </r>
       <r>   10.4055   -0.0000 </r>
       <r>   10.4878   -0.0000 </r>
       <r>   10.5505   -0.0000 </r>
       <r>   10.8403   -0.0000 </r>
       <r>   10.9989   -0.0000 </r>
       <r>   11.1508   -0.0000 </r>
       <r>   11.2225   -0.0000 </r>
       <r>   11.4193   -0.0000 </r>
       <r>   11.5283   -0.0000 </r>
      </set>
      <set comment="kpoint 109">
       <r>   -3.2668    1.0000 </r>
       <r>   -2.7695    1.0000 </r>
       <r>   -1.9190    1.0000 </r>
       <r>   -1.6771    1.0000 </r>
       <r>   -1.3428    1.0000 </r>
       <r>   -0.7282    1.0000 </r>
       <r>    0.3058    1.0000 </r>
       <r>    0.6079    1.0000 </r>
       <r>    0.8256    1.0000 </r>
       <r>    1.1172    1.0000 </r>
       <r>    1.3723    1.0000 </r>
       <r>    1.4510    1.0000 </r>
       <r>    1.6996    1.0000 </r>
       <r>    1.9669    1.0000 </r>
       <r>    2.0749    1.0000 </r>
       <r>    2.3753    1.0000 </r>
       <r>    2.4976    1.0000 </r>
       <r>    2.7505    1.0000 </r>
       <r>    2.8509    1.0000 </r>
       <r>    3.1175    1.0000 </r>
       <r>    3.3470    1.0000 </r>
       <r>    3.9521    1.0000 </r>
       <r>    4.2302    1.0000 </r>
       <r>    4.4403    1.0000 </r>
       <r>    4.5666    1.0000 </r>
       <r>    4.9365    1.0000 </r>
       <r>    5.1218    1.0000 </r>
       <r>    5.2994    1.0000 </r>
       <r>    5.4805    1.0000 </r>
       <r>    5.5523    1.0000 </r>
       <r>    5.6357    1.0000 </r>
       <r>    5.8708    1.0000 </r>
       <r>    6.2021    1.0000 </r>
       <r>    6.3850    1.0000 </r>
       <r>    6.6094    1.0000 </r>
       <r>    6.7496    1.0000 </r>
       <r>    6.8567    1.0000 </r>
       <r>    7.2606    1.0019 </r>
       <r>    7.3776    1.0144 </r>
       <r>    7.6464    0.8455 </r>
       <r>    7.8353    0.1366 </r>
       <r>    8.0536   -0.0240 </r>
       <r>    8.2852   -0.0004 </r>
       <r>    8.4491   -0.0000 </r>
       <r>    8.5742   -0.0000 </r>
       <r>    8.7245   -0.0000 </r>
       <r>    9.0533   -0.0000 </r>
       <r>    9.1453   -0.0000 </r>
       <r>    9.3376   -0.0000 </r>
       <r>    9.4674   -0.0000 </r>
       <r>    9.6361   -0.0000 </r>
       <r>    9.8423   -0.0000 </r>
       <r>    9.9533   -0.0000 </r>
       <r>   10.0912   -0.0000 </r>
       <r>   10.1719   -0.0000 </r>
       <r>   10.3063   -0.0000 </r>
       <r>   10.4443   -0.0000 </r>
       <r>   10.5470   -0.0000 </r>
       <r>   10.7285   -0.0000 </r>
       <r>   10.8976   -0.0000 </r>
       <r>   11.1939   -0.0000 </r>
       <r>   11.3183   -0.0000 </r>
       <r>   11.4512   -0.0000 </r>
       <r>   11.5671   -0.0000 </r>
      </set>
      <set comment="kpoint 110">
       <r>   -3.3116    1.0000 </r>
       <r>   -2.6508    1.0000 </r>
       <r>   -2.0121    1.0000 </r>
       <r>   -1.7701    1.0000 </r>
       <r>   -1.1037    1.0000 </r>
       <r>   -0.7871    1.0000 </r>
       <r>    0.0539    1.0000 </r>
       <r>    0.6352    1.0000 </r>
       <r>    0.8986    1.0000 </r>
       <r>    1.0447    1.0000 </r>
       <r>    1.2910    1.0000 </r>
       <r>    1.5555    1.0000 </r>
       <r>    1.7940    1.0000 </r>
       <r>    2.0019    1.0000 </r>
       <r>    2.1495    1.0000 </r>
       <r>    2.4404    1.0000 </r>
       <r>    2.5403    1.0000 </r>
       <r>    2.6853    1.0000 </r>
       <r>    2.8638    1.0000 </r>
       <r>    3.0979    1.0000 </r>
       <r>    3.5352    1.0000 </r>
       <r>    3.8990    1.0000 </r>
       <r>    4.0526    1.0000 </r>
       <r>    4.3388    1.0000 </r>
       <r>    4.6883    1.0000 </r>
       <r>    4.9012    1.0000 </r>
       <r>    4.9610    1.0000 </r>
       <r>    5.1731    1.0000 </r>
       <r>    5.5139    1.0000 </r>
       <r>    5.6564    1.0000 </r>
       <r>    5.7678    1.0000 </r>
       <r>    5.8938    1.0000 </r>
       <r>    6.1051    1.0000 </r>
       <r>    6.4160    1.0000 </r>
       <r>    6.5236    1.0000 </r>
       <r>    6.7679    1.0000 </r>
       <r>    6.9012    1.0000 </r>
       <r>    7.0477    1.0000 </r>
       <r>    7.3197    1.0059 </r>
       <r>    7.7184    0.5815 </r>
       <r>    7.8445    0.1121 </r>
       <r>    8.0083   -0.0334 </r>
       <r>    8.2507   -0.0009 </r>
       <r>    8.3897   -0.0000 </r>
       <r>    8.6849   -0.0000 </r>
       <r>    8.8845   -0.0000 </r>
       <r>    9.0332   -0.0000 </r>
       <r>    9.2398   -0.0000 </r>
       <r>    9.4328   -0.0000 </r>
       <r>    9.5151   -0.0000 </r>
       <r>    9.6525   -0.0000 </r>
       <r>    9.7779   -0.0000 </r>
       <r>    9.8939   -0.0000 </r>
       <r>   10.0969   -0.0000 </r>
       <r>   10.2394   -0.0000 </r>
       <r>   10.3813   -0.0000 </r>
       <r>   10.4760   -0.0000 </r>
       <r>   10.6895   -0.0000 </r>
       <r>   10.8487   -0.0000 </r>
       <r>   10.9160   -0.0000 </r>
       <r>   11.0776   -0.0000 </r>
       <r>   11.2526   -0.0000 </r>
       <r>   11.4693   -0.0000 </r>
       <r>   11.5584   -0.0000 </r>
      </set>
      <set comment="kpoint 111">
       <r>   -3.2663    1.0000 </r>
       <r>   -2.7817    1.0000 </r>
       <r>   -1.8372    1.0000 </r>
       <r>   -1.7369    1.0000 </r>
       <r>   -1.3574    1.0000 </r>
       <r>   -0.7027    1.0000 </r>
       <r>    0.2930    1.0000 </r>
       <r>    0.5370    1.0000 </r>
       <r>    0.8355    1.0000 </r>
       <r>    1.0877    1.0000 </r>
       <r>    1.3799    1.0000 </r>
       <r>    1.5077    1.0000 </r>
       <r>    1.7033    1.0000 </r>
       <r>    1.9805    1.0000 </r>
       <r>    2.0645    1.0000 </r>
       <r>    2.3639    1.0000 </r>
       <r>    2.4982    1.0000 </r>
       <r>    2.7758    1.0000 </r>
       <r>    3.0276    1.0000 </r>
       <r>    3.0771    1.0000 </r>
       <r>    3.2882    1.0000 </r>
       <r>    3.9104    1.0000 </r>
       <r>    4.0766    1.0000 </r>
       <r>    4.4482    1.0000 </r>
       <r>    4.6765    1.0000 </r>
       <r>    4.9478    1.0000 </r>
       <r>    5.1364    1.0000 </r>
       <r>    5.2359    1.0000 </r>
       <r>    5.3650    1.0000 </r>
       <r>    5.5229    1.0000 </r>
       <r>    5.8194    1.0000 </r>
       <r>    5.9839    1.0000 </r>
       <r>    6.1793    1.0000 </r>
       <r>    6.3594    1.0000 </r>
       <r>    6.5535    1.0000 </r>
       <r>    6.7044    1.0000 </r>
       <r>    6.9794    1.0000 </r>
       <r>    7.1759    1.0003 </r>
       <r>    7.4251    1.0248 </r>
       <r>    7.6400    0.8640 </r>
       <r>    7.8145    0.2003 </r>
       <r>    7.9201   -0.0134 </r>
       <r>    8.1955   -0.0028 </r>
       <r>    8.4721   -0.0000 </r>
       <r>    8.6723   -0.0000 </r>
       <r>    8.8079   -0.0000 </r>
       <r>    9.0691   -0.0000 </r>
       <r>    9.1188   -0.0000 </r>
       <r>    9.2631   -0.0000 </r>
       <r>    9.4002   -0.0000 </r>
       <r>    9.7617   -0.0000 </r>
       <r>    9.8304   -0.0000 </r>
       <r>    9.9566   -0.0000 </r>
       <r>   10.0258   -0.0000 </r>
       <r>   10.2991   -0.0000 </r>
       <r>   10.3603   -0.0000 </r>
       <r>   10.4176   -0.0000 </r>
       <r>   10.5397   -0.0000 </r>
       <r>   10.8019   -0.0000 </r>
       <r>   10.9629   -0.0000 </r>
       <r>   11.1231   -0.0000 </r>
       <r>   11.1582   -0.0000 </r>
       <r>   11.3322   -0.0000 </r>
       <r>   11.5201   -0.0000 </r>
      </set>
      <set comment="kpoint 112">
       <r>   -3.4068    1.0000 </r>
       <r>   -2.3589    1.0000 </r>
       <r>   -1.9496    1.0000 </r>
       <r>   -1.6918    1.0000 </r>
       <r>   -1.6038    1.0000 </r>
       <r>   -0.8536    1.0000 </r>
       <r>    0.3615    1.0000 </r>
       <r>    0.4247    1.0000 </r>
       <r>    0.8421    1.0000 </r>
       <r>    0.9961    1.0000 </r>
       <r>    1.4804    1.0000 </r>
       <r>    1.5681    1.0000 </r>
       <r>    1.8843    1.0000 </r>
       <r>    2.0788    1.0000 </r>
       <r>    2.2463    1.0000 </r>
       <r>    2.4622    1.0000 </r>
       <r>    2.5546    1.0000 </r>
       <r>    2.7594    1.0000 </r>
       <r>    2.9029    1.0000 </r>
       <r>    3.2329    1.0000 </r>
       <r>    3.4578    1.0000 </r>
       <r>    3.7178    1.0000 </r>
       <r>    3.8189    1.0000 </r>
       <r>    4.3515    1.0000 </r>
       <r>    4.4988    1.0000 </r>
       <r>    4.6805    1.0000 </r>
       <r>    5.1178    1.0000 </r>
       <r>    5.2456    1.0000 </r>
       <r>    5.5277    1.0000 </r>
       <r>    5.5711    1.0000 </r>
       <r>    5.7421    1.0000 </r>
       <r>    5.8862    1.0000 </r>
       <r>    6.1670    1.0000 </r>
       <r>    6.2277    1.0000 </r>
       <r>    6.4480    1.0000 </r>
       <r>    6.7823    1.0000 </r>
       <r>    7.1133    1.0000 </r>
       <r>    7.2504    1.0015 </r>
       <r>    7.4447    1.0292 </r>
       <r>    7.5343    1.0268 </r>
       <r>    7.8304    0.1508 </r>
       <r>    7.9661   -0.0343 </r>
       <r>    8.3699   -0.0000 </r>
       <r>    8.6438   -0.0000 </r>
       <r>    8.7304   -0.0000 </r>
       <r>    8.8528   -0.0000 </r>
       <r>    9.0263   -0.0000 </r>
       <r>    9.0838   -0.0000 </r>
       <r>    9.2404   -0.0000 </r>
       <r>    9.4343   -0.0000 </r>
       <r>    9.7198   -0.0000 </r>
       <r>    9.9564   -0.0000 </r>
       <r>    9.9963   -0.0000 </r>
       <r>   10.1493   -0.0000 </r>
       <r>   10.3587   -0.0000 </r>
       <r>   10.4324   -0.0000 </r>
       <r>   10.5350   -0.0000 </r>
       <r>   10.6366   -0.0000 </r>
       <r>   10.7745   -0.0000 </r>
       <r>   10.9759   -0.0000 </r>
       <r>   11.0081   -0.0000 </r>
       <r>   11.1511   -0.0000 </r>
       <r>   11.4078   -0.0000 </r>
       <r>   11.4769   -0.0000 </r>
      </set>
      <set comment="kpoint 113">
       <r>   -3.4852    1.0000 </r>
       <r>   -2.6951    1.0000 </r>
       <r>   -1.5556    1.0000 </r>
       <r>   -1.2655    1.0000 </r>
       <r>   -0.9106    1.0000 </r>
       <r>   -0.6738    1.0000 </r>
       <r>   -0.4615    1.0000 </r>
       <r>   -0.1122    1.0000 </r>
       <r>    0.3918    1.0000 </r>
       <r>    0.5962    1.0000 </r>
       <r>    1.1371    1.0000 </r>
       <r>    1.4936    1.0000 </r>
       <r>    1.6983    1.0000 </r>
       <r>    1.9988    1.0000 </r>
       <r>    2.1909    1.0000 </r>
       <r>    2.4361    1.0000 </r>
       <r>    2.5735    1.0000 </r>
       <r>    3.0172    1.0000 </r>
       <r>    3.4892    1.0000 </r>
       <r>    3.8181    1.0000 </r>
       <r>    3.9384    1.0000 </r>
       <r>    4.2542    1.0000 </r>
       <r>    4.4329    1.0000 </r>
       <r>    4.5782    1.0000 </r>
       <r>    4.7524    1.0000 </r>
       <r>    4.9733    1.0000 </r>
       <r>    5.0835    1.0000 </r>
       <r>    5.1270    1.0000 </r>
       <r>    5.3036    1.0000 </r>
       <r>    5.5934    1.0000 </r>
       <r>    5.6238    1.0000 </r>
       <r>    5.7565    1.0000 </r>
       <r>    5.9361    1.0000 </r>
       <r>    6.0760    1.0000 </r>
       <r>    6.6279    1.0000 </r>
       <r>    6.8341    1.0000 </r>
       <r>    6.9961    1.0000 </r>
       <r>    7.1983    1.0005 </r>
       <r>    7.3003    1.0042 </r>
       <r>    7.4493    1.0301 </r>
       <r>    7.4823    1.0351 </r>
       <r>    7.6265    0.8994 </r>
       <r>    8.0008   -0.0343 </r>
       <r>    8.4151   -0.0000 </r>
       <r>    8.5268   -0.0000 </r>
       <r>    8.8592   -0.0000 </r>
       <r>    9.1093   -0.0000 </r>
       <r>    9.2332   -0.0000 </r>
       <r>    9.3834   -0.0000 </r>
       <r>    9.4477   -0.0000 </r>
       <r>    9.5687   -0.0000 </r>
       <r>    9.6894   -0.0000 </r>
       <r>    9.7605   -0.0000 </r>
       <r>    9.8852   -0.0000 </r>
       <r>   10.0337   -0.0000 </r>
       <r>   10.1537   -0.0000 </r>
       <r>   10.3798   -0.0000 </r>
       <r>   10.4348   -0.0000 </r>
       <r>   10.5044   -0.0000 </r>
       <r>   10.6983   -0.0000 </r>
       <r>   10.8368   -0.0000 </r>
       <r>   11.0444   -0.0000 </r>
       <r>   11.2027   -0.0000 </r>
       <r>   11.4412   -0.0000 </r>
      </set>
      <set comment="kpoint 114">
       <r>   -3.4845    1.0000 </r>
       <r>   -2.6341    1.0000 </r>
       <r>   -1.8201    1.0000 </r>
       <r>   -1.2215    1.0000 </r>
       <r>   -0.8480    1.0000 </r>
       <r>   -0.5733    1.0000 </r>
       <r>   -0.4313    1.0000 </r>
       <r>    0.0495    1.0000 </r>
       <r>    0.2183    1.0000 </r>
       <r>    0.8168    1.0000 </r>
       <r>    1.0765    1.0000 </r>
       <r>    1.2854    1.0000 </r>
       <r>    1.8026    1.0000 </r>
       <r>    1.9122    1.0000 </r>
       <r>    2.1796    1.0000 </r>
       <r>    2.4431    1.0000 </r>
       <r>    2.5435    1.0000 </r>
       <r>    3.0407    1.0000 </r>
       <r>    3.4043    1.0000 </r>
       <r>    3.7940    1.0000 </r>
       <r>    3.9967    1.0000 </r>
       <r>    4.2269    1.0000 </r>
       <r>    4.3182    1.0000 </r>
       <r>    4.4296    1.0000 </r>
       <r>    4.6832    1.0000 </r>
       <r>    5.1060    1.0000 </r>
       <r>    5.1402    1.0000 </r>
       <r>    5.3173    1.0000 </r>
       <r>    5.3839    1.0000 </r>
       <r>    5.4861    1.0000 </r>
       <r>    5.5949    1.0000 </r>
       <r>    5.9355    1.0000 </r>
       <r>    6.0268    1.0000 </r>
       <r>    6.1594    1.0000 </r>
       <r>    6.4797    1.0000 </r>
       <r>    6.7640    1.0000 </r>
       <r>    7.0100    1.0000 </r>
       <r>    7.2013    1.0005 </r>
       <r>    7.3119    1.0051 </r>
       <r>    7.4589    1.0320 </r>
       <r>    7.5484    1.0187 </r>
       <r>    7.7307    0.5300 </r>
       <r>    8.0742   -0.0193 </r>
       <r>    8.3592   -0.0001 </r>
       <r>    8.5773   -0.0000 </r>
       <r>    8.7898   -0.0000 </r>
       <r>    8.9955   -0.0000 </r>
       <r>    9.0848   -0.0000 </r>
       <r>    9.2647   -0.0000 </r>
       <r>    9.3922   -0.0000 </r>
       <r>    9.5854   -0.0000 </r>
       <r>    9.6848   -0.0000 </r>
       <r>    9.8584   -0.0000 </r>
       <r>    9.9342   -0.0000 </r>
       <r>   10.1006   -0.0000 </r>
       <r>   10.2066   -0.0000 </r>
       <r>   10.3944   -0.0000 </r>
       <r>   10.4611   -0.0000 </r>
       <r>   10.5582   -0.0000 </r>
       <r>   10.6908   -0.0000 </r>
       <r>   10.7941   -0.0000 </r>
       <r>   10.9726   -0.0000 </r>
       <r>   11.0961   -0.0000 </r>
       <r>   11.2766   -0.0000 </r>
      </set>
      <set comment="kpoint 115">
       <r>   -3.5481    1.0000 </r>
       <r>   -2.4882    1.0000 </r>
       <r>   -1.6405    1.0000 </r>
       <r>   -1.3390    1.0000 </r>
       <r>   -0.9894    1.0000 </r>
       <r>   -0.6211    1.0000 </r>
       <r>   -0.4935    1.0000 </r>
       <r>   -0.1673    1.0000 </r>
       <r>    0.5024    1.0000 </r>
       <r>    0.6561    1.0000 </r>
       <r>    0.9284    1.0000 </r>
       <r>    1.4091    1.0000 </r>
       <r>    1.7532    1.0000 </r>
       <r>    1.9048    1.0000 </r>
       <r>    2.3118    1.0000 </r>
       <r>    2.6097    1.0000 </r>
       <r>    2.8418    1.0000 </r>
       <r>    3.0258    1.0000 </r>
       <r>    3.7426    1.0000 </r>
       <r>    3.7870    1.0000 </r>
       <r>    4.0819    1.0000 </r>
       <r>    4.1929    1.0000 </r>
       <r>    4.3365    1.0000 </r>
       <r>    4.5230    1.0000 </r>
       <r>    4.6082    1.0000 </r>
       <r>    4.7677    1.0000 </r>
       <r>    4.8042    1.0000 </r>
       <r>    5.0125    1.0000 </r>
       <r>    5.1593    1.0000 </r>
       <r>    5.5304    1.0000 </r>
       <r>    5.8084    1.0000 </r>
       <r>    5.9966    1.0000 </r>
       <r>    6.0634    1.0000 </r>
       <r>    6.1997    1.0000 </r>
       <r>    6.6003    1.0000 </r>
       <r>    6.7124    1.0000 </r>
       <r>    6.8553    1.0000 </r>
       <r>    7.0954    1.0000 </r>
       <r>    7.2764    1.0026 </r>
       <r>    7.4252    1.0248 </r>
       <r>    7.4943    1.0354 </r>
       <r>    7.7052    0.6359 </r>
       <r>    7.8916    0.0183 </r>
       <r>    8.4184   -0.0000 </r>
       <r>    8.5032   -0.0000 </r>
       <r>    8.8442   -0.0000 </r>
       <r>    8.9474   -0.0000 </r>
       <r>    9.1067   -0.0000 </r>
       <r>    9.2046   -0.0000 </r>
       <r>    9.3540   -0.0000 </r>
       <r>    9.6405   -0.0000 </r>
       <r>    9.7748   -0.0000 </r>
       <r>    9.9385   -0.0000 </r>
       <r>   10.0456   -0.0000 </r>
       <r>   10.0986   -0.0000 </r>
       <r>   10.2505   -0.0000 </r>
       <r>   10.4067   -0.0000 </r>
       <r>   10.6105   -0.0000 </r>
       <r>   10.6754   -0.0000 </r>
       <r>   10.7345   -0.0000 </r>
       <r>   10.8230   -0.0000 </r>
       <r>   11.1777   -0.0000 </r>
       <r>   11.2922   -0.0000 </r>
       <r>   11.4820   -0.0000 </r>
      </set>
      <set comment="kpoint 116">
       <r>   -3.5517    1.0000 </r>
       <r>   -2.3480    1.0000 </r>
       <r>   -1.8974    1.0000 </r>
       <r>   -1.4399    1.0000 </r>
       <r>   -0.9250    1.0000 </r>
       <r>   -0.6536    1.0000 </r>
       <r>   -0.2736    1.0000 </r>
       <r>   -0.0453    1.0000 </r>
       <r>    0.4697    1.0000 </r>
       <r>    0.5807    1.0000 </r>
       <r>    1.0861    1.0000 </r>
       <r>    1.4124    1.0000 </r>
       <r>    1.7062    1.0000 </r>
       <r>    2.0157    1.0000 </r>
       <r>    2.1622    1.0000 </r>
       <r>    2.4981    1.0000 </r>
       <r>    2.6990    1.0000 </r>
       <r>    3.1020    1.0000 </r>
       <r>    3.3828    1.0000 </r>
       <r>    3.9588    1.0000 </r>
       <r>    3.9904    1.0000 </r>
       <r>    4.1011    1.0000 </r>
       <r>    4.2204    1.0000 </r>
       <r>    4.5765    1.0000 </r>
       <r>    4.7385    1.0000 </r>
       <r>    4.8309    1.0000 </r>
       <r>    4.9702    1.0000 </r>
       <r>    5.1671    1.0000 </r>
       <r>    5.2892    1.0000 </r>
       <r>    5.3988    1.0000 </r>
       <r>    5.8961    1.0000 </r>
       <r>    6.0031    1.0000 </r>
       <r>    6.1028    1.0000 </r>
       <r>    6.1994    1.0000 </r>
       <r>    6.4826    1.0000 </r>
       <r>    6.7195    1.0000 </r>
       <r>    6.9476    1.0000 </r>
       <r>    6.9770    1.0000 </r>
       <r>    7.2448    1.0014 </r>
       <r>    7.3955    1.0181 </r>
       <r>    7.5542    1.0144 </r>
       <r>    7.8357    0.1357 </r>
       <r>    8.0554   -0.0236 </r>
       <r>    8.3835   -0.0000 </r>
       <r>    8.5608   -0.0000 </r>
       <r>    8.6696   -0.0000 </r>
       <r>    9.0750   -0.0000 </r>
       <r>    9.1998   -0.0000 </r>
       <r>    9.2901   -0.0000 </r>
       <r>    9.3548   -0.0000 </r>
       <r>    9.7157   -0.0000 </r>
       <r>    9.7722   -0.0000 </r>
       <r>    9.8725   -0.0000 </r>
       <r>   10.0431   -0.0000 </r>
       <r>   10.0994   -0.0000 </r>
       <r>   10.1601   -0.0000 </r>
       <r>   10.2685   -0.0000 </r>
       <r>   10.3721   -0.0000 </r>
       <r>   10.5438   -0.0000 </r>
       <r>   10.7401   -0.0000 </r>
       <r>   10.8332   -0.0000 </r>
       <r>   11.0757   -0.0000 </r>
       <r>   11.3061   -0.0000 </r>
       <r>   11.4087   -0.0000 </r>
      </set>
      <set comment="kpoint 117">
       <r>   -3.3246    1.0000 </r>
       <r>   -2.7653    1.0000 </r>
       <r>   -1.9509    1.0000 </r>
       <r>   -1.5241    1.0000 </r>
       <r>   -0.9743    1.0000 </r>
       <r>   -0.5848    1.0000 </r>
       <r>   -0.2556    1.0000 </r>
       <r>    0.1626    1.0000 </r>
       <r>    0.5853    1.0000 </r>
       <r>    0.8110    1.0000 </r>
       <r>    1.1875    1.0000 </r>
       <r>    1.7220    1.0000 </r>
       <r>    1.9451    1.0000 </r>
       <r>    2.1576    1.0000 </r>
       <r>    2.3447    1.0000 </r>
       <r>    2.5356    1.0000 </r>
       <r>    2.7898    1.0000 </r>
       <r>    2.9845    1.0000 </r>
       <r>    3.1674    1.0000 </r>
       <r>    3.4075    1.0000 </r>
       <r>    3.6871    1.0000 </r>
       <r>    3.7602    1.0000 </r>
       <r>    3.9477    1.0000 </r>
       <r>    4.0642    1.0000 </r>
       <r>    4.2851    1.0000 </r>
       <r>    4.5470    1.0000 </r>
       <r>    4.8390    1.0000 </r>
       <r>    4.9417    1.0000 </r>
       <r>    5.1301    1.0000 </r>
       <r>    5.5182    1.0000 </r>
       <r>    5.6770    1.0000 </r>
       <r>    6.1569    1.0000 </r>
       <r>    6.2579    1.0000 </r>
       <r>    6.4440    1.0000 </r>
       <r>    6.9438    1.0000 </r>
       <r>    7.0884    1.0000 </r>
       <r>    7.2681    1.0022 </r>
       <r>    7.3509    1.0098 </r>
       <r>    7.5892    0.9739 </r>
       <r>    7.7591    0.4104 </r>
       <r>    7.9264   -0.0181 </r>
       <r>    8.0893   -0.0161 </r>
       <r>    8.2878   -0.0004 </r>
       <r>    8.4246   -0.0000 </r>
       <r>    8.5692   -0.0000 </r>
       <r>    8.7243   -0.0000 </r>
       <r>    8.8884   -0.0000 </r>
       <r>    8.9554   -0.0000 </r>
       <r>    9.1122   -0.0000 </r>
       <r>    9.3303   -0.0000 </r>
       <r>    9.4308   -0.0000 </r>
       <r>    9.7176   -0.0000 </r>
       <r>    9.7965   -0.0000 </r>
       <r>    9.9086   -0.0000 </r>
       <r>   10.0106   -0.0000 </r>
       <r>   10.1367   -0.0000 </r>
       <r>   10.3178   -0.0000 </r>
       <r>   10.4577   -0.0000 </r>
       <r>   10.8358   -0.0000 </r>
       <r>   10.9803   -0.0000 </r>
       <r>   11.1930   -0.0000 </r>
       <r>   11.3379   -0.0000 </r>
       <r>   11.5873   -0.0000 </r>
       <r>   11.6090   -0.0000 </r>
      </set>
      <set comment="kpoint 118">
       <r>   -3.3345    1.0000 </r>
       <r>   -2.7242    1.0000 </r>
       <r>   -1.9939    1.0000 </r>
       <r>   -1.5634    1.0000 </r>
       <r>   -1.0651    1.0000 </r>
       <r>   -0.3115    1.0000 </r>
       <r>   -0.1829    1.0000 </r>
       <r>    0.2495    1.0000 </r>
       <r>    0.3122    1.0000 </r>
       <r>    0.7952    1.0000 </r>
       <r>    1.0809    1.0000 </r>
       <r>    1.6453    1.0000 </r>
       <r>    1.9385    1.0000 </r>
       <r>    2.1647    1.0000 </r>
       <r>    2.4713    1.0000 </r>
       <r>    2.7410    1.0000 </r>
       <r>    2.7749    1.0000 </r>
       <r>    2.9968    1.0000 </r>
       <r>    3.1000    1.0000 </r>
       <r>    3.3108    1.0000 </r>
       <r>    3.6479    1.0000 </r>
       <r>    3.7005    1.0000 </r>
       <r>    3.9422    1.0000 </r>
       <r>    4.0827    1.0000 </r>
       <r>    4.2751    1.0000 </r>
       <r>    4.5782    1.0000 </r>
       <r>    4.9865    1.0000 </r>
       <r>    5.0544    1.0000 </r>
       <r>    5.2116    1.0000 </r>
       <r>    5.5515    1.0000 </r>
       <r>    5.7317    1.0000 </r>
       <r>    5.8980    1.0000 </r>
       <r>    6.1886    1.0000 </r>
       <r>    6.6333    1.0000 </r>
       <r>    6.8280    1.0000 </r>
       <r>    6.9119    1.0000 </r>
       <r>    7.0721    1.0000 </r>
       <r>    7.3685    1.0127 </r>
       <r>    7.6300    0.8907 </r>
       <r>    7.7772    0.3367 </r>
       <r>    7.9995   -0.0345 </r>
       <r>    8.1037   -0.0133 </r>
       <r>    8.2603   -0.0007 </r>
       <r>    8.3334   -0.0001 </r>
       <r>    8.5064   -0.0000 </r>
       <r>    8.7789   -0.0000 </r>
       <r>    8.9103   -0.0000 </r>
       <r>    9.0561   -0.0000 </r>
       <r>    9.2242   -0.0000 </r>
       <r>    9.3396   -0.0000 </r>
       <r>    9.4917   -0.0000 </r>
       <r>    9.6926   -0.0000 </r>
       <r>    9.8602   -0.0000 </r>
       <r>    9.9332   -0.0000 </r>
       <r>   10.0616   -0.0000 </r>
       <r>   10.1628   -0.0000 </r>
       <r>   10.2960   -0.0000 </r>
       <r>   10.5217   -0.0000 </r>
       <r>   10.6420   -0.0000 </r>
       <r>   10.8470   -0.0000 </r>
       <r>   11.2295   -0.0000 </r>
       <r>   11.3156   -0.0000 </r>
       <r>   11.4762   -0.0000 </r>
       <r>   11.5449   -0.0000 </r>
      </set>
      <set comment="kpoint 119">
       <r>   -3.3407    1.0000 </r>
       <r>   -2.7280    1.0000 </r>
       <r>   -1.9989    1.0000 </r>
       <r>   -1.4505    1.0000 </r>
       <r>   -1.0824    1.0000 </r>
       <r>   -0.5316    1.0000 </r>
       <r>   -0.1875    1.0000 </r>
       <r>    0.2776    1.0000 </r>
       <r>    0.5599    1.0000 </r>
       <r>    0.6640    1.0000 </r>
       <r>    1.0886    1.0000 </r>
       <r>    1.6314    1.0000 </r>
       <r>    1.8051    1.0000 </r>
       <r>    2.2091    1.0000 </r>
       <r>    2.4130    1.0000 </r>
       <r>    2.7082    1.0000 </r>
       <r>    2.8919    1.0000 </r>
       <r>    2.9961    1.0000 </r>
       <r>    3.2167    1.0000 </r>
       <r>    3.3607    1.0000 </r>
       <r>    3.5607    1.0000 </r>
       <r>    3.8401    1.0000 </r>
       <r>    3.9575    1.0000 </r>
       <r>    4.1970    1.0000 </r>
       <r>    4.2587    1.0000 </r>
       <r>    4.6256    1.0000 </r>
       <r>    4.8788    1.0000 </r>
       <r>    5.0551    1.0000 </r>
       <r>    5.1649    1.0000 </r>
       <r>    5.3569    1.0000 </r>
       <r>    5.7025    1.0000 </r>
       <r>    5.9789    1.0000 </r>
       <r>    6.0853    1.0000 </r>
       <r>    6.6451    1.0000 </r>
       <r>    6.6817    1.0000 </r>
       <r>    6.9571    1.0000 </r>
       <r>    7.1680    1.0002 </r>
       <r>    7.2708    1.0023 </r>
       <r>    7.4559    1.0314 </r>
       <r>    7.8704    0.0537 </r>
       <r>    7.9037    0.0027 </r>
       <r>    8.0563   -0.0234 </r>
       <r>    8.2313   -0.0013 </r>
       <r>    8.5070   -0.0000 </r>
       <r>    8.7008   -0.0000 </r>
       <r>    8.8285   -0.0000 </r>
       <r>    8.9333   -0.0000 </r>
       <r>    9.1536   -0.0000 </r>
       <r>    9.2093   -0.0000 </r>
       <r>    9.3892   -0.0000 </r>
       <r>    9.5233   -0.0000 </r>
       <r>    9.5963   -0.0000 </r>
       <r>    9.7694   -0.0000 </r>
       <r>    9.9758   -0.0000 </r>
       <r>   10.0137   -0.0000 </r>
       <r>   10.2341   -0.0000 </r>
       <r>   10.3229   -0.0000 </r>
       <r>   10.6429   -0.0000 </r>
       <r>   10.7276   -0.0000 </r>
       <r>   10.8987   -0.0000 </r>
       <r>   11.1133   -0.0000 </r>
       <r>   11.3475   -0.0000 </r>
       <r>   11.4146   -0.0000 </r>
       <r>   11.6060   -0.0000 </r>
      </set>
      <set comment="kpoint 120">
       <r>   -3.3326    1.0000 </r>
       <r>   -2.6878    1.0000 </r>
       <r>   -2.1187    1.0000 </r>
       <r>   -1.4964    1.0000 </r>
       <r>   -1.0214    1.0000 </r>
       <r>   -0.3620    1.0000 </r>
       <r>   -0.1347    1.0000 </r>
       <r>    0.1223    1.0000 </r>
       <r>    0.4420    1.0000 </r>
       <r>    0.8078    1.0000 </r>
       <r>    1.2032    1.0000 </r>
       <r>    1.5622    1.0000 </r>
       <r>    1.8178    1.0000 </r>
       <r>    2.2274    1.0000 </r>
       <r>    2.4750    1.0000 </r>
       <r>    2.5757    1.0000 </r>
       <r>    2.8621    1.0000 </r>
       <r>    2.9986    1.0000 </r>
       <r>    3.0513    1.0000 </r>
       <r>    3.3451    1.0000 </r>
       <r>    3.5065    1.0000 </r>
       <r>    3.7779    1.0000 </r>
       <r>    3.9287    1.0000 </r>
       <r>    4.1635    1.0000 </r>
       <r>    4.2343    1.0000 </r>
       <r>    4.8413    1.0000 </r>
       <r>    4.8895    1.0000 </r>
       <r>    5.1446    1.0000 </r>
       <r>    5.2152    1.0000 </r>
       <r>    5.4880    1.0000 </r>
       <r>    5.6670    1.0000 </r>
       <r>    6.0014    1.0000 </r>
       <r>    6.1356    1.0000 </r>
       <r>    6.5475    1.0000 </r>
       <r>    6.6932    1.0000 </r>
       <r>    7.0411    1.0000 </r>
       <r>    7.2665    1.0021 </r>
       <r>    7.3461    1.0091 </r>
       <r>    7.4916    1.0355 </r>
       <r>    7.5997    0.9564 </r>
       <r>    7.8776    0.0405 </r>
       <r>    8.0007   -0.0344 </r>
       <r>    8.2703   -0.0005 </r>
       <r>    8.5395   -0.0000 </r>
       <r>    8.6831   -0.0000 </r>
       <r>    8.8041   -0.0000 </r>
       <r>    8.9616   -0.0000 </r>
       <r>    9.0934   -0.0000 </r>
       <r>    9.2286   -0.0000 </r>
       <r>    9.3667   -0.0000 </r>
       <r>    9.5321   -0.0000 </r>
       <r>    9.6464   -0.0000 </r>
       <r>    9.8779   -0.0000 </r>
       <r>   10.0003   -0.0000 </r>
       <r>   10.0675   -0.0000 </r>
       <r>   10.1762   -0.0000 </r>
       <r>   10.2708   -0.0000 </r>
       <r>   10.5454   -0.0000 </r>
       <r>   10.6475   -0.0000 </r>
       <r>   10.7148   -0.0000 </r>
       <r>   11.0618   -0.0000 </r>
       <r>   11.2813   -0.0000 </r>
       <r>   11.3976   -0.0000 </r>
       <r>   11.6434   -0.0000 </r>
      </set>
      <set comment="kpoint 121">
       <r>   -3.3262    1.0000 </r>
       <r>   -2.7333    1.0000 </r>
       <r>   -2.0211    1.0000 </r>
       <r>   -1.5424    1.0000 </r>
       <r>   -0.9551    1.0000 </r>
       <r>   -0.5438    1.0000 </r>
       <r>   -0.1744    1.0000 </r>
       <r>    0.1208    1.0000 </r>
       <r>    0.4943    1.0000 </r>
       <r>    0.9477    1.0000 </r>
       <r>    1.2044    1.0000 </r>
       <r>    1.6307    1.0000 </r>
       <r>    1.8608    1.0000 </r>
       <r>    2.1434    1.0000 </r>
       <r>    2.4428    1.0000 </r>
       <r>    2.6278    1.0000 </r>
       <r>    2.7189    1.0000 </r>
       <r>    3.0061    1.0000 </r>
       <r>    3.1902    1.0000 </r>
       <r>    3.4115    1.0000 </r>
       <r>    3.5082    1.0000 </r>
       <r>    3.7321    1.0000 </r>
       <r>    3.8115    1.0000 </r>
       <r>    4.1387    1.0000 </r>
       <r>    4.2530    1.0000 </r>
       <r>    4.6242    1.0000 </r>
       <r>    4.9352    1.0000 </r>
       <r>    5.0184    1.0000 </r>
       <r>    5.1623    1.0000 </r>
       <r>    5.4597    1.0000 </r>
       <r>    5.6796    1.0000 </r>
       <r>    6.0808    1.0000 </r>
       <r>    6.3339    1.0000 </r>
       <r>    6.6384    1.0000 </r>
       <r>    6.9089    1.0000 </r>
       <r>    7.0247    1.0000 </r>
       <r>    7.1859    1.0003 </r>
       <r>    7.3427    1.0086 </r>
       <r>    7.6124    0.9317 </r>
       <r>    7.7219    0.5669 </r>
       <r>    7.9432   -0.0277 </r>
       <r>    8.1273   -0.0094 </r>
       <r>    8.2798   -0.0004 </r>
       <r>    8.4032   -0.0000 </r>
       <r>    8.5695   -0.0000 </r>
       <r>    8.7391   -0.0000 </r>
       <r>    8.8515   -0.0000 </r>
       <r>    9.0105   -0.0000 </r>
       <r>    9.0828   -0.0000 </r>
       <r>    9.3608   -0.0000 </r>
       <r>    9.4899   -0.0000 </r>
       <r>    9.6620   -0.0000 </r>
       <r>    9.7893   -0.0000 </r>
       <r>    9.8408   -0.0000 </r>
       <r>   10.0952   -0.0000 </r>
       <r>   10.1390   -0.0000 </r>
       <r>   10.2699   -0.0000 </r>
       <r>   10.3875   -0.0000 </r>
       <r>   10.9016   -0.0000 </r>
       <r>   11.0243   -0.0000 </r>
       <r>   11.1315   -0.0000 </r>
       <r>   11.3289   -0.0000 </r>
       <r>   11.4623   -0.0000 </r>
       <r>   11.5538   -0.0000 </r>
      </set>
      <set comment="kpoint 122">
       <r>   -3.3446    1.0000 </r>
       <r>   -2.6543    1.0000 </r>
       <r>   -2.0219    1.0000 </r>
       <r>   -1.7513    1.0000 </r>
       <r>   -0.8459    1.0000 </r>
       <r>   -0.5148    1.0000 </r>
       <r>   -0.0188    1.0000 </r>
       <r>    0.2724    1.0000 </r>
       <r>    0.4527    1.0000 </r>
       <r>    0.6736    1.0000 </r>
       <r>    1.1098    1.0000 </r>
       <r>    1.6217    1.0000 </r>
       <r>    1.8089    1.0000 </r>
       <r>    2.2981    1.0000 </r>
       <r>    2.4253    1.0000 </r>
       <r>    2.5674    1.0000 </r>
       <r>    2.8117    1.0000 </r>
       <r>    2.9685    1.0000 </r>
       <r>    3.2144    1.0000 </r>
       <r>    3.3886    1.0000 </r>
       <r>    3.5300    1.0000 </r>
       <r>    3.6250    1.0000 </r>
       <r>    3.8579    1.0000 </r>
       <r>    4.2177    1.0000 </r>
       <r>    4.3251    1.0000 </r>
       <r>    4.7361    1.0000 </r>
       <r>    4.8165    1.0000 </r>
       <r>    4.9932    1.0000 </r>
       <r>    5.2909    1.0000 </r>
       <r>    5.5368    1.0000 </r>
       <r>    5.7528    1.0000 </r>
       <r>    6.0430    1.0000 </r>
       <r>    6.1191    1.0000 </r>
       <r>    6.5380    1.0000 </r>
       <r>    6.8622    1.0000 </r>
       <r>    6.9212    1.0000 </r>
       <r>    7.1000    1.0000 </r>
       <r>    7.3677    1.0126 </r>
       <r>    7.6079    0.9410 </r>
       <r>    7.7901    0.2869 </r>
       <r>    7.9118   -0.0059 </r>
       <r>    8.1682   -0.0047 </r>
       <r>    8.2610   -0.0007 </r>
       <r>    8.3525   -0.0001 </r>
       <r>    8.6303   -0.0000 </r>
       <r>    8.7125   -0.0000 </r>
       <r>    8.9919   -0.0000 </r>
       <r>    9.0092   -0.0000 </r>
       <r>    9.2005   -0.0000 </r>
       <r>    9.3812   -0.0000 </r>
       <r>    9.4710   -0.0000 </r>
       <r>    9.5617   -0.0000 </r>
       <r>    9.6739   -0.0000 </r>
       <r>    9.9671   -0.0000 </r>
       <r>   10.1463   -0.0000 </r>
       <r>   10.2486   -0.0000 </r>
       <r>   10.3767   -0.0000 </r>
       <r>   10.6381   -0.0000 </r>
       <r>   10.7386   -0.0000 </r>
       <r>   10.8287   -0.0000 </r>
       <r>   11.1383   -0.0000 </r>
       <r>   11.3589   -0.0000 </r>
       <r>   11.4716   -0.0000 </r>
       <r>   11.5028   -0.0000 </r>
      </set>
      <set comment="kpoint 123">
       <r>   -3.4282    1.0000 </r>
       <r>   -2.4714    1.0000 </r>
       <r>   -1.9628    1.0000 </r>
       <r>   -1.5250    1.0000 </r>
       <r>   -1.4510    1.0000 </r>
       <r>   -0.3291    1.0000 </r>
       <r>   -0.0568    1.0000 </r>
       <r>    0.1135    1.0000 </r>
       <r>    0.5281    1.0000 </r>
       <r>    0.6836    1.0000 </r>
       <r>    0.9656    1.0000 </r>
       <r>    1.8252    1.0000 </r>
       <r>    2.0106    1.0000 </r>
       <r>    2.2291    1.0000 </r>
       <r>    2.3188    1.0000 </r>
       <r>    2.7444    1.0000 </r>
       <r>    2.8569    1.0000 </r>
       <r>    2.9955    1.0000 </r>
       <r>    3.2776    1.0000 </r>
       <r>    3.4213    1.0000 </r>
       <r>    3.7246    1.0000 </r>
       <r>    3.8384    1.0000 </r>
       <r>    3.9201    1.0000 </r>
       <r>    4.0836    1.0000 </r>
       <r>    4.2756    1.0000 </r>
       <r>    4.4777    1.0000 </r>
       <r>    4.6641    1.0000 </r>
       <r>    4.8195    1.0000 </r>
       <r>    5.1010    1.0000 </r>
       <r>    5.6215    1.0000 </r>
       <r>    5.7408    1.0000 </r>
       <r>    5.9272    1.0000 </r>
       <r>    6.1105    1.0000 </r>
       <r>    6.5116    1.0000 </r>
       <r>    6.6698    1.0000 </r>
       <r>    6.7712    1.0000 </r>
       <r>    7.3532    1.0102 </r>
       <r>    7.5566    1.0124 </r>
       <r>    7.6526    0.8267 </r>
       <r>    7.7234    0.5608 </r>
       <r>    7.9233   -0.0159 </r>
       <r>    7.9797   -0.0354 </r>
       <r>    8.3138   -0.0002 </r>
       <r>    8.4364   -0.0000 </r>
       <r>    8.5264   -0.0000 </r>
       <r>    8.8069   -0.0000 </r>
       <r>    8.9373   -0.0000 </r>
       <r>    9.1006   -0.0000 </r>
       <r>    9.2736   -0.0000 </r>
       <r>    9.4480   -0.0000 </r>
       <r>    9.6046   -0.0000 </r>
       <r>    9.6726   -0.0000 </r>
       <r>    9.7247   -0.0000 </r>
       <r>    9.8327   -0.0000 </r>
       <r>   10.1528   -0.0000 </r>
       <r>   10.1794   -0.0000 </r>
       <r>   10.2849   -0.0000 </r>
       <r>   10.5416   -0.0000 </r>
       <r>   10.8654   -0.0000 </r>
       <r>   11.0313   -0.0000 </r>
       <r>   11.2427   -0.0000 </r>
       <r>   11.3285   -0.0000 </r>
       <r>   11.4093   -0.0000 </r>
       <r>   11.5742   -0.0000 </r>
      </set>
      <set comment="kpoint 124">
       <r>   -3.3805    1.0000 </r>
       <r>   -2.5577    1.0000 </r>
       <r>   -2.1705    1.0000 </r>
       <r>   -1.4809    1.0000 </r>
       <r>   -0.9967    1.0000 </r>
       <r>   -0.5348    1.0000 </r>
       <r>   -0.0800    1.0000 </r>
       <r>    0.1014    1.0000 </r>
       <r>    0.4597    1.0000 </r>
       <r>    0.7507    1.0000 </r>
       <r>    1.0623    1.0000 </r>
       <r>    1.6850    1.0000 </r>
       <r>    2.0888    1.0000 </r>
       <r>    2.1890    1.0000 </r>
       <r>    2.4653    1.0000 </r>
       <r>    2.5963    1.0000 </r>
       <r>    2.7087    1.0000 </r>
       <r>    2.9682    1.0000 </r>
       <r>    3.1626    1.0000 </r>
       <r>    3.3690    1.0000 </r>
       <r>    3.5970    1.0000 </r>
       <r>    3.7924    1.0000 </r>
       <r>    3.9729    1.0000 </r>
       <r>    4.2145    1.0000 </r>
       <r>    4.3485    1.0000 </r>
       <r>    4.6777    1.0000 </r>
       <r>    4.7973    1.0000 </r>
       <r>    5.0093    1.0000 </r>
       <r>    5.1909    1.0000 </r>
       <r>    5.6101    1.0000 </r>
       <r>    5.7349    1.0000 </r>
       <r>    5.8816    1.0000 </r>
       <r>    6.1778    1.0000 </r>
       <r>    6.2851    1.0000 </r>
       <r>    6.6010    1.0000 </r>
       <r>    6.8577    1.0000 </r>
       <r>    7.1243    1.0001 </r>
       <r>    7.4883    1.0354 </r>
       <r>    7.7004    0.6552 </r>
       <r>    7.7950    0.2684 </r>
       <r>    7.9399   -0.0262 </r>
       <r>    8.0524   -0.0243 </r>
       <r>    8.3573   -0.0001 </r>
       <r>    8.4665   -0.0000 </r>
       <r>    8.5119   -0.0000 </r>
       <r>    8.7194   -0.0000 </r>
       <r>    8.8773   -0.0000 </r>
       <r>    8.9344   -0.0000 </r>
       <r>    9.2766   -0.0000 </r>
       <r>    9.4594   -0.0000 </r>
       <r>    9.6062   -0.0000 </r>
       <r>    9.7088   -0.0000 </r>
       <r>    9.8745   -0.0000 </r>
       <r>    9.9312   -0.0000 </r>
       <r>   10.0842   -0.0000 </r>
       <r>   10.2246   -0.0000 </r>
       <r>   10.3709   -0.0000 </r>
       <r>   10.4663   -0.0000 </r>
       <r>   10.7235   -0.0000 </r>
       <r>   10.8916   -0.0000 </r>
       <r>   11.1322   -0.0000 </r>
       <r>   11.3224   -0.0000 </r>
       <r>   11.5569   -0.0000 </r>
       <r>   11.6193   -0.0000 </r>
      </set>
      <set comment="kpoint 125">
       <r>   -3.3883    1.0000 </r>
       <r>   -2.5700    1.0000 </r>
       <r>   -2.1259    1.0000 </r>
       <r>   -1.4156    1.0000 </r>
       <r>   -1.0709    1.0000 </r>
       <r>   -0.5984    1.0000 </r>
       <r>   -0.2189    1.0000 </r>
       <r>    0.3623    1.0000 </r>
       <r>    0.5066    1.0000 </r>
       <r>    0.7043    1.0000 </r>
       <r>    0.9500    1.0000 </r>
       <r>    1.6567    1.0000 </r>
       <r>    1.9885    1.0000 </r>
       <r>    2.1232    1.0000 </r>
       <r>    2.5630    1.0000 </r>
       <r>    2.6738    1.0000 </r>
       <r>    2.8123    1.0000 </r>
       <r>    3.0067    1.0000 </r>
       <r>    3.2127    1.0000 </r>
       <r>    3.3470    1.0000 </r>
       <r>    3.6671    1.0000 </r>
       <r>    3.8272    1.0000 </r>
       <r>    4.0059    1.0000 </r>
       <r>    4.1755    1.0000 </r>
       <r>    4.3202    1.0000 </r>
       <r>    4.6654    1.0000 </r>
       <r>    4.7896    1.0000 </r>
       <r>    4.8960    1.0000 </r>
       <r>    5.1498    1.0000 </r>
       <r>    5.4701    1.0000 </r>
       <r>    5.7340    1.0000 </r>
       <r>    5.8683    1.0000 </r>
       <r>    6.0600    1.0000 </r>
       <r>    6.3755    1.0000 </r>
       <r>    6.6352    1.0000 </r>
       <r>    6.8519    1.0000 </r>
       <r>    7.3901    1.0169 </r>
       <r>    7.4931    1.0355 </r>
       <r>    7.6154    0.9253 </r>
       <r>    7.8670    0.0605 </r>
       <r>    7.9057    0.0005 </r>
       <r>    8.0490   -0.0251 </r>
       <r>    8.1058   -0.0129 </r>
       <r>    8.3850   -0.0000 </r>
       <r>    8.5335   -0.0000 </r>
       <r>    8.8006   -0.0000 </r>
       <r>    8.9084   -0.0000 </r>
       <r>    9.0700   -0.0000 </r>
       <r>    9.1770   -0.0000 </r>
       <r>    9.4553   -0.0000 </r>
       <r>    9.5314   -0.0000 </r>
       <r>    9.7332   -0.0000 </r>
       <r>    9.8468   -0.0000 </r>
       <r>    9.9317   -0.0000 </r>
       <r>   10.1069   -0.0000 </r>
       <r>   10.2879   -0.0000 </r>
       <r>   10.4831   -0.0000 </r>
       <r>   10.5761   -0.0000 </r>
       <r>   10.7064   -0.0000 </r>
       <r>   10.9029   -0.0000 </r>
       <r>   11.2696   -0.0000 </r>
       <r>   11.3911   -0.0000 </r>
       <r>   11.4433   -0.0000 </r>
       <r>   11.6250   -0.0000 </r>
      </set>
      <set comment="kpoint 126">
       <r>   -3.3872    1.0000 </r>
       <r>   -2.4667    1.0000 </r>
       <r>   -2.2371    1.0000 </r>
       <r>   -1.5712    1.0000 </r>
       <r>   -1.0488    1.0000 </r>
       <r>   -0.3860    1.0000 </r>
       <r>   -0.0875    1.0000 </r>
       <r>    0.1565    1.0000 </r>
       <r>    0.4691    1.0000 </r>
       <r>    0.7254    1.0000 </r>
       <r>    1.0858    1.0000 </r>
       <r>    1.6972    1.0000 </r>
       <r>    1.9760    1.0000 </r>
       <r>    2.2046    1.0000 </r>
       <r>    2.4632    1.0000 </r>
       <r>    2.6272    1.0000 </r>
       <r>    2.7270    1.0000 </r>
       <r>    2.9965    1.0000 </r>
       <r>    3.2070    1.0000 </r>
       <r>    3.3058    1.0000 </r>
       <r>    3.5285    1.0000 </r>
       <r>    3.7345    1.0000 </r>
       <r>    3.8779    1.0000 </r>
       <r>    4.1598    1.0000 </r>
       <r>    4.3558    1.0000 </r>
       <r>    4.6772    1.0000 </r>
       <r>    4.7891    1.0000 </r>
       <r>    5.0029    1.0000 </r>
       <r>    5.3643    1.0000 </r>
       <r>    5.5235    1.0000 </r>
       <r>    5.6757    1.0000 </r>
       <r>    5.9866    1.0000 </r>
       <r>    6.1362    1.0000 </r>
       <r>    6.5128    1.0000 </r>
       <r>    6.6749    1.0000 </r>
       <r>    6.8599    1.0000 </r>
       <r>    7.2879    1.0033 </r>
       <r>    7.4430    1.0288 </r>
       <r>    7.6713    0.7647 </r>
       <r>    7.8944    0.0144 </r>
       <r>    7.9742   -0.0352 </r>
       <r>    8.0255   -0.0303 </r>
       <r>    8.2127   -0.0020 </r>
       <r>    8.4368   -0.0000 </r>
       <r>    8.5467   -0.0000 </r>
       <r>    8.7260   -0.0000 </r>
       <r>    8.7710   -0.0000 </r>
       <r>    8.9762   -0.0000 </r>
       <r>    9.1670   -0.0000 </r>
       <r>    9.3129   -0.0000 </r>
       <r>    9.6386   -0.0000 </r>
       <r>    9.7949   -0.0000 </r>
       <r>    9.8224   -0.0000 </r>
       <r>    9.9285   -0.0000 </r>
       <r>   10.0190   -0.0000 </r>
       <r>   10.2659   -0.0000 </r>
       <r>   10.3331   -0.0000 </r>
       <r>   10.5119   -0.0000 </r>
       <r>   10.6474   -0.0000 </r>
       <r>   10.8090   -0.0000 </r>
       <r>   11.2054   -0.0000 </r>
       <r>   11.3293   -0.0000 </r>
       <r>   11.4757   -0.0000 </r>
       <r>   11.6125   -0.0000 </r>
      </set>
      <set comment="kpoint 127">
       <r>   -3.4312    1.0000 </r>
       <r>   -2.3615    1.0000 </r>
       <r>   -2.1226    1.0000 </r>
       <r>   -1.5569    1.0000 </r>
       <r>   -1.4065    1.0000 </r>
       <r>   -0.3019    1.0000 </r>
       <r>   -0.0893    1.0000 </r>
       <r>    0.2283    1.0000 </r>
       <r>    0.5271    1.0000 </r>
       <r>    0.6200    1.0000 </r>
       <r>    1.1031    1.0000 </r>
       <r>    1.7097    1.0000 </r>
       <r>    2.0443    1.0000 </r>
       <r>    2.1588    1.0000 </r>
       <r>    2.3611    1.0000 </r>
       <r>    2.6584    1.0000 </r>
       <r>    2.8955    1.0000 </r>
       <r>    3.0306    1.0000 </r>
       <r>    3.1845    1.0000 </r>
       <r>    3.3627    1.0000 </r>
       <r>    3.6976    1.0000 </r>
       <r>    3.8521    1.0000 </r>
       <r>    3.9486    1.0000 </r>
       <r>    4.1464    1.0000 </r>
       <r>    4.2447    1.0000 </r>
       <r>    4.4360    1.0000 </r>
       <r>    4.6386    1.0000 </r>
       <r>    4.8742    1.0000 </r>
       <r>    5.1368    1.0000 </r>
       <r>    5.6341    1.0000 </r>
       <r>    5.7155    1.0000 </r>
       <r>    6.0307    1.0000 </r>
       <r>    6.0916    1.0000 </r>
       <r>    6.4795    1.0000 </r>
       <r>    6.7593    1.0000 </r>
       <r>    6.9316    1.0000 </r>
       <r>    7.3060    1.0046 </r>
       <r>    7.4854    1.0353 </r>
       <r>    7.5841    0.9815 </r>
       <r>    7.6745    0.7535 </r>
       <r>    7.8713    0.0520 </r>
       <r>    8.0394   -0.0273 </r>
       <r>    8.2600   -0.0007 </r>
       <r>    8.5241   -0.0000 </r>
       <r>    8.7172   -0.0000 </r>
       <r>    8.8238   -0.0000 </r>
       <r>    8.9427   -0.0000 </r>
       <r>    9.1056   -0.0000 </r>
       <r>    9.2610   -0.0000 </r>
       <r>    9.3488   -0.0000 </r>
       <r>    9.5404   -0.0000 </r>
       <r>    9.6340   -0.0000 </r>
       <r>    9.7469   -0.0000 </r>
       <r>    9.9596   -0.0000 </r>
       <r>   10.0104   -0.0000 </r>
       <r>   10.1750   -0.0000 </r>
       <r>   10.3032   -0.0000 </r>
       <r>   10.4726   -0.0000 </r>
       <r>   10.8516   -0.0000 </r>
       <r>   10.9530   -0.0000 </r>
       <r>   11.1538   -0.0000 </r>
       <r>   11.3045   -0.0000 </r>
       <r>   11.3875   -0.0000 </r>
       <r>   11.6285   -0.0000 </r>
      </set>
      <set comment="kpoint 128">
       <r>   -3.3937    1.0000 </r>
       <r>   -2.4093    1.0000 </r>
       <r>   -2.2302    1.0000 </r>
       <r>   -1.7392    1.0000 </r>
       <r>   -0.8170    1.0000 </r>
       <r>   -0.6118    1.0000 </r>
       <r>   -0.0076    1.0000 </r>
       <r>    0.2424    1.0000 </r>
       <r>    0.4839    1.0000 </r>
       <r>    0.7027    1.0000 </r>
       <r>    1.0955    1.0000 </r>
       <r>    1.6271    1.0000 </r>
       <r>    1.9207    1.0000 </r>
       <r>    2.2428    1.0000 </r>
       <r>    2.3979    1.0000 </r>
       <r>    2.6092    1.0000 </r>
       <r>    2.8111    1.0000 </r>
       <r>    2.9587    1.0000 </r>
       <r>    3.2427    1.0000 </r>
       <r>    3.3810    1.0000 </r>
       <r>    3.5235    1.0000 </r>
       <r>    3.6538    1.0000 </r>
       <r>    3.9368    1.0000 </r>
       <r>    4.2725    1.0000 </r>
       <r>    4.3509    1.0000 </r>
       <r>    4.5709    1.0000 </r>
       <r>    4.7166    1.0000 </r>
       <r>    5.0135    1.0000 </r>
       <r>    5.2547    1.0000 </r>
       <r>    5.6769    1.0000 </r>
       <r>    5.7907    1.0000 </r>
       <r>    5.9234    1.0000 </r>
       <r>    6.1524    1.0000 </r>
       <r>    6.2917    1.0000 </r>
       <r>    6.8218    1.0000 </r>
       <r>    6.9577    1.0000 </r>
       <r>    7.1611    1.0002 </r>
       <r>    7.3569    1.0107 </r>
       <r>    7.6458    0.8472 </r>
       <r>    7.9002    0.0069 </r>
       <r>    7.9600   -0.0331 </r>
       <r>    8.1354   -0.0083 </r>
       <r>    8.2598   -0.0007 </r>
       <r>    8.3754   -0.0000 </r>
       <r>    8.5524   -0.0000 </r>
       <r>    8.7301   -0.0000 </r>
       <r>    8.8241   -0.0000 </r>
       <r>    8.9979   -0.0000 </r>
       <r>    9.1691   -0.0000 </r>
       <r>    9.3390   -0.0000 </r>
       <r>    9.5297   -0.0000 </r>
       <r>    9.6923   -0.0000 </r>
       <r>    9.8061   -0.0000 </r>
       <r>    9.9564   -0.0000 </r>
       <r>   10.1494   -0.0000 </r>
       <r>   10.3504   -0.0000 </r>
       <r>   10.4412   -0.0000 </r>
       <r>   10.5391   -0.0000 </r>
       <r>   10.6704   -0.0000 </r>
       <r>   10.8493   -0.0000 </r>
       <r>   11.1355   -0.0000 </r>
       <r>   11.2957   -0.0000 </r>
       <r>   11.5109   -0.0000 </r>
       <r>   11.6374   -0.0000 </r>
      </set>
     </set>
    </set>
   </array>
  </eigenvalues>
  <separator name="orbital magnetization" >
   <v name="MAGDIPOLOUT">      0.00000000      0.00000000      0.00000000</v>
  </separator>
  <dos>
   <i name="efermi">      7.73777880 </i>
   <total>
    <array>
     <dimension dim="1">gridpoints</dimension>
     <dimension dim="2">spin</dimension>
     <field>energy</field>
     <field>total</field>
     <field>integrated</field>
     <set>
      <set comment="spin 1">
       <r>    -5.7584     0.0000     0.0000 </r>
       <r>    -5.6911     0.0000     0.0000 </r>
       <r>    -5.6238     0.0000     0.0000 </r>
       <r>    -5.5565     0.0000     0.0000 </r>
       <r>    -5.4891     0.0000     0.0000 </r>
       <r>    -5.4218    -0.0000    -0.0000 </r>
       <r>    -5.3545    -0.0000    -0.0000 </r>
       <r>    -5.2872    -0.0000    -0.0000 </r>
       <r>    -5.2198    -0.0000    -0.0000 </r>
       <r>    -5.1525    -0.0000    -0.0000 </r>
       <r>    -5.0852    -0.0000    -0.0000 </r>
       <r>    -5.0179    -0.0000    -0.0000 </r>
       <r>    -4.9505    -0.0000    -0.0000 </r>
       <r>    -4.8832    -0.0000    -0.0000 </r>
       <r>    -4.8159    -0.0000    -0.0000 </r>
       <r>    -4.7486    -0.0000    -0.0000 </r>
       <r>    -4.6813    -0.0000    -0.0000 </r>
       <r>    -4.6139    -0.0000    -0.0000 </r>
       <r>    -4.5466    -0.0000    -0.0000 </r>
       <r>    -4.4793    -0.0000    -0.0000 </r>
       <r>    -4.4120    -0.0000    -0.0000 </r>
       <r>    -4.3446    -0.0001    -0.0000 </r>
       <r>    -4.2773    -0.0007    -0.0001 </r>
       <r>    -4.2100    -0.0033    -0.0003 </r>
       <r>    -4.1427    -0.0115    -0.0011 </r>
       <r>    -4.0754    -0.0307    -0.0031 </r>
       <r>    -4.0080    -0.0599    -0.0072 </r>
       <r>    -3.9407    -0.0733    -0.0121 </r>
       <r>    -3.8734    -0.0056    -0.0125 </r>
       <r>    -3.8061     0.2298     0.0030 </r>
       <r>    -3.7387     0.6948     0.0498 </r>
       <r>    -3.6714     1.4094     0.1447 </r>
       <r>    -3.6041     2.3766     0.3047 </r>
       <r>    -3.5368     3.5502     0.5437 </r>
       <r>    -3.4695     4.6989     0.8600 </r>
       <r>    -3.4021     5.3597     1.2208 </r>
       <r>    -3.3348     5.0899     1.5635 </r>
       <r>    -3.2675     3.8667     1.8238 </r>
       <r>    -3.2002     2.1988     1.9719 </r>
       <r>    -3.1328     0.7672     2.0235 </r>
       <r>    -3.0655    -0.0512     2.0201 </r>
       <r>    -2.9982    -0.2875     2.0007 </r>
       <r>    -2.9309    -0.1085     1.9934 </r>
       <r>    -2.8636     0.4080     2.0209 </r>
       <r>    -2.7962     1.2066     2.1021 </r>
       <r>    -2.7289     2.1057     2.2439 </r>
       <r>    -2.6616     2.8465     2.4355 </r>
       <r>    -2.5943     3.2764     2.6561 </r>
       <r>    -2.5269     3.4144     2.8859 </r>
       <r>    -2.4596     3.3548     3.1118 </r>
       <r>    -2.3923     3.1830     3.3261 </r>
       <r>    -2.3250     2.9979     3.5279 </r>
       <r>    -2.2577     2.9565     3.7270 </r>
       <r>    -2.1903     3.2046     3.9427 </r>
       <r>    -2.1230     3.7196     4.1931 </r>
       <r>    -2.0557     4.2804     4.4813 </r>
       <r>    -1.9884     4.6613     4.7951 </r>
       <r>    -1.9210     4.8243     5.1199 </r>
       <r>    -1.8537     4.8723     5.4479 </r>
       <r>    -1.7864     4.8824     5.7766 </r>
       <r>    -1.7191     4.8700     6.1044 </r>
       <r>    -1.6518     4.8518     6.4311 </r>
       <r>    -1.5844     4.8150     6.7552 </r>
       <r>    -1.5171     4.6534     7.0685 </r>
       <r>    -1.4498     4.2690     7.3559 </r>
       <r>    -1.3825     3.7326     7.6072 </r>
       <r>    -1.3151     3.2378     7.8252 </r>
       <r>    -1.2478     2.9293     8.0224 </r>
       <r>    -1.1805     2.8776     8.2161 </r>
       <r>    -1.1132     3.1513     8.4283 </r>
       <r>    -1.0458     3.7567     8.6812 </r>
       <r>    -0.9785     4.5054     8.9845 </r>
       <r>    -0.9112     5.0820     9.3266 </r>
       <r>    -0.8439     5.3128     9.6843 </r>
       <r>    -0.7766     5.3251    10.0428 </r>
       <r>    -0.7092     5.3811    10.4050 </r>
       <r>    -0.6419     5.5625    10.7795 </r>
       <r>    -0.5746     5.6850    11.1622 </r>
       <r>    -0.5073     5.5549    11.5362 </r>
       <r>    -0.4399     5.2361    11.8887 </r>
       <r>    -0.3726     4.9812    12.2241 </r>
       <r>    -0.3053     4.9421    12.5568 </r>
       <r>    -0.2380     5.0350    12.8958 </r>
       <r>    -0.1707     5.0786    13.2377 </r>
       <r>    -0.1033     5.0093    13.5749 </r>
       <r>    -0.0360     4.9623    13.9090 </r>
       <r>     0.0313     5.1448    14.2553 </r>
       <r>     0.0986     5.5996    14.6323 </r>
       <r>     0.1660     6.1079    15.0435 </r>
       <r>     0.2333     6.3665    15.4721 </r>
       <r>     0.3006     6.2651    15.8939 </r>
       <r>     0.3679     5.9794    16.2964 </r>
       <r>     0.4352     5.7921    16.6864 </r>
       <r>     0.5026     5.8243    17.0785 </r>
       <r>     0.5699     5.9657    17.4801 </r>
       <r>     0.6372     6.0573    17.8879 </r>
       <r>     0.7045     6.0476    18.2950 </r>
       <r>     0.7719     5.9741    18.6972 </r>
       <r>     0.8392     5.9426    19.0973 </r>
       <r>     0.9065     6.1521    19.5115 </r>
       <r>     0.9738     6.7232    19.9641 </r>
       <r>     1.0411     7.3932    20.4618 </r>
       <r>     1.1085     7.6172    20.9746 </r>
       <r>     1.1758     7.1725    21.4575 </r>
       <r>     1.2431     6.4748    21.8934 </r>
       <r>     1.3104     6.0938    22.3036 </r>
       <r>     1.3778     6.1452    22.7174 </r>
       <r>     1.4451     6.3587    23.1454 </r>
       <r>     1.5124     6.5530    23.5866 </r>
       <r>     1.5797     6.7906    24.0438 </r>
       <r>     1.6470     7.1337    24.5240 </r>
       <r>     1.7144     7.4455    25.0253 </r>
       <r>     1.7817     7.4849    25.5292 </r>
       <r>     1.8490     7.1773    26.0124 </r>
       <r>     1.9163     6.7631    26.4677 </r>
       <r>     1.9837     6.6182    26.9132 </r>
       <r>     2.0510     6.9050    27.3781 </r>
       <r>     2.1183     7.4269    27.8781 </r>
       <r>     2.1856     7.8216    28.4047 </r>
       <r>     2.2530     7.8766    28.9349 </r>
       <r>     2.3203     7.6855    29.4523 </r>
       <r>     2.3876     7.5242    29.9589 </r>
       <r>     2.4549     7.5700    30.4685 </r>
       <r>     2.5222     7.7601    30.9910 </r>
       <r>     2.5896     7.9202    31.5242 </r>
       <r>     2.6569     7.9383    32.0586 </r>
       <r>     2.7242     7.7883    32.5829 </r>
       <r>     2.7915     7.5469    33.0910 </r>
       <r>     2.8589     7.4629    33.5934 </r>
       <r>     2.9262     7.7965    34.1183 </r>
       <r>     2.9935     8.4470    34.6870 </r>
       <r>     3.0608     8.9420    35.2890 </r>
       <r>     3.1281     8.9517    35.8916 </r>
       <r>     3.1955     8.6276    36.4724 </r>
       <r>     3.2628     8.3253    37.0329 </r>
       <r>     3.3301     8.2131    37.5859 </r>
       <r>     3.3974     8.2495    38.1412 </r>
       <r>     3.4648     8.3416    38.7028 </r>
       <r>     3.5321     8.4276    39.2702 </r>
       <r>     3.5994     8.5165    39.8435 </r>
       <r>     3.6667     8.6756    40.4276 </r>
       <r>     3.7340     8.9385    41.0293 </r>
       <r>     3.8014     9.2542    41.6524 </r>
       <r>     3.8687     9.5106    42.2926 </r>
       <r>     3.9360     9.5720    42.9370 </r>
       <r>     4.0033     9.3810    43.5686 </r>
       <r>     4.0707     9.0931    44.1808 </r>
       <r>     4.1380     9.0065    44.7871 </r>
       <r>     4.2053     9.2549    45.4102 </r>
       <r>     4.2726     9.6266    46.0583 </r>
       <r>     4.3399     9.7844    46.7170 </r>
       <r>     4.4073     9.6194    47.3646 </r>
       <r>     4.4746     9.2960    47.9904 </r>
       <r>     4.5419     9.0212    48.5977 </r>
       <r>     4.6092     8.8950    49.1966 </r>
       <r>     4.6766     8.9331    49.7980 </r>
       <r>     4.7439     9.1090    50.4112 </r>
       <r>     4.8112     9.3758    51.0424 </r>
       <r>     4.8785     9.7025    51.6956 </r>
       <r>     4.9458    10.0798    52.3742 </r>
       <r>     5.0132    10.4561    53.0781 </r>
       <r>     5.0805    10.6735    53.7967 </r>
       <r>     5.1478    10.5267    54.5054 </r>
       <r>     5.2151     9.9732    55.1768 </r>
       <r>     5.2825     9.2967    55.8027 </r>
       <r>     5.3498     8.9420    56.4047 </r>
       <r>     5.4171     9.1227    57.0188 </r>
       <r>     5.4844     9.6479    57.6683 </r>
       <r>     5.5517    10.1446    58.3513 </r>
       <r>     5.6191    10.3771    59.0499 </r>
       <r>     5.6864    10.3511    59.7468 </r>
       <r>     5.7537    10.2049    60.4338 </r>
       <r>     5.8210    10.0664    61.1115 </r>
       <r>     5.8884     9.9567    61.7818 </r>
       <r>     5.9557     9.7873    62.4407 </r>
       <r>     6.0230     9.5139    63.0812 </r>
       <r>     6.0903     9.2681    63.7052 </r>
       <r>     6.1577     9.2302    64.3266 </r>
       <r>     6.2250     9.4251    64.9611 </r>
       <r>     6.2923     9.7506    65.6175 </r>
       <r>     6.3596    10.1296    66.2995 </r>
       <r>     6.4269    10.5223    67.0078 </r>
       <r>     6.4943    10.8465    67.7381 </r>
       <r>     6.5616    11.0094    68.4792 </r>
       <r>     6.6289    11.0232    69.2214 </r>
       <r>     6.6962    10.9994    69.9619 </r>
       <r>     6.7636    11.0156    70.7035 </r>
       <r>     6.8309    11.0271    71.4458 </r>
       <r>     6.8982    10.9062    72.1801 </r>
       <r>     6.9655    10.5731    72.8919 </r>
       <r>     7.0328    10.1221    73.5733 </r>
       <r>     7.1002     9.7770    74.2315 </r>
       <r>     7.1675     9.6954    74.8842 </r>
       <r>     7.2348     9.8652    75.5484 </r>
       <r>     7.3021    10.1636    76.2326 </r>
       <r>     7.3695    10.4339    76.9351 </r>
       <r>     7.4368    10.5850    77.6477 </r>
       <r>     7.5041    10.7001    78.3680 </r>
       <r>     7.5714    10.9337    79.1041 </r>
       <r>     7.6387    11.2587    79.8621 </r>
       <r>     7.7061    11.4770    80.6347 </r>
       <r>     7.7734    11.5133    81.4098 </r>
       <r>     7.8407    11.5085    82.1846 </r>
       <r>     7.9080    11.5780    82.9641 </r>
       <r>     7.9754    11.6510    83.7485 </r>
       <r>     8.0427    11.6081    84.5299 </r>
       <r>     8.1100    11.4352    85.2998 </r>
       <r>     8.1773    11.2061    86.0542 </r>
       <r>     8.2446    11.0247    86.7964 </r>
       <r>     8.3120    10.9889    87.5362 </r>
       <r>     8.3793    11.1099    88.2842 </r>
       <r>     8.4466    11.2855    89.0439 </r>
       <r>     8.5139    11.4434    89.8143 </r>
       <r>     8.5813    11.6562    90.5990 </r>
       <r>     8.6486    11.9904    91.4063 </r>
       <r>     8.7159    12.2865    92.2334 </r>
       <r>     8.7832    12.2459    93.0578 </r>
       <r>     8.8505    11.7780    93.8508 </r>
       <r>     8.9179    11.1826    94.6036 </r>
       <r>     8.9852    10.9127    95.3383 </r>
       <r>     9.0525    11.1358    96.0880 </r>
       <r>     9.1198    11.5968    96.8687 </r>
       <r>     9.1872    11.9345    97.6722 </r>
       <r>     9.2545    11.9992    98.4800 </r>
       <r>     9.3218    11.8399    99.2771 </r>
       <r>     9.3891    11.5701   100.0560 </r>
       <r>     9.4565    11.3298   100.8187 </r>
       <r>     9.5238    11.2746   101.5778 </r>
       <r>     9.5911    11.5116   102.3528 </r>
       <r>     9.6584    12.0057   103.1610 </r>
       <r>     9.7257    12.5473   104.0057 </r>
       <r>     9.7931    12.8806   104.8729 </r>
       <r>     9.8604    12.9074   105.7418 </r>
       <r>     9.9277    12.7405   106.5996 </r>
       <r>     9.9950    12.5726   107.4460 </r>
       <r>    10.0624    12.5216   108.2890 </r>
       <r>    10.1297    12.5632   109.1347 </r>
       <r>    10.1970    12.5930   109.9825 </r>
       <r>    10.2643    12.5785   110.8293 </r>
       <r>    10.3316    12.5892   111.6769 </r>
       <r>    10.3990    12.6313   112.5273 </r>
       <r>    10.4663    12.5855   113.3745 </r>
       <r>    10.5336    12.3989   114.2093 </r>
       <r>    10.6009    12.2116   115.0314 </r>
       <r>    10.6683    12.1875   115.8519 </r>
       <r>    10.7356    12.2904   116.6793 </r>
       <r>    10.8029    12.3268   117.5092 </r>
       <r>    10.8702    12.2154   118.3315 </r>
       <r>    10.9375    12.1340   119.1484 </r>
       <r>    11.0049    12.3142   119.9774 </r>
       <r>    11.0722    12.7351   120.8348 </r>
       <r>    11.1395    13.1312   121.7188 </r>
       <r>    11.2068    13.2862   122.6133 </r>
       <r>    11.2742    13.2172   123.5031 </r>
       <r>    11.3415    13.0494   124.3816 </r>
       <r>    11.4088    12.7338   125.2389 </r>
       <r>    11.4761    11.9387   126.0426 </r>
       <r>    11.5434    10.3128   126.7369 </r>
       <r>    11.6108     7.8847   127.2677 </r>
       <r>    11.6781     5.1543   127.6147 </r>
       <r>    11.7454     2.7815   127.8020 </r>
       <r>    11.8127     1.1838   127.8817 </r>
       <r>    11.8801     0.3753   127.9070 </r>
       <r>    11.9474     0.1028   127.9139 </r>
       <r>    12.0147     0.0779   127.9191 </r>
       <r>    12.0820     0.1098   127.9265 </r>
       <r>    12.1493     0.1247   127.9349 </r>
       <r>    12.2167     0.1281   127.9435 </r>
       <r>    12.2840     0.1468   127.9534 </r>
       <r>    12.3513     0.1818   127.9657 </r>
       <r>    12.4186     0.2014   127.9792 </r>
       <r>    12.4860     0.1754   127.9910 </r>
       <r>    12.5533     0.1103   127.9985 </r>
       <r>    12.6206     0.0428   128.0013 </r>
       <r>    12.6879     0.0023   128.0015 </r>
       <r>    12.7553    -0.0097   128.0008 </r>
       <r>    12.8226    -0.0076   128.0003 </r>
       <r>    12.8899    -0.0035   128.0001 </r>
       <r>    12.9572    -0.0011   128.0000 </r>
       <r>    13.0245    -0.0003   128.0000 </r>
       <r>    13.0919    -0.0000   128.0000 </r>
       <r>    13.1592    -0.0000   128.0000 </r>
       <r>    13.2265    -0.0000   128.0000 </r>
       <r>    13.2938    -0.0000   128.0000 </r>
       <r>    13.3612    -0.0000   128.0000 </r>
       <r>    13.4285    -0.0000   128.0000 </r>
       <r>    13.4958    -0.0000   128.0000 </r>
       <r>    13.5631    -0.0000   128.0000 </r>
       <r>    13.6304    -0.0000   128.0000 </r>
       <r>    13.6978    -0.0000   128.0000 </r>
       <r>    13.7651     0.0000   128.0000 </r>
       <r>    13.8324     0.0000   128.0000 </r>
       <r>    13.8997     0.0000   128.0000 </r>
       <r>    13.9671     0.0000   128.0000 </r>
       <r>    14.0344     0.0000   128.0000 </r>
       <r>    14.1017     0.0000   128.0000 </r>
       <r>    14.1690     0.0000   128.0000 </r>
       <r>    14.2363     0.0000   128.0000 </r>
       <r>    14.3037     0.0000   128.0000 </r>
       <r>    14.3710     0.0000   128.0000 </r>
       <r>    14.4383     0.0000   128.0000 </r>
      </set>
     </set>
    </array>
   </total>
  </dos>
 </calculation>
 <structure name="finalpos" >
  <crystal>
   <varray name="basis" >
    <v>       0.00000000       6.07500000       6.07500000 </v>
    <v>       6.07500000       0.00000000       6.07500000 </v>
    <v>       6.07500000       6.07500000       0.00000000 </v>
   </varray>
   <i name="volume">    448.40334375 </i>
   <varray name="rec_basis" >
    <v>      -0.08230453       0.08230453       0.08230453 </v>
    <v>       0.08230453      -0.08230453       0.08230453 </v>
    <v>       0.08230453       0.08230453      -0.08230453 </v>
   </varray>
  </crystal>
  <varray name="positions" >
   <v>       0.02881842       0.01172469       0.92980754 </v>
   <v>       0.03220617       0.96294422       0.28911102 </v>
   <v>       0.95998657       0.01491347       0.72735990 </v>
   <v>       0.93956422       0.34457461       0.05447313 </v>
   <v>       0.03327466       0.29065602       0.29443836 </v>
   <v>       0.97929108       0.32612882       0.73495427 </v>
   <v>       0.02684150       0.67889498       0.03116426 </v>
   <v>       0.04911564       0.61514266       0.36372712 </v>
   <v>       0.00670671       0.70601387       0.68902898 </v>
   <v>       0.32622842       0.01008207       0.94098979 </v>
   <v>       0.38539342       0.02423712       0.27836639 </v>
   <v>       0.36983215       0.95345279       0.71184521 </v>
   <v>       0.34113373       0.26596079       0.01564907 </v>
   <v>       0.38669423       0.28964871       0.35989176 </v>
   <v>       0.30735513       0.29272016       0.66655179 </v>
   <v>       0.28595078       0.66684369       0.06492296 </v>
   <v>       0.40301422       0.65727199       0.30575291 </v>
   <v>       0.28855885       0.68960249       0.63283801 </v>
   <v>       0.67016346       0.94346770       0.05937749 </v>
   <v>       0.72611352       0.94310745       0.33185422 </v>
   <v>       0.65582996       0.94439802       0.72594336 </v>
   <v>       0.62281473       0.30589164       0.00774873 </v>
   <v>       0.65121754       0.38022158       0.36144666 </v>
   <v>       0.66170548       0.26887766       0.69174346 </v>
   <v>       0.64704670       0.71250908       0.94248294 </v>
   <v>       0.67522796       0.67380582       0.26835816 </v>
   <v>       0.61987555       0.69752027       0.71650235 </v>
  </varray>
 </structure>
</modeling>
