<?xml version="1.0" encoding="ISO-8859-1"?>
<modeling>
 <generator>
  <i name="program" type="string">vasp </i>
  <i name="version" type="string">5.3.5  </i>
  <i name="subversion" type="string">31Mar14 (build Jun 17 2014 14:04:22) complex                          parallel </i>
  <i name="platform" type="string">LinuxIfort </i>
  <i name="date" type="string">2025 12 23 </i>
  <i name="time" type="string">03:07:32 </i>
 </generator>
 <incar>
  <i type="string" name="SYSTEM"> Al Random Displacement</i>
  <i type="string" name="PREC">normal</i>
  <i type="string" name="ALGO"> Fast</i>
  <i type="int" name="IBRION">    -1</i>
  <i type="int" name="NSW">     0</i>
  <i name="ENCUT">    300.00000000</i>
  <i type="string" name="LREAL"> Auto</i>
  <i type="int" name="ISMEAR">     1</i>
  <i name="SIGMA">      0.20000000</i>
  <i type="logical" name="LWAVE"> F  </i>
  <i type="logical" name="LCHARG"> F  </i>
 </incar>
 <kpoints>
  <generation param="Monkhorst-Pack">
   <v type="int" name="divisions">       4        4        4 </v>
   <v name="usershift">      0.00000000       0.00000000       0.00000000 </v>
   <v name="genvec1">      0.25000000       0.00000000       0.00000000 </v>
   <v name="genvec2">      0.00000000       0.25000000       0.00000000 </v>
   <v name="genvec3">      0.00000000       0.00000000       0.25000000 </v>
   <v name="shift">      0.50000000       0.50000000       0.50000000 </v>
  </generation>
  <varray name="kpointlist" >
   <v>       0.12500000       0.12500000       0.12500000 </v>
   <v>       0.12500000       0.00000000       0.00000000 </v>
   <v>       0.00000000       0.00000000      -0.12500000 </v>
   <v>       0.00000000       0.12500000       0.00000000 </v>
   <v>       0.37500000       0.12500000       0.12500000 </v>
   <v>       0.12500000       0.37500000       0.12500000 </v>
   <v>       0.12500000       0.12500000       0.37500000 </v>
   <v>       0.12500000       0.00000000      -0.25000000 </v>
   <v>       0.37500000       0.25000000       0.25000000 </v>
   <v>       0.12500000      -0.25000000       0.00000000 </v>
   <v>       0.00000000       0.25000000      -0.12500000 </v>
   <v>       0.25000000       0.00000000      -0.12500000 </v>
   <v>      -0.25000000      -0.25000000      -0.37500000 </v>
   <v>       0.25000000       0.37500000       0.25000000 </v>
   <v>       0.00000000       0.12500000      -0.25000000 </v>
   <v>      -0.25000000       0.12500000       0.00000000 </v>
   <v>      -0.37500000       0.12500000       0.12500000 </v>
   <v>       0.12500000      -0.37500000       0.12500000 </v>
   <v>       0.12500000       0.12500000      -0.37500000 </v>
   <v>       0.12500000       0.00000000       0.50000000 </v>
   <v>      -0.37500000       0.50000000       0.50000000 </v>
   <v>       0.12500000       0.50000000       0.00000000 </v>
   <v>       0.00000000       0.50000000      -0.12500000 </v>
   <v>       0.50000000       0.00000000      -0.12500000 </v>
   <v>       0.50000000       0.50000000       0.37500000 </v>
   <v>       0.50000000      -0.37500000       0.50000000 </v>
   <v>       0.00000000       0.12500000       0.50000000 </v>
   <v>       0.50000000       0.12500000       0.00000000 </v>
   <v>      -0.12500000       0.12500000       0.12500000 </v>
   <v>       0.12500000      -0.12500000       0.12500000 </v>
   <v>       0.12500000       0.12500000      -0.12500000 </v>
   <v>       0.12500000       0.00000000       0.25000000 </v>
   <v>      -0.12500000      -0.25000000      -0.25000000 </v>
   <v>       0.12500000       0.25000000       0.00000000 </v>
   <v>       0.00000000      -0.25000000      -0.12500000 </v>
   <v>      -0.25000000       0.00000000      -0.12500000 </v>
   <v>       0.25000000       0.25000000       0.12500000 </v>
   <v>      -0.25000000      -0.12500000      -0.25000000 </v>
   <v>       0.00000000       0.12500000       0.25000000 </v>
   <v>       0.25000000       0.12500000       0.00000000 </v>
   <v>       0.37500000       0.37500000       0.12500000 </v>
   <v>       0.12500000       0.37500000       0.37500000 </v>
   <v>       0.37500000       0.12500000       0.37500000 </v>
   <v>       0.37500000       0.25000000       0.00000000 </v>
   <v>       0.37500000       0.00000000       0.25000000 </v>
   <v>       0.12500000      -0.25000000      -0.25000000 </v>
   <v>       0.25000000       0.25000000      -0.12500000 </v>
   <v>       0.00000000      -0.25000000      -0.37500000 </v>
   <v>      -0.25000000       0.00000000      -0.37500000 </v>
   <v>       0.25000000       0.37500000       0.00000000 </v>
   <v>      -0.25000000       0.12500000      -0.25000000 </v>
   <v>       0.00000000       0.37500000       0.25000000 </v>
   <v>      -0.37500000       0.37500000       0.12500000 </v>
   <v>       0.12500000      -0.37500000       0.37500000 </v>
   <v>       0.37500000       0.12500000      -0.37500000 </v>
   <v>       0.37500000       0.25000000      -0.25000000 </v>
   <v>      -0.37500000       0.25000000       0.50000000 </v>
   <v>       0.12500000       0.50000000      -0.25000000 </v>
   <v>       0.25000000       0.50000000      -0.12500000 </v>
   <v>       0.25000000      -0.25000000      -0.37500000 </v>
   <v>       0.50000000      -0.25000000       0.37500000 </v>
   <v>       0.50000000      -0.37500000       0.25000000 </v>
   <v>      -0.25000000       0.12500000       0.50000000 </v>
   <v>      -0.25000000       0.37500000       0.25000000 </v>
   <v>      -0.12500000       0.25000000       0.50000000 </v>
   <v>      -0.37500000       0.25000000      -0.25000000 </v>
   <v>       0.37500000       0.50000000      -0.25000000 </v>
   <v>       0.25000000       0.50000000      -0.37500000 </v>
   <v>       0.50000000      -0.25000000       0.12500000 </v>
   <v>       0.25000000      -0.25000000       0.37500000 </v>
   <v>       0.50000000      -0.12500000       0.25000000 </v>
   <v>      -0.25000000      -0.37500000       0.25000000 </v>
   <v>      -0.25000000       0.37500000       0.50000000 </v>
   <v>       0.37500000      -0.12500000      -0.37500000 </v>
   <v>      -0.37500000       0.37500000      -0.12500000 </v>
   <v>      -0.12500000      -0.37500000       0.37500000 </v>
   <v>      -0.12500000       0.37500000       0.12500000 </v>
   <v>       0.12500000      -0.12500000       0.37500000 </v>
   <v>       0.37500000       0.12500000      -0.12500000 </v>
   <v>       0.37500000       0.25000000       0.50000000 </v>
   <v>      -0.12500000       0.50000000      -0.25000000 </v>
   <v>       0.12500000       0.25000000      -0.25000000 </v>
   <v>       0.25000000      -0.25000000      -0.12500000 </v>
   <v>       0.50000000      -0.25000000      -0.37500000 </v>
   <v>       0.25000000       0.50000000       0.12500000 </v>
   <v>      -0.25000000      -0.12500000       0.50000000 </v>
   <v>      -0.25000000       0.12500000       0.25000000 </v>
   <v>       0.50000000       0.37500000       0.25000000 </v>
   <v>      -0.12500000       0.25000000      -0.25000000 </v>
   <v>      -0.37500000       0.50000000      -0.25000000 </v>
   <v>       0.12500000       0.25000000       0.50000000 </v>
   <v>       0.50000000      -0.25000000      -0.12500000 </v>
   <v>       0.25000000      -0.25000000       0.12500000 </v>
   <v>       0.25000000       0.50000000       0.37500000 </v>
   <v>      -0.25000000      -0.12500000       0.25000000 </v>
   <v>      -0.25000000      -0.37500000       0.50000000 </v>
   <v>       0.50000000       0.12500000       0.25000000 </v>
   <v>       0.12500000      -0.12500000      -0.37500000 </v>
   <v>      -0.37500000       0.12500000      -0.12500000 </v>
   <v>      -0.12500000      -0.37500000       0.12500000 </v>
   <v>      -0.37500000      -0.37500000       0.12500000 </v>
   <v>       0.12500000      -0.37500000      -0.37500000 </v>
   <v>      -0.37500000       0.12500000      -0.37500000 </v>
   <v>      -0.37500000       0.50000000       0.00000000 </v>
   <v>      -0.37500000       0.00000000       0.50000000 </v>
   <v>       0.12500000       0.50000000       0.50000000 </v>
   <v>       0.50000000       0.50000000      -0.12500000 </v>
   <v>       0.00000000       0.50000000       0.37500000 </v>
   <v>       0.50000000       0.00000000       0.37500000 </v>
   <v>       0.50000000      -0.37500000       0.00000000 </v>
   <v>       0.50000000       0.12500000       0.50000000 </v>
   <v>       0.00000000      -0.37500000       0.50000000 </v>
   <v>       0.37500000       0.37500000       0.37500000 </v>
   <v>       0.37500000       0.00000000       0.00000000 </v>
   <v>       0.00000000       0.00000000      -0.37500000 </v>
   <v>       0.00000000       0.37500000       0.00000000 </v>
   <v>      -0.37500000       0.37500000       0.37500000 </v>
   <v>       0.37500000      -0.37500000       0.37500000 </v>
   <v>       0.37500000       0.37500000      -0.37500000 </v>
   <v>       0.37500000       0.00000000      -0.25000000 </v>
   <v>      -0.37500000       0.25000000       0.25000000 </v>
   <v>       0.37500000      -0.25000000       0.00000000 </v>
   <v>       0.00000000       0.25000000      -0.37500000 </v>
   <v>       0.25000000       0.00000000      -0.37500000 </v>
   <v>      -0.25000000      -0.25000000       0.37500000 </v>
   <v>       0.25000000      -0.37500000       0.25000000 </v>
   <v>       0.00000000       0.37500000      -0.25000000 </v>
   <v>      -0.25000000       0.37500000       0.00000000 </v>
  </varray>
  <varray name="weights" >
   <v>       0.00781250 </v>
   <v>       0.00781250 </v>
   <v>       0.00781250 </v>
   <v>       0.00781250 </v>
   <v>       0.00781250 </v>
   <v>       0.00781250 </v>
   <v>       0.00781250 </v>
   <v>       0.00781250 </v>
   <v>       0.00781250 </v>
   <v>       0.00781250 </v>
   <v>       0.00781250 </v>
   <v>       0.00781250 </v>
   <v>       0.00781250 </v>
   <v>       0.00781250 </v>
   <v>       0.00781250 </v>
   <v>       0.00781250 </v>
   <v>       0.00781250 </v>
   <v>       0.00781250 </v>
   <v>       0.00781250 </v>
   <v>       0.00781250 </v>
   <v>       0.00781250 </v>
   <v>       0.00781250 </v>
   <v>       0.00781250 </v>
   <v>       0.00781250 </v>
   <v>       0.00781250 </v>
   <v>       0.00781250 </v>
   <v>       0.00781250 </v>
   <v>       0.00781250 </v>
   <v>       0.00781250 </v>
   <v>       0.00781250 </v>
   <v>       0.00781250 </v>
   <v>       0.00781250 </v>
   <v>       0.00781250 </v>
   <v>       0.00781250 </v>
   <v>       0.00781250 </v>
   <v>       0.00781250 </v>
   <v>       0.00781250 </v>
   <v>       0.00781250 </v>
   <v>       0.00781250 </v>
   <v>       0.00781250 </v>
   <v>       0.00781250 </v>
   <v>       0.00781250 </v>
   <v>       0.00781250 </v>
   <v>       0.00781250 </v>
   <v>       0.00781250 </v>
   <v>       0.00781250 </v>
   <v>       0.00781250 </v>
   <v>       0.00781250 </v>
   <v>       0.00781250 </v>
   <v>       0.00781250 </v>
   <v>       0.00781250 </v>
   <v>       0.00781250 </v>
   <v>       0.00781250 </v>
   <v>       0.00781250 </v>
   <v>       0.00781250 </v>
   <v>       0.00781250 </v>
   <v>       0.00781250 </v>
   <v>       0.00781250 </v>
   <v>       0.00781250 </v>
   <v>       0.00781250 </v>
   <v>       0.00781250 </v>
   <v>       0.00781250 </v>
   <v>       0.00781250 </v>
   <v>       0.00781250 </v>
   <v>       0.00781250 </v>
   <v>       0.00781250 </v>
   <v>       0.00781250 </v>
   <v>       0.00781250 </v>
   <v>       0.00781250 </v>
   <v>       0.00781250 </v>
   <v>       0.00781250 </v>
   <v>       0.00781250 </v>
   <v>       0.00781250 </v>
   <v>       0.00781250 </v>
   <v>       0.00781250 </v>
   <v>       0.00781250 </v>
   <v>       0.00781250 </v>
   <v>       0.00781250 </v>
   <v>       0.00781250 </v>
   <v>       0.00781250 </v>
   <v>       0.00781250 </v>
   <v>       0.00781250 </v>
   <v>       0.00781250 </v>
   <v>       0.00781250 </v>
   <v>       0.00781250 </v>
   <v>       0.00781250 </v>
   <v>       0.00781250 </v>
   <v>       0.00781250 </v>
   <v>       0.00781250 </v>
   <v>       0.00781250 </v>
   <v>       0.00781250 </v>
   <v>       0.00781250 </v>
   <v>       0.00781250 </v>
   <v>       0.00781250 </v>
   <v>       0.00781250 </v>
   <v>       0.00781250 </v>
   <v>       0.00781250 </v>
   <v>       0.00781250 </v>
   <v>       0.00781250 </v>
   <v>       0.00781250 </v>
   <v>       0.00781250 </v>
   <v>       0.00781250 </v>
   <v>       0.00781250 </v>
   <v>       0.00781250 </v>
   <v>       0.00781250 </v>
   <v>       0.00781250 </v>
   <v>       0.00781250 </v>
   <v>       0.00781250 </v>
   <v>       0.00781250 </v>
   <v>       0.00781250 </v>
   <v>       0.00781250 </v>
   <v>       0.00781250 </v>
   <v>       0.00781250 </v>
   <v>       0.00781250 </v>
   <v>       0.00781250 </v>
   <v>       0.00781250 </v>
   <v>       0.00781250 </v>
   <v>       0.00781250 </v>
   <v>       0.00781250 </v>
   <v>       0.00781250 </v>
   <v>       0.00781250 </v>
   <v>       0.00781250 </v>
   <v>       0.00781250 </v>
   <v>       0.00781250 </v>
   <v>       0.00781250 </v>
   <v>       0.00781250 </v>
   <v>       0.00781250 </v>
   <v>       0.00781250 </v>
  </varray>
 </kpoints>
 <parameters>
  <separator name="general" >
   <i type="string" name="SYSTEM">Al Random Displacement</i>
   <i type="logical" name="LCOMPAT"> F  </i>
  </separator>
  <separator name="electronic" >
   <i type="string" name="PREC">normal</i>
   <i name="ENMAX">    300.00000000</i>
   <i name="ENAUG">    291.05200000</i>
   <i name="EDIFF">      0.00010000</i>
   <i type="int" name="IALGO">    68</i>
   <i type="int" name="IWAVPR">    10</i>
   <i type="int" name="NBANDS">    64</i>
   <i name="NELECT">     81.00000000</i>
   <i type="int" name="TURBO">     0</i>
   <i type="int" name="IRESTART">     0</i>
   <i type="int" name="NREBOOT">     0</i>
   <i type="int" name="NMIN">     0</i>
   <i name="EREF">      0.00000000</i>
   <separator name="electronic smearing" >
    <i type="int" name="ISMEAR">     1</i>
    <i name="SIGMA">      0.20000000</i>
    <i name="KSPACING">      0.50000000</i>
    <i type="logical" name="KGAMMA"> T  </i>
   </separator>
   <separator name="electronic projectors" >
    <i type="logical" name="LREAL"> T  </i>
    <v name="ROPT">     -0.00050000</v>
    <i type="int" name="LMAXPAW">  -100</i>
    <i type="int" name="LMAXMIX">     2</i>
    <i type="logical" name="NLSPLINE"> F  </i>
   </separator>
   <separator name="electronic startup" >
    <i type="int" name="ISTART">     0</i>
    <i type="int" name="ICHARG">     2</i>
    <i type="int" name="INIWAV">     1</i>
   </separator>
   <separator name="electronic spin" >
    <i type="int" name="ISPIN">     1</i>
    <i type="logical" name="LNONCOLLINEAR"> F  </i>
    <v name="MAGMOM">      1.00000000      1.00000000      1.00000000      1.00000000      1.00000000      1.00000000      1.00000000      1.00000000      1.00000000      1.00000000      1.00000000      1.00000000      1.00000000      1.00000000      1.00000000      1.00000000      1.00000000      1.00000000      1.00000000      1.00000000
      1.00000000      1.00000000      1.00000000      1.00000000      1.00000000      1.00000000      1.00000000</v>
    <i name="NUPDOWN">     -1.00000000</i>
    <i type="logical" name="LSORBIT"> F  </i>
    <v name="SAXIS">      0.00000000      0.00000000      1.00000000</v>
    <i type="logical" name="LSPIRAL"> F  </i>
    <v name="QSPIRAL">      0.00000000      0.00000000      0.00000000</v>
    <i type="logical" name="LZEROZ"> F  </i>
   </separator>
   <separator name="electronic exchange-correlation" >
    <i type="logical" name="LASPH"> F  </i>
    <i type="logical" name="LMETAGGA"> F  </i>
   </separator>
   <separator name="electronic convergence" >
    <i type="int" name="NELM">    60</i>
    <i type="int" name="NELMDL">    -5</i>
    <i type="int" name="NELMIN">     2</i>
    <i name="ENINI">    300.00000000</i>
    <separator name="electronic convergence detail" >
     <i type="logical" name="LDIAG"> T  </i>
     <i type="logical" name="LSUBROT"> F  </i>
     <i name="WEIMIN">      0.00000000</i>
     <i name="EBREAK">      0.00000039</i>
     <i name="DEPER">      0.30000000</i>
     <i type="int" name="NRMM">     4</i>
     <i name="TIME">      0.40000000</i>
    </separator>
   </separator>
   <separator name="electronic mixer" >
    <i name="AMIX">      0.40000000</i>
    <i name="BMIX">      1.00000000</i>
    <i name="AMIN">      0.10000000</i>
    <i name="AMIX_MAG">      1.60000000</i>
    <i name="BMIX_MAG">      1.00000000</i>
    <separator name="electronic mixer details" >
     <i type="int" name="IMIX">     4</i>
     <i type="int" name="MAXMIX">   -45</i>
     <i name="WC">    100.00000000</i>
     <i type="int" name="INIMIX">     1</i>
     <i type="int" name="MIXPRE">     1</i>
     <i type="int" name="MREMOVE">     5</i>
    </separator>
   </separator>
   <separator name="electronic dipolcorrection" >
    <i type="logical" name="LDIPOL"> F  </i>
    <i type="logical" name="LMONO"> F  </i>
    <i type="int" name="IDIPOL">     0</i>
    <i name="EPSILON">      1.00000000</i>
    <v name="DIPOL">   -100.00000000   -100.00000000   -100.00000000</v>
    <i name="EFIELD">      0.00000000</i>
   </separator>
  </separator>
  <separator name="grids" >
   <i type="int" name="NGX">    36</i>
   <i type="int" name="NGY">    36</i>
   <i type="int" name="NGZ">    36</i>
   <i type="int" name="NGXF">    72</i>
   <i type="int" name="NGYF">    72</i>
   <i type="int" name="NGZF">    72</i>
   <i type="logical" name="ADDGRID"> F  </i>
  </separator>
  <separator name="ionic" >
   <i type="int" name="NSW">     0</i>
   <i type="int" name="IBRION">    -1</i>
   <i type="int" name="ISIF">     2</i>
   <i name="PSTRESS">      0.00000000</i>
   <i name="EDIFFG">      0.00100000</i>
   <i type="int" name="NFREE">     0</i>
   <i name="POTIM">      0.50000000</i>
   <i name="SMASS">     -3.00000000</i>
   <i name="SCALEE">      1.00000000</i>
  </separator>
  <separator name="ionic md" >
   <i name="TEBEG">      0.00010000</i>
   <i name="TEEND">      0.00010000</i>
   <i type="int" name="NBLOCK">     1</i>
   <i type="int" name="KBLOCK">     1</i>
   <i type="int" name="NPACO">   256</i>
   <i name="APACO">     16.00000000</i>
  </separator>
  <separator name="symmetry" >
   <i type="int" name="ISYM">     2</i>
   <i name="SYMPREC">      0.00001000</i>
  </separator>
  <separator name="dos" >
   <i type="logical" name="LORBIT"> F  </i>
   <v name="RWIGS">     -1.00000000</v>
   <i type="int" name="NEDOS">   301</i>
   <i name="EMIN">     10.00000000</i>
   <i name="EMAX">    -10.00000000</i>
   <i name="EFERMI">      0.00000000</i>
  </separator>
  <separator name="writing" >
   <i type="int" name="NWRITE">     2</i>
   <i type="logical" name="LWAVE"> F  </i>
   <i type="logical" name="LCHARG"> F  </i>
   <i type="logical" name="LPARD"> F  </i>
   <i type="logical" name="LVTOT"> F  </i>
   <i type="logical" name="LVHAR"> F  </i>
   <i type="logical" name="LELF"> F  </i>
   <i type="logical" name="LOPTICS"> F  </i>
   <v name="STM">      0.00000000      0.00000000      0.00000000      0.00000000      0.00000000      0.00000000      0.00000000</v>
  </separator>
  <separator name="performance" >
   <i type="int" name="NPAR">    16</i>
   <i type="int" name="NSIM">     4</i>
   <i type="int" name="NBLK">    -1</i>
   <i type="logical" name="LPLANE"> T  </i>
   <i type="logical" name="LSCALAPACK"> F  </i>
   <i type="logical" name="LSCAAWARE"> F  </i>
   <i type="logical" name="LSCALU"> F  </i>
   <i type="logical" name="LASYNC"> F  </i>
   <i type="logical" name="LORBITALREAL"> F  </i>
  </separator>
  <separator name="miscellaneous" >
   <i type="int" name="IDIOT">     3</i>
   <i type="logical" name="LMUSIC"> F  </i>
   <v name="POMASS">     26.98100000</v>
   <v name="DARWINR">      0.00000000</v>
   <v name="DARWINV">      1.00000000</v>
   <i type="logical" name="LCORR"> T  </i>
  </separator>
  <i type="logical" name="GGA_COMPAT"> T  </i>
  <i type="logical" name="LBERRY"> F  </i>
  <i type="int" name="ICORELEVEL">     0</i>
  <i type="logical" name="LDAU"> F  </i>
  <i type="int" name="I_CONSTRAINED_M">     0</i>
  <separator name="electronic exchange-correlation" >
   <i type="string" name="GGA">--</i>
   <i type="int" name="VOSKOWN">     0</i>
   <i type="logical" name="LHFCALC"> F  </i>
   <i type="string" name="PRECFOCK"></i>
   <i type="logical" name="LSYMGRAD"> F  </i>
   <i type="logical" name="LHFONE"> F  </i>
   <i type="logical" name="LRHFCALC"> F  </i>
   <i type="logical" name="LTHOMAS"> F  </i>
   <i type="logical" name="LMODELHF"> F  </i>
   <i name="ENCUT4O">     -1.00000000</i>
   <i type="int" name="EXXOEP">     0</i>
   <i type="int" name="FOURORBIT">     0</i>
   <i name="AEXX">      0.00000000</i>
   <i name="HFALPHA">      0.00000000</i>
   <i name="MCALPHA">      0.00000000</i>
   <i name="ALDAX">      1.00000000</i>
   <i name="AGGAX">      1.00000000</i>
   <i name="ALDAC">      1.00000000</i>
   <i name="AGGAC">      1.00000000</i>
   <i type="int" name="NKREDX">     1</i>
   <i type="int" name="NKREDY">     1</i>
   <i type="int" name="NKREDZ">     1</i>
   <i type="logical" name="SHIFTRED"> F  </i>
   <i type="logical" name="ODDONLY"> F  </i>
   <i type="logical" name="EVENONLY"> F  </i>
   <i type="int" name="LMAXFOCK">     0</i>
   <i type="int" name="NMAXFOCKAE">     0</i>
   <i type="logical" name="LFOCKAEDFT"> F  </i>
   <i name="HFSCREEN">      0.00000000</i>
   <i name="HFSCREENC">      0.00000000</i>
   <i type="int" name="NBANDSGWLOW">     0</i>
  </separator>
  <separator name="vdW DFT" >
   <i type="logical" name="LUSE_VDW"> F  </i>
   <i name="Zab_VDW">     -0.84910000</i>
   <i name="PARAM1">      0.12340000</i>
   <i name="PARAM2">      1.00000000</i>
   <i name="PARAM3">      0.00000000</i>
  </separator>
  <separator name="model GW" >
   <i type="int" name="MODEL_GW">     0</i>
   <i name="MODEL_EPS0">      9.96451875</i>
   <i name="MODEL_ALPHA">      1.00000000</i>
  </separator>
  <separator name="linear response parameters" >
   <i type="logical" name="LEPSILON"> F  </i>
   <i type="logical" name="LRPA"> F  </i>
   <i type="logical" name="LNABLA"> F  </i>
   <i type="logical" name="LVEL"> F  </i>
   <i type="int" name="KINTER">     0</i>
   <i name="CSHIFT">      0.10000000</i>
   <i name="OMEGAMAX">     -1.00000000</i>
   <i name="DEG_THRESHOLD">      0.00200000</i>
  </separator>
  <separator name="orbital magnetization" >
   <i type="logical" name="NUCIND"> F  </i>
   <v name="MAGPOS">      0.00000000      0.00000000      0.00000000</v>
   <i type="logical" name="LNICSALL"> T  </i>
   <i type="logical" name="ORBITALMAG"> F  </i>
   <i type="logical" name="LMAGBLOCH"> F  </i>
   <i type="logical" name="LCHIMAG"> F  </i>
   <i type="logical" name="LGAUGE"> T  </i>
   <i type="int" name="MAGATOM">     0</i>
   <v name="MAGDIPOL">      0.00000000      0.00000000      0.00000000</v>
   <v name="AVECCONST">      0.00000000      0.00000000      0.00000000</v>
  </separator>
  <separator name="response functions" >
   <i type="logical" name="LADDER"> F  </i>
   <i type="logical" name="LFXC"> F  </i>
   <i type="logical" name="LHARTREE"> T  </i>
   <i type="int" name="IBSE">     0</i>
   <i type="logical" name="LTCTE"> F  </i>
   <i type="logical" name="LTETE"> F  </i>
   <i type="logical" name="LTRIPLET"> F  </i>
   <i type="logical" name="LFXCEPS"> F  </i>
   <i type="logical" name="LFXHEG"> F  </i>
   <i type="logical" name="L2ORDER"> F  </i>
   <i type="logical" name="LUSEW"> F  </i>
   <i name="ENCUTGW">     -2.00000000</i>
   <i name="ENCUTGWSOFT">     -2.00000000</i>
   <i name="ENCUTLF">     -1.00000000</i>
   <i type="int" name="LMAXMP2">    -1</i>
   <i name="SCISSOR">      0.00000000</i>
   <i type="int" name="NOMEGA">     0</i>
   <i type="int" name="NOMEGAR">     0</i>
   <i type="int" name="NBANDSGW">    -1</i>
   <i type="int" name="NBANDSO">    -1</i>
   <i type="int" name="NBANDSV">    -1</i>
   <i type="int" name="NELM">     1</i>
   <i type="int" name="DIM">     3</i>
   <i type="int" name="ANTIRES">     0</i>
   <i name="OMEGAMAX">    -30.00000000</i>
   <i name="OMEGAMIN">    -30.00000000</i>
   <i name="OMEGATL">   -200.00000000</i>
   <i type="int" name="OMEGAGRID">     0</i>
   <i name="CSHIFT">     -0.10000000</i>
   <i type="logical" name="SELFENERGY"> F  </i>
   <i type="logical" name="LSPECTRAL"> F  </i>
   <i type="logical" name="ODDONLYGW"> F  </i>
   <i type="logical" name="EVENONLYGW"> F  </i>
   <i type="int" name="NKREDLFX">     1</i>
   <i type="int" name="NKREDLFY">     1</i>
   <i type="int" name="NKREDLFZ">     1</i>
   <i type="int" name="MAXMEM">  1800</i>
   <i type="int" name="TELESCOPE">     0</i>
   <i type="int" name="TAUPAR">     1</i>
  </separator>
  <separator name="External order field" >
   <i name="OFIELD_KAPPA">      0.00000000</i>
   <v name="OFIELD_K">      0.00000000      0.00000000      0.00000000</v>
   <i name="OFIELD_Q6_NEAR">      0.00000000</i>
   <i name="OFIELD_Q6_FAR">      0.00000000</i>
   <i name="OFIELD_A">      0.00000000</i>
  </separator>
 </parameters>
 <atominfo>
  <atoms>      27 </atoms>
  <types>       1 </types>
  <array name="atoms" >
   <dimension dim="1">ion</dimension>
   <field type="string">element</field>
   <field type="int">atomtype</field>
   <set>
    <rc><c>Al</c><c>   1</c></rc>
    <rc><c>Al</c><c>   1</c></rc>
    <rc><c>Al</c><c>   1</c></rc>
    <rc><c>Al</c><c>   1</c></rc>
    <rc><c>Al</c><c>   1</c></rc>
    <rc><c>Al</c><c>   1</c></rc>
    <rc><c>Al</c><c>   1</c></rc>
    <rc><c>Al</c><c>   1</c></rc>
    <rc><c>Al</c><c>   1</c></rc>
    <rc><c>Al</c><c>   1</c></rc>
    <rc><c>Al</c><c>   1</c></rc>
    <rc><c>Al</c><c>   1</c></rc>
    <rc><c>Al</c><c>   1</c></rc>
    <rc><c>Al</c><c>   1</c></rc>
    <rc><c>Al</c><c>   1</c></rc>
    <rc><c>Al</c><c>   1</c></rc>
    <rc><c>Al</c><c>   1</c></rc>
    <rc><c>Al</c><c>   1</c></rc>
    <rc><c>Al</c><c>   1</c></rc>
    <rc><c>Al</c><c>   1</c></rc>
    <rc><c>Al</c><c>   1</c></rc>
    <rc><c>Al</c><c>   1</c></rc>
    <rc><c>Al</c><c>   1</c></rc>
    <rc><c>Al</c><c>   1</c></rc>
    <rc><c>Al</c><c>   1</c></rc>
    <rc><c>Al</c><c>   1</c></rc>
    <rc><c>Al</c><c>   1</c></rc>
   </set>
  </array>
  <array name="atomtypes" >
   <dimension dim="1">type</dimension>
   <field type="int">atomspertype</field>
   <field type="string">element</field>
   <field>mass</field>
   <field>valence</field>
   <field type="string">pseudopotential</field>
   <set>
    <rc><c>  27</c><c>Al</c><c>     26.98100000</c><c>      3.00000000</c><c>  PAW_PBE Al 04Jan2001                  </c></rc>
   </set>
  </array>
 </atominfo>
 <structure name="initialpos" >
  <crystal>
   <varray name="basis" >
    <v>       0.00000000       6.07500000       6.07500000 </v>
    <v>       6.07500000       0.00000000       6.07500000 </v>
    <v>       6.07500000       6.07500000       0.00000000 </v>
   </varray>
   <i name="volume">    448.40334375 </i>
   <varray name="rec_basis" >
    <v>      -0.08230453       0.08230453       0.08230453 </v>
    <v>       0.08230453      -0.08230453       0.08230453 </v>
    <v>       0.08230453       0.08230453      -0.08230453 </v>
   </varray>
  </crystal>
  <varray name="positions" >
   <v>       0.03072925       0.96387421       0.99335129 </v>
   <v>       0.99258174       0.99138704       0.37437120 </v>
   <v>       0.03987129       0.97458437       0.66645651 </v>
   <v>       0.97532575       0.31263348       0.03632424 </v>
   <v>       0.03606437       0.34293960       0.30930854 </v>
   <v>       0.97592979       0.31163336       0.67649545 </v>
   <v>       0.98930886       0.70924212       0.98535758 </v>
   <v>       0.01726587       0.69042582       0.33198484 </v>
   <v>       0.98858018       0.70617930       0.63934643 </v>
   <v>       0.29063859       0.01524357       0.01190058 </v>
   <v>       0.36775576       0.96464563       0.33249865 </v>
   <v>       0.34036086       0.00864237       0.62572732 </v>
   <v>       0.33886863       0.29233915       0.01070007 </v>
   <v>       0.32919419       0.32865933       0.30338268 </v>
   <v>       0.31164909       0.37101267       0.64416408 </v>
   <v>       0.31008385       0.65166246       0.04082149 </v>
   <v>       0.35255529       0.62449612       0.34851541 </v>
   <v>       0.31406131       0.64463059       0.66823572 </v>
   <v>       0.63238000       0.99014973       0.03186680 </v>
   <v>       0.67072280       0.03872610       0.31385657 </v>
   <v>       0.64674448       0.97456770       0.67580797 </v>
   <v>       0.64963795       0.35109596       0.02990593 </v>
   <v>       0.67287570       0.30780321       0.31505053 </v>
   <v>       0.66000028       0.30956888       0.65574356 </v>
   <v>       0.70584969       0.65920122       0.99726767 </v>
   <v>       0.63389516       0.68664060       0.36075394 </v>
   <v>       0.63407795       0.68108646       0.69815250 </v>
  </varray>
 </structure>
 <calculation>
  <scstep>
   <time name="dav">    7.24    7.24</time>
   <time name="total">    7.26    7.27</time>
   <energy>
    <i name="alphaZ">     -5.46064710 </i>
    <i name="ewald">  -1943.35058192 </i>
    <i name="hartreedc">    -18.92707926 </i>
    <i name="XCdc">   -708.24278744 </i>
    <i name="pawpsdc">   1787.40424240 </i>
    <i name="pawaedc">   -924.63176043 </i>
    <i name="eentropy">     -0.00070231 </i>
    <i name="bandstr">    421.91474488 </i>
    <i name="atom">   1445.51584806 </i>
    <i name="e_fr_energy">     54.22127689 </i>
    <i name="e_wo_entrp">     54.22197920 </i>
    <i name="e_0_energy">     54.22151099 </i>
   </energy>
  </scstep>
  <scstep>
   <time name="dav">    8.73    8.73</time>
   <time name="total">    8.74    8.75</time>
   <energy>
    <i name="e_fr_energy">    -90.81281844 </i>
    <i name="e_wo_entrp">    -90.80043280 </i>
    <i name="e_0_energy">    -90.80868989 </i>
   </energy>
  </scstep>
  <scstep>
   <time name="dav">    9.18    9.18</time>
   <time name="total">    9.18    9.20</time>
   <energy>
    <i name="e_fr_energy">    -96.79739728 </i>
    <i name="e_wo_entrp">    -96.78197226 </i>
    <i name="e_0_energy">    -96.79225560 </i>
   </energy>
  </scstep>
  <scstep>
   <time name="dav">    8.50    8.51</time>
   <time name="total">    8.51    8.53</time>
   <energy>
    <i name="e_fr_energy">    -96.85632537 </i>
    <i name="e_wo_entrp">    -96.84076059 </i>
    <i name="e_0_energy">    -96.85113711 </i>
   </energy>
  </scstep>
  <scstep>
   <time name="dav">    9.01    9.01</time>
   <time name="total">    9.33    9.35</time>
   <energy>
    <i name="e_fr_energy">    -96.85702226 </i>
    <i name="e_wo_entrp">    -96.84145404 </i>
    <i name="e_0_energy">    -96.85183285 </i>
   </energy>
  </scstep>
  <scstep>
   <time name="diag">    1.17    1.17</time>
   <time name="diis">    3.50    3.50</time>
   <time name="orth">    0.20    0.20</time>
   <time name="total">    5.21    5.23</time>
   <energy>
    <i name="e_fr_energy">    -95.15187856 </i>
    <i name="e_wo_entrp">    -95.13752790 </i>
    <i name="e_0_energy">    -95.14709501 </i>
   </energy>
  </scstep>
  <scstep>
   <time name="diag">    1.18    1.18</time>
   <time name="diis">    4.04    4.04</time>
   <time name="orth">    0.20    0.20</time>
   <time name="total">    5.76    5.78</time>
   <energy>
    <i name="e_fr_energy">    -94.87372428 </i>
    <i name="e_wo_entrp">    -94.85967764 </i>
    <i name="e_0_energy">    -94.86904207 </i>
   </energy>
  </scstep>
  <scstep>
   <time name="diag">    1.17    1.17</time>
   <time name="diis">    4.20    4.20</time>
   <time name="orth">    0.20    0.20</time>
   <time name="total">    5.91    5.92</time>
   <energy>
    <i name="e_fr_energy">    -94.80560469 </i>
    <i name="e_wo_entrp">    -94.79158425 </i>
    <i name="e_0_energy">    -94.80093121 </i>
   </energy>
  </scstep>
  <scstep>
   <time name="diag">    1.17    1.17</time>
   <time name="diis">    4.30    4.31</time>
   <time name="orth">    0.20    0.20</time>
   <time name="total">    6.02    6.03</time>
   <energy>
    <i name="e_fr_energy">    -94.80032327 </i>
    <i name="e_wo_entrp">    -94.78642568 </i>
    <i name="e_0_energy">    -94.79569074 </i>
   </energy>
  </scstep>
  <scstep>
   <time name="diag">    1.17    1.17</time>
   <time name="diis">    4.21    4.21</time>
   <time name="orth">    0.20    0.20</time>
   <time name="total">    5.92    5.94</time>
   <energy>
    <i name="e_fr_energy">    -94.79992011 </i>
    <i name="e_wo_entrp">    -94.78601474 </i>
    <i name="e_0_energy">    -94.79528499 </i>
   </energy>
  </scstep>
  <scstep>
   <time name="diag">    1.17    1.17</time>
   <time name="diis">    3.14    3.14</time>
   <time name="orth">    0.20    0.20</time>
   <time name="total">    4.54    4.55</time>
   <energy>
    <i name="alphaZ">     -5.46064710 </i>
    <i name="ewald">  -1943.35058192 </i>
    <i name="hartreedc">    -25.28789368 </i>
    <i name="XCdc">   -704.85367095 </i>
    <i name="pawpsdc">   4572.67114753 </i>
    <i name="pawaedc">  -3710.72127603 </i>
    <i name="eentropy">     -0.01392208 </i>
    <i name="bandstr">    276.70111884 </i>
    <i name="atom">   1445.51584806 </i>
    <i name="e_fr_energy">    -94.79987732 </i>
    <i name="e_wo_entrp">    -94.78595525 </i>
    <i name="e_0_energy">    -94.79523663 </i>
   </energy>
  </scstep>
  <structure>
   <crystal>
    <varray name="basis" >
     <v>       0.00000000       6.07500000       6.07500000 </v>
     <v>       6.07500000       0.00000000       6.07500000 </v>
     <v>       6.07500000       6.07500000       0.00000000 </v>
    </varray>
    <i name="volume">    448.40334375 </i>
    <varray name="rec_basis" >
     <v>      -0.08230453       0.08230453       0.08230453 </v>
     <v>       0.08230453      -0.08230453       0.08230453 </v>
     <v>       0.08230453       0.08230453      -0.08230453 </v>
    </varray>
   </crystal>
   <varray name="positions" >
    <v>       0.03072925       0.96387421       0.99335129 </v>
    <v>       0.99258174       0.99138704       0.37437120 </v>
    <v>       0.03987129       0.97458437       0.66645651 </v>
    <v>       0.97532575       0.31263348       0.03632424 </v>
    <v>       0.03606437       0.34293960       0.30930854 </v>
    <v>       0.97592979       0.31163336       0.67649545 </v>
    <v>       0.98930886       0.70924212       0.98535758 </v>
    <v>       0.01726587       0.69042582       0.33198484 </v>
    <v>       0.98858018       0.70617930       0.63934643 </v>
    <v>       0.29063859       0.01524357       0.01190058 </v>
    <v>       0.36775576       0.96464563       0.33249865 </v>
    <v>       0.34036086       0.00864237       0.62572732 </v>
    <v>       0.33886863       0.29233915       0.01070007 </v>
    <v>       0.32919419       0.32865933       0.30338268 </v>
    <v>       0.31164909       0.37101267       0.64416408 </v>
    <v>       0.31008385       0.65166246       0.04082149 </v>
    <v>       0.35255529       0.62449612       0.34851541 </v>
    <v>       0.31406131       0.64463059       0.66823572 </v>
    <v>       0.63238000       0.99014973       0.03186680 </v>
    <v>       0.67072280       0.03872610       0.31385657 </v>
    <v>       0.64674448       0.97456770       0.67580797 </v>
    <v>       0.64963795       0.35109596       0.02990593 </v>
    <v>       0.67287570       0.30780321       0.31505053 </v>
    <v>       0.66000028       0.30956888       0.65574356 </v>
    <v>       0.70584969       0.65920122       0.99726767 </v>
    <v>       0.63389516       0.68664060       0.36075394 </v>
    <v>       0.63407795       0.68108646       0.69815250 </v>
   </varray>
  </structure>
  <varray name="forces" >
   <v>       1.71314968      -1.08481232       0.83075639 </v>
   <v>      -0.04966234      -1.32132953       1.71678000 </v>
   <v>       0.56662605      -1.30225502       0.15687118 </v>
   <v>      -0.88501887       0.04562531       1.25969164 </v>
   <v>       0.74728002      -1.21297630      -1.50934749 </v>
   <v>       0.60960145       0.01928809       0.60016960 </v>
   <v>      -1.00356786       0.81057767      -1.77744438 </v>
   <v>       0.08133482      -0.51083460      -1.67200585 </v>
   <v>      -0.17575768       1.67728089      -1.99892212 </v>
   <v>      -0.91708740       0.74288662       0.13308323 </v>
   <v>       1.83242396      -1.92515667      -1.09877110 </v>
   <v>       0.86022280       0.75885394       0.21459349 </v>
   <v>       0.23494918      -1.11228166       0.99709544 </v>
   <v>       0.90288282       1.54669196      -0.03431945 </v>
   <v>      -0.92901939       1.17426339      -2.68963718 </v>
   <v>      -1.26400616      -0.31235763       1.28200603 </v>
   <v>      -0.23646917      -1.34535476       1.75167322 </v>
   <v>       0.88017418       1.27151953       0.86704034 </v>
   <v>      -1.32187685      -0.05767423       1.56792250 </v>
   <v>      -2.15488355       0.65154698      -1.98504864 </v>
   <v>       1.51742453      -0.19818123       0.95091039 </v>
   <v>      -1.97423460      -2.04297512       0.60168642 </v>
   <v>       3.52916562       1.56593893       0.90572957 </v>
   <v>       0.09670612       0.30992220       0.17945003 </v>
   <v>       0.44966491      -0.46438509      -0.67569219 </v>
   <v>      -1.81394609       2.14970430       0.27635481 </v>
   <v>      -1.29607616       0.16647432      -0.85062587 </v>
  </varray>
  <varray name="stress" >
   <v>      59.27216894      -2.62962077      10.79802116 </v>
   <v>      -2.62962105      63.68709281      -7.89422283 </v>
   <v>      10.79802100      -7.89422245      67.68559696 </v>
  </varray>
  <energy>
   <i name="e_fr_energy">    -94.79987732 </i>
   <i name="e_wo_entrp">    -94.79523663 </i>
   <i name="e_0_energy">     -0.01392208 </i>
  </energy>
  <time name="totalsc">   84.13   84.35</time>
  <eigenvalues>
   <array>
    <dimension dim="1">band</dimension>
    <dimension dim="2">kpoint</dimension>
    <dimension dim="3">spin</dimension>
    <field>eigene</field>
    <field>occ</field>
    <set>
     <set comment="spin 1">
      <set comment="kpoint 1">
       <r>   -3.3217    1.0000 </r>
       <r>   -1.3474    1.0000 </r>
       <r>   -0.8996    1.0000 </r>
       <r>   -0.7723    1.0000 </r>
       <r>   -0.5078    1.0000 </r>
       <r>   -0.2512    1.0000 </r>
       <r>   -0.1474    1.0000 </r>
       <r>    0.0137    1.0000 </r>
       <r>    0.1695    1.0000 </r>
       <r>    0.4455    1.0000 </r>
       <r>    0.5355    1.0000 </r>
       <r>    0.7461    1.0000 </r>
       <r>    1.1411    1.0000 </r>
       <r>    1.3992    1.0000 </r>
       <r>    1.5744    1.0000 </r>
       <r>    3.3736    1.0000 </r>
       <r>    3.5504    1.0000 </r>
       <r>    3.7366    1.0000 </r>
       <r>    4.3240    1.0000 </r>
       <r>    4.4653    1.0000 </r>
       <r>    4.5086    1.0000 </r>
       <r>    4.5856    1.0000 </r>
       <r>    4.6870    1.0000 </r>
       <r>    4.7573    1.0000 </r>
       <r>    5.2241    1.0000 </r>
       <r>    5.4375    1.0000 </r>
       <r>    5.5694    1.0000 </r>
       <r>    5.7333    1.0000 </r>
       <r>    5.9341    1.0000 </r>
       <r>    6.2076    1.0000 </r>
       <r>    6.3254    1.0000 </r>
       <r>    6.4709    1.0000 </r>
       <r>    6.5274    1.0000 </r>
       <r>    6.6235    1.0000 </r>
       <r>    6.6857    1.0000 </r>
       <r>    6.7745    1.0000 </r>
       <r>    7.0114    1.0000 </r>
       <r>    7.1723    1.0000 </r>
       <r>    7.2242    1.0000 </r>
       <r>    7.3493    1.0005 </r>
       <r>    7.7018    1.0116 </r>
       <r>    7.7994    0.8187 </r>
       <r>    7.9063    0.3979 </r>
       <r>    7.9824    0.1290 </r>
       <r>    8.1130   -0.0346 </r>
       <r>    8.1821   -0.0276 </r>
       <r>    8.2409   -0.0147 </r>
       <r>    8.3986   -0.0008 </r>
       <r>    8.4786   -0.0001 </r>
       <r>    8.5462   -0.0000 </r>
       <r>    8.6086   -0.0000 </r>
       <r>    8.7444   -0.0000 </r>
       <r>    8.9135   -0.0000 </r>
       <r>    9.0553   -0.0000 </r>
       <r>    9.1626   -0.0000 </r>
       <r>    9.1858   -0.0000 </r>
       <r>    9.3298   -0.0000 </r>
       <r>    9.5063   -0.0000 </r>
       <r>    9.9637   -0.0000 </r>
       <r>   11.1484   -0.0000 </r>
       <r>   11.2990   -0.0000 </r>
       <r>   11.3409   -0.0000 </r>
       <r>   12.5041   -0.0000 </r>
       <r>   12.6339   -0.0000 </r>
      </set>
      <set comment="kpoint 2">
       <r>   -3.3223    1.0000 </r>
       <r>   -1.3413    1.0000 </r>
       <r>   -0.9003    1.0000 </r>
       <r>   -0.7776    1.0000 </r>
       <r>   -0.4838    1.0000 </r>
       <r>   -0.2990    1.0000 </r>
       <r>   -0.0936    1.0000 </r>
       <r>    0.0306    1.0000 </r>
       <r>    0.1261    1.0000 </r>
       <r>    0.3597    1.0000 </r>
       <r>    0.5578    1.0000 </r>
       <r>    0.8327    1.0000 </r>
       <r>    1.1204    1.0000 </r>
       <r>    1.3903    1.0000 </r>
       <r>    1.5711    1.0000 </r>
       <r>    3.4658    1.0000 </r>
       <r>    3.5332    1.0000 </r>
       <r>    3.7106    1.0000 </r>
       <r>    4.2919    1.0000 </r>
       <r>    4.3401    1.0000 </r>
       <r>    4.5057    1.0000 </r>
       <r>    4.5943    1.0000 </r>
       <r>    4.7154    1.0000 </r>
       <r>    4.7917    1.0000 </r>
       <r>    5.3206    1.0000 </r>
       <r>    5.4365    1.0000 </r>
       <r>    5.6281    1.0000 </r>
       <r>    5.6903    1.0000 </r>
       <r>    5.9541    1.0000 </r>
       <r>    6.0902    1.0000 </r>
       <r>    6.3404    1.0000 </r>
       <r>    6.4762    1.0000 </r>
       <r>    6.5433    1.0000 </r>
       <r>    6.6452    1.0000 </r>
       <r>    6.7365    1.0000 </r>
       <r>    6.7641    1.0000 </r>
       <r>    6.9809    1.0000 </r>
       <r>    7.1231    1.0000 </r>
       <r>    7.2065    1.0000 </r>
       <r>    7.2989    1.0001 </r>
       <r>    7.6967    1.0157 </r>
       <r>    7.7893    0.8494 </r>
       <r>    7.9223    0.3334 </r>
       <r>    7.9875    0.1153 </r>
       <r>    8.0919   -0.0295 </r>
       <r>    8.1504   -0.0337 </r>
       <r>    8.3331   -0.0032 </r>
       <r>    8.4343   -0.0003 </r>
       <r>    8.4530   -0.0002 </r>
       <r>    8.5874   -0.0000 </r>
       <r>    8.6452   -0.0000 </r>
       <r>    8.7338   -0.0000 </r>
       <r>    8.9906   -0.0000 </r>
       <r>    9.0488   -0.0000 </r>
       <r>    9.1170   -0.0000 </r>
       <r>    9.1954   -0.0000 </r>
       <r>    9.2559   -0.0000 </r>
       <r>    9.4784   -0.0000 </r>
       <r>    9.9856   -0.0000 </r>
       <r>   11.1597   -0.0000 </r>
       <r>   11.3001   -0.0000 </r>
       <r>   11.3258   -0.0000 </r>
       <r>   12.5599   -0.0000 </r>
       <r>   12.7124   -0.0000 </r>
      </set>
      <set comment="kpoint 3">
       <r>   -3.3234    1.0000 </r>
       <r>   -1.3124    1.0000 </r>
       <r>   -0.8810    1.0000 </r>
       <r>   -0.7464    1.0000 </r>
       <r>   -0.6057    1.0000 </r>
       <r>   -0.3464    1.0000 </r>
       <r>   -0.1104    1.0000 </r>
       <r>    0.0024    1.0000 </r>
       <r>    0.2343    1.0000 </r>
       <r>    0.4134    1.0000 </r>
       <r>    0.6486    1.0000 </r>
       <r>    0.7251    1.0000 </r>
       <r>    1.1402    1.0000 </r>
       <r>    1.3883    1.0000 </r>
       <r>    1.5410    1.0000 </r>
       <r>    3.3944    1.0000 </r>
       <r>    3.6451    1.0000 </r>
       <r>    3.7740    1.0000 </r>
       <r>    4.2484    1.0000 </r>
       <r>    4.3639    1.0000 </r>
       <r>    4.4468    1.0000 </r>
       <r>    4.5839    1.0000 </r>
       <r>    4.6794    1.0000 </r>
       <r>    4.7460    1.0000 </r>
       <r>    5.2608    1.0000 </r>
       <r>    5.5200    1.0000 </r>
       <r>    5.6550    1.0000 </r>
       <r>    5.6999    1.0000 </r>
       <r>    5.9237    1.0000 </r>
       <r>    6.1340    1.0000 </r>
       <r>    6.2770    1.0000 </r>
       <r>    6.3672    1.0000 </r>
       <r>    6.5878    1.0000 </r>
       <r>    6.6492    1.0000 </r>
       <r>    6.7270    1.0000 </r>
       <r>    6.7699    1.0000 </r>
       <r>    7.0795    1.0000 </r>
       <r>    7.1167    1.0000 </r>
       <r>    7.2936    1.0001 </r>
       <r>    7.3925    1.0015 </r>
       <r>    7.6729    1.0292 </r>
       <r>    7.7703    0.9005 </r>
       <r>    7.8965    0.4391 </r>
       <r>    8.0296    0.0277 </r>
       <r>    8.1058   -0.0335 </r>
       <r>    8.2250   -0.0179 </r>
       <r>    8.3283   -0.0035 </r>
       <r>    8.4029   -0.0007 </r>
       <r>    8.4580   -0.0002 </r>
       <r>    8.5383   -0.0000 </r>
       <r>    8.6149   -0.0000 </r>
       <r>    8.7367   -0.0000 </r>
       <r>    8.8628   -0.0000 </r>
       <r>    8.9775   -0.0000 </r>
       <r>    9.0595   -0.0000 </r>
       <r>    9.1994   -0.0000 </r>
       <r>    9.2798   -0.0000 </r>
       <r>    9.4917   -0.0000 </r>
       <r>   10.0963   -0.0000 </r>
       <r>   11.1956   -0.0000 </r>
       <r>   11.2563   -0.0000 </r>
       <r>   11.3045   -0.0000 </r>
       <r>   12.5603   -0.0000 </r>
       <r>   12.7892   -0.0000 </r>
      </set>
      <set comment="kpoint 4">
       <r>   -3.3221    1.0000 </r>
       <r>   -1.3537    1.0000 </r>
       <r>   -0.8982    1.0000 </r>
       <r>   -0.6893    1.0000 </r>
       <r>   -0.5020    1.0000 </r>
       <r>   -0.4028    1.0000 </r>
       <r>   -0.1291    1.0000 </r>
       <r>    0.0386    1.0000 </r>
       <r>    0.1672    1.0000 </r>
       <r>    0.3868    1.0000 </r>
       <r>    0.6157    1.0000 </r>
       <r>    0.7734    1.0000 </r>
       <r>    1.1391    1.0000 </r>
       <r>    1.4174    1.0000 </r>
       <r>    1.5316    1.0000 </r>
       <r>    3.3597    1.0000 </r>
       <r>    3.6394    1.0000 </r>
       <r>    3.7330    1.0000 </r>
       <r>    4.3262    1.0000 </r>
       <r>    4.3822    1.0000 </r>
       <r>    4.4338    1.0000 </r>
       <r>    4.5888    1.0000 </r>
       <r>    4.7130    1.0000 </r>
       <r>    4.8066    1.0000 </r>
       <r>    5.1769    1.0000 </r>
       <r>    5.4864    1.0000 </r>
       <r>    5.6061    1.0000 </r>
       <r>    5.7627    1.0000 </r>
       <r>    5.9445    1.0000 </r>
       <r>    6.0666    1.0000 </r>
       <r>    6.2830    1.0000 </r>
       <r>    6.4232    1.0000 </r>
       <r>    6.5169    1.0000 </r>
       <r>    6.6562    1.0000 </r>
       <r>    6.7467    1.0000 </r>
       <r>    6.7615    1.0000 </r>
       <r>    7.0784    1.0000 </r>
       <r>    7.1579    1.0000 </r>
       <r>    7.2905    1.0001 </r>
       <r>    7.4707    1.0066 </r>
       <r>    7.7509    0.9434 </r>
       <r>    7.8008    0.8143 </r>
       <r>    7.8286    0.7174 </r>
       <r>    7.9846    0.1228 </r>
       <r>    8.0451    0.0061 </r>
       <r>    8.1351   -0.0352 </r>
       <r>    8.3087   -0.0051 </r>
       <r>    8.3974   -0.0008 </r>
       <r>    8.4898   -0.0001 </r>
       <r>    8.5449   -0.0000 </r>
       <r>    8.6353   -0.0000 </r>
       <r>    8.6960   -0.0000 </r>
       <r>    8.8417   -0.0000 </r>
       <r>    9.0235   -0.0000 </r>
       <r>    9.0580   -0.0000 </r>
       <r>    9.2206   -0.0000 </r>
       <r>    9.3630   -0.0000 </r>
       <r>    9.5162   -0.0000 </r>
       <r>   10.0165   -0.0000 </r>
       <r>   11.1845   -0.0000 </r>
       <r>   11.2381   -0.0000 </r>
       <r>   11.3618   -0.0000 </r>
       <r>   12.5268   -0.0000 </r>
       <r>   12.6656   -0.0000 </r>
      </set>
      <set comment="kpoint 5">
       <r>   -3.0869    1.0000 </r>
       <r>   -1.9461    1.0000 </r>
       <r>   -1.3640    1.0000 </r>
       <r>   -0.8144    1.0000 </r>
       <r>   -0.6179    1.0000 </r>
       <r>   -0.3391    1.0000 </r>
       <r>   -0.1850    1.0000 </r>
       <r>    0.1866    1.0000 </r>
       <r>    0.3324    1.0000 </r>
       <r>    0.6059    1.0000 </r>
       <r>    0.9982    1.0000 </r>
       <r>    1.6342    1.0000 </r>
       <r>    1.8380    1.0000 </r>
       <r>    1.9831    1.0000 </r>
       <r>    2.1849    1.0000 </r>
       <r>    2.6713    1.0000 </r>
       <r>    2.8512    1.0000 </r>
       <r>    3.0629    1.0000 </r>
       <r>    3.6021    1.0000 </r>
       <r>    3.9512    1.0000 </r>
       <r>    4.2578    1.0000 </r>
       <r>    4.6050    1.0000 </r>
       <r>    4.7142    1.0000 </r>
       <r>    4.8102    1.0000 </r>
       <r>    5.0984    1.0000 </r>
       <r>    5.2040    1.0000 </r>
       <r>    5.2537    1.0000 </r>
       <r>    5.5097    1.0000 </r>
       <r>    5.6220    1.0000 </r>
       <r>    5.8459    1.0000 </r>
       <r>    5.9454    1.0000 </r>
       <r>    6.0877    1.0000 </r>
       <r>    6.2516    1.0000 </r>
       <r>    6.4075    1.0000 </r>
       <r>    6.5588    1.0000 </r>
       <r>    6.6703    1.0000 </r>
       <r>    6.8210    1.0000 </r>
       <r>    6.9148    1.0000 </r>
       <r>    7.0347    1.0000 </r>
       <r>    7.2388    1.0000 </r>
       <r>    7.6961    1.0162 </r>
       <r>    8.0296    0.0276 </r>
       <r>    8.2148   -0.0201 </r>
       <r>    8.3518   -0.0022 </r>
       <r>    8.5688   -0.0000 </r>
       <r>    8.7154   -0.0000 </r>
       <r>    8.8033   -0.0000 </r>
       <r>    8.9439   -0.0000 </r>
       <r>    9.2705   -0.0000 </r>
       <r>    9.3276   -0.0000 </r>
       <r>    9.5037   -0.0000 </r>
       <r>    9.7070   -0.0000 </r>
       <r>    9.7502   -0.0000 </r>
       <r>    9.7692   -0.0000 </r>
       <r>   10.0592   -0.0000 </r>
       <r>   10.2337   -0.0000 </r>
       <r>   10.4358   -0.0000 </r>
       <r>   10.5864   -0.0000 </r>
       <r>   10.8662   -0.0000 </r>
       <r>   10.9916   -0.0000 </r>
       <r>   11.0981   -0.0000 </r>
       <r>   11.1592   -0.0000 </r>
       <r>   11.2639   -0.0000 </r>
       <r>   11.4644   -0.0000 </r>
      </set>
      <set comment="kpoint 6">
       <r>   -3.0855    1.0000 </r>
       <r>   -1.9576    1.0000 </r>
       <r>   -1.3581    1.0000 </r>
       <r>   -0.6924    1.0000 </r>
       <r>   -0.6553    1.0000 </r>
       <r>   -0.4153    1.0000 </r>
       <r>   -0.2775    1.0000 </r>
       <r>    0.1971    1.0000 </r>
       <r>    0.4613    1.0000 </r>
       <r>    0.5330    1.0000 </r>
       <r>    1.1552    1.0000 </r>
       <r>    1.4571    1.0000 </r>
       <r>    1.7347    1.0000 </r>
       <r>    1.9851    1.0000 </r>
       <r>    2.4512    1.0000 </r>
       <r>    2.5184    1.0000 </r>
       <r>    2.9567    1.0000 </r>
       <r>    3.0086    1.0000 </r>
       <r>    3.7076    1.0000 </r>
       <r>    3.9305    1.0000 </r>
       <r>    4.3469    1.0000 </r>
       <r>    4.4444    1.0000 </r>
       <r>    4.6348    1.0000 </r>
       <r>    4.8247    1.0000 </r>
       <r>    5.0286    1.0000 </r>
       <r>    5.0677    1.0000 </r>
       <r>    5.3037    1.0000 </r>
       <r>    5.4156    1.0000 </r>
       <r>    5.6895    1.0000 </r>
       <r>    5.7966    1.0000 </r>
       <r>    6.0423    1.0000 </r>
       <r>    6.1256    1.0000 </r>
       <r>    6.3232    1.0000 </r>
       <r>    6.4937    1.0000 </r>
       <r>    6.5721    1.0000 </r>
       <r>    6.6925    1.0000 </r>
       <r>    6.8129    1.0000 </r>
       <r>    6.9338    1.0000 </r>
       <r>    6.9846    1.0000 </r>
       <r>    7.3181    1.0002 </r>
       <r>    7.7668    0.9091 </r>
       <r>    8.0537   -0.0035 </r>
       <r>    8.1372   -0.0351 </r>
       <r>    8.3430   -0.0026 </r>
       <r>    8.5946   -0.0000 </r>
       <r>    8.6590   -0.0000 </r>
       <r>    8.9240   -0.0000 </r>
       <r>    8.9873   -0.0000 </r>
       <r>    9.1363   -0.0000 </r>
       <r>    9.1921   -0.0000 </r>
       <r>    9.4333   -0.0000 </r>
       <r>    9.5213   -0.0000 </r>
       <r>    9.6989   -0.0000 </r>
       <r>    9.9229   -0.0000 </r>
       <r>   10.2346   -0.0000 </r>
       <r>   10.3017   -0.0000 </r>
       <r>   10.3861   -0.0000 </r>
       <r>   10.5194   -0.0000 </r>
       <r>   10.7605   -0.0000 </r>
       <r>   11.0134   -0.0000 </r>
       <r>   11.0922   -0.0000 </r>
       <r>   11.1798   -0.0000 </r>
       <r>   11.3372   -0.0000 </r>
       <r>   11.5559   -0.0000 </r>
      </set>
      <set comment="kpoint 7">
       <r>   -3.0965    1.0000 </r>
       <r>   -1.8861    1.0000 </r>
       <r>   -1.3763    1.0000 </r>
       <r>   -0.8277    1.0000 </r>
       <r>   -0.6445    1.0000 </r>
       <r>   -0.3708    1.0000 </r>
       <r>   -0.2995    1.0000 </r>
       <r>    0.2098    1.0000 </r>
       <r>    0.3639    1.0000 </r>
       <r>    0.6945    1.0000 </r>
       <r>    1.1682    1.0000 </r>
       <r>    1.5177    1.0000 </r>
       <r>    1.6995    1.0000 </r>
       <r>    1.9772    1.0000 </r>
       <r>    2.3693    1.0000 </r>
       <r>    2.5163    1.0000 </r>
       <r>    2.9438    1.0000 </r>
       <r>    3.1375    1.0000 </r>
       <r>    3.7415    1.0000 </r>
       <r>    3.8591    1.0000 </r>
       <r>    4.1957    1.0000 </r>
       <r>    4.5355    1.0000 </r>
       <r>    4.6308    1.0000 </r>
       <r>    4.7532    1.0000 </r>
       <r>    4.9918    1.0000 </r>
       <r>    5.1663    1.0000 </r>
       <r>    5.3149    1.0000 </r>
       <r>    5.4676    1.0000 </r>
       <r>    5.6150    1.0000 </r>
       <r>    5.8089    1.0000 </r>
       <r>    5.9864    1.0000 </r>
       <r>    6.2384    1.0000 </r>
       <r>    6.3324    1.0000 </r>
       <r>    6.4774    1.0000 </r>
       <r>    6.5630    1.0000 </r>
       <r>    6.6863    1.0000 </r>
       <r>    6.7356    1.0000 </r>
       <r>    6.8976    1.0000 </r>
       <r>    7.0692    1.0000 </r>
       <r>    7.3285    1.0003 </r>
       <r>    7.7710    0.8988 </r>
       <r>    7.9989    0.0872 </r>
       <r>    8.1704   -0.0301 </r>
       <r>    8.3205   -0.0041 </r>
       <r>    8.5804   -0.0000 </r>
       <r>    8.7243   -0.0000 </r>
       <r>    8.8685   -0.0000 </r>
       <r>    9.0130   -0.0000 </r>
       <r>    9.1093   -0.0000 </r>
       <r>    9.3445   -0.0000 </r>
       <r>    9.4533   -0.0000 </r>
       <r>    9.6017   -0.0000 </r>
       <r>    9.7183   -0.0000 </r>
       <r>    9.7668   -0.0000 </r>
       <r>   10.0308   -0.0000 </r>
       <r>   10.3317   -0.0000 </r>
       <r>   10.4455   -0.0000 </r>
       <r>   10.6142   -0.0000 </r>
       <r>   10.8443   -0.0000 </r>
       <r>   10.9312   -0.0000 </r>
       <r>   11.0799   -0.0000 </r>
       <r>   11.2027   -0.0000 </r>
       <r>   11.3208   -0.0000 </r>
       <r>   11.4532   -0.0000 </r>
      </set>
      <set comment="kpoint 8">
       <r>   -3.0986    1.0000 </r>
       <r>   -1.8824    1.0000 </r>
       <r>   -1.3555    1.0000 </r>
       <r>   -0.8560    1.0000 </r>
       <r>   -0.6908    1.0000 </r>
       <r>   -0.3699    1.0000 </r>
       <r>   -0.1845    1.0000 </r>
       <r>    0.2063    1.0000 </r>
       <r>    0.3154    1.0000 </r>
       <r>    0.6244    1.0000 </r>
       <r>    1.2829    1.0000 </r>
       <r>    1.3526    1.0000 </r>
       <r>    1.7578    1.0000 </r>
       <r>    2.0407    1.0000 </r>
       <r>    2.4008    1.0000 </r>
       <r>    2.5267    1.0000 </r>
       <r>    2.9526    1.0000 </r>
       <r>    3.0522    1.0000 </r>
       <r>    3.7461    1.0000 </r>
       <r>    3.8557    1.0000 </r>
       <r>    4.3123    1.0000 </r>
       <r>    4.4240    1.0000 </r>
       <r>    4.6668    1.0000 </r>
       <r>    4.8258    1.0000 </r>
       <r>    5.0917    1.0000 </r>
       <r>    5.1396    1.0000 </r>
       <r>    5.2188    1.0000 </r>
       <r>    5.3434    1.0000 </r>
       <r>    5.5911    1.0000 </r>
       <r>    5.8096    1.0000 </r>
       <r>    6.0365    1.0000 </r>
       <r>    6.1737    1.0000 </r>
       <r>    6.3286    1.0000 </r>
       <r>    6.5027    1.0000 </r>
       <r>    6.5755    1.0000 </r>
       <r>    6.6757    1.0000 </r>
       <r>    6.8623    1.0000 </r>
       <r>    6.9276    1.0000 </r>
       <r>    7.0082    1.0000 </r>
       <r>    7.3535    1.0006 </r>
       <r>    7.7129    1.0008 </r>
       <r>    7.9328    0.2927 </r>
       <r>    8.1602   -0.0321 </r>
       <r>    8.4041   -0.0007 </r>
       <r>    8.6292   -0.0000 </r>
       <r>    8.6906   -0.0000 </r>
       <r>    8.9249   -0.0000 </r>
       <r>    8.9814   -0.0000 </r>
       <r>    9.0927   -0.0000 </r>
       <r>    9.1450   -0.0000 </r>
       <r>    9.4557   -0.0000 </r>
       <r>    9.6429   -0.0000 </r>
       <r>    9.6854   -0.0000 </r>
       <r>    9.7582   -0.0000 </r>
       <r>   10.2328   -0.0000 </r>
       <r>   10.3057   -0.0000 </r>
       <r>   10.4904   -0.0000 </r>
       <r>   10.6022   -0.0000 </r>
       <r>   10.8147   -0.0000 </r>
       <r>   10.9711   -0.0000 </r>
       <r>   11.1783   -0.0000 </r>
       <r>   11.2117   -0.0000 </r>
       <r>   11.3181   -0.0000 </r>
       <r>   11.4915   -0.0000 </r>
      </set>
      <set comment="kpoint 9">
       <r>   -3.0840    1.0000 </r>
       <r>   -1.9562    1.0000 </r>
       <r>   -1.3625    1.0000 </r>
       <r>   -0.8311    1.0000 </r>
       <r>   -0.5802    1.0000 </r>
       <r>   -0.3561    1.0000 </r>
       <r>   -0.2022    1.0000 </r>
       <r>    0.2252    1.0000 </r>
       <r>    0.3336    1.0000 </r>
       <r>    0.5517    1.0000 </r>
       <r>    1.1680    1.0000 </r>
       <r>    1.4292    1.0000 </r>
       <r>    1.8919    1.0000 </r>
       <r>    2.0050    1.0000 </r>
       <r>    2.2052    1.0000 </r>
       <r>    2.6812    1.0000 </r>
       <r>    2.7633    1.0000 </r>
       <r>    3.0745    1.0000 </r>
       <r>    3.6242    1.0000 </r>
       <r>    3.9303    1.0000 </r>
       <r>    4.3036    1.0000 </r>
       <r>    4.5893    1.0000 </r>
       <r>    4.7253    1.0000 </r>
       <r>    4.8117    1.0000 </r>
       <r>    5.0842    1.0000 </r>
       <r>    5.1872    1.0000 </r>
       <r>    5.2837    1.0000 </r>
       <r>    5.4650    1.0000 </r>
       <r>    5.6153    1.0000 </r>
       <r>    5.8735    1.0000 </r>
       <r>    6.0045    1.0000 </r>
       <r>    6.0603    1.0000 </r>
       <r>    6.2775    1.0000 </r>
       <r>    6.3746    1.0000 </r>
       <r>    6.5278    1.0000 </r>
       <r>    6.6626    1.0000 </r>
       <r>    6.8246    1.0000 </r>
       <r>    6.9898    1.0000 </r>
       <r>    7.0444    1.0000 </r>
       <r>    7.2123    1.0000 </r>
       <r>    7.6521    1.0345 </r>
       <r>    8.1174   -0.0351 </r>
       <r>    8.1572   -0.0326 </r>
       <r>    8.3912   -0.0009 </r>
       <r>    8.5173   -0.0000 </r>
       <r>    8.7596   -0.0000 </r>
       <r>    8.9102   -0.0000 </r>
       <r>    9.0388   -0.0000 </r>
       <r>    9.1257   -0.0000 </r>
       <r>    9.2354   -0.0000 </r>
       <r>    9.5076   -0.0000 </r>
       <r>    9.5881   -0.0000 </r>
       <r>    9.7223   -0.0000 </r>
       <r>    9.8127   -0.0000 </r>
       <r>   10.0778   -0.0000 </r>
       <r>   10.2853   -0.0000 </r>
       <r>   10.4430   -0.0000 </r>
       <r>   10.5791   -0.0000 </r>
       <r>   10.8438   -0.0000 </r>
       <r>   11.0366   -0.0000 </r>
       <r>   11.0831   -0.0000 </r>
       <r>   11.2209   -0.0000 </r>
       <r>   11.2899   -0.0000 </r>
       <r>   11.4588   -0.0000 </r>
      </set>
      <set comment="kpoint 10">
       <r>   -3.0873    1.0000 </r>
       <r>   -1.9519    1.0000 </r>
       <r>   -1.3529    1.0000 </r>
       <r>   -0.7643    1.0000 </r>
       <r>   -0.5537    1.0000 </r>
       <r>   -0.4051    1.0000 </r>
       <r>   -0.3337    1.0000 </r>
       <r>    0.1952    1.0000 </r>
       <r>    0.4040    1.0000 </r>
       <r>    0.5929    1.0000 </r>
       <r>    1.1303    1.0000 </r>
       <r>    1.4987    1.0000 </r>
       <r>    1.7281    1.0000 </r>
       <r>    2.0374    1.0000 </r>
       <r>    2.3955    1.0000 </r>
       <r>    2.5460    1.0000 </r>
       <r>    2.8672    1.0000 </r>
       <r>    3.0470    1.0000 </r>
       <r>    3.7497    1.0000 </r>
       <r>    3.8781    1.0000 </r>
       <r>    4.3146    1.0000 </r>
       <r>    4.4779    1.0000 </r>
       <r>    4.6946    1.0000 </r>
       <r>    4.7956    1.0000 </r>
       <r>    5.0670    1.0000 </r>
       <r>    5.1698    1.0000 </r>
       <r>    5.2415    1.0000 </r>
       <r>    5.4512    1.0000 </r>
       <r>    5.6454    1.0000 </r>
       <r>    5.8047    1.0000 </r>
       <r>    5.9985    1.0000 </r>
       <r>    6.1019    1.0000 </r>
       <r>    6.2474    1.0000 </r>
       <r>    6.5164    1.0000 </r>
       <r>    6.5747    1.0000 </r>
       <r>    6.7083    1.0000 </r>
       <r>    6.7757    1.0000 </r>
       <r>    6.9633    1.0000 </r>
       <r>    6.9983    1.0000 </r>
       <r>    7.2783    1.0001 </r>
       <r>    7.7031    1.0104 </r>
       <r>    8.0845   -0.0264 </r>
       <r>    8.1943   -0.0249 </r>
       <r>    8.3846   -0.0011 </r>
       <r>    8.6053   -0.0000 </r>
       <r>    8.7159   -0.0000 </r>
       <r>    8.8493   -0.0000 </r>
       <r>    8.9552   -0.0000 </r>
       <r>    9.1645   -0.0000 </r>
       <r>    9.3006   -0.0000 </r>
       <r>    9.4323   -0.0000 </r>
       <r>    9.5395   -0.0000 </r>
       <r>    9.7296   -0.0000 </r>
       <r>    9.7943   -0.0000 </r>
       <r>   10.1328   -0.0000 </r>
       <r>   10.2667   -0.0000 </r>
       <r>   10.3836   -0.0000 </r>
       <r>   10.5205   -0.0000 </r>
       <r>   10.9280   -0.0000 </r>
       <r>   11.0133   -0.0000 </r>
       <r>   11.0452   -0.0000 </r>
       <r>   11.2617   -0.0000 </r>
       <r>   11.3851   -0.0000 </r>
       <r>   11.4873   -0.0000 </r>
      </set>
      <set comment="kpoint 11">
       <r>   -3.0908    1.0000 </r>
       <r>   -1.9399    1.0000 </r>
       <r>   -1.2825    1.0000 </r>
       <r>   -0.9297    1.0000 </r>
       <r>   -0.4939    1.0000 </r>
       <r>   -0.4595    1.0000 </r>
       <r>   -0.1866    1.0000 </r>
       <r>    0.0066    1.0000 </r>
       <r>    0.3983    1.0000 </r>
       <r>    0.7246    1.0000 </r>
       <r>    1.1560    1.0000 </r>
       <r>    1.4950    1.0000 </r>
       <r>    1.8645    1.0000 </r>
       <r>    2.0068    1.0000 </r>
       <r>    2.2514    1.0000 </r>
       <r>    2.6120    1.0000 </r>
       <r>    2.7664    1.0000 </r>
       <r>    3.0935    1.0000 </r>
       <r>    3.6904    1.0000 </r>
       <r>    3.9920    1.0000 </r>
       <r>    4.3038    1.0000 </r>
       <r>    4.4558    1.0000 </r>
       <r>    4.6453    1.0000 </r>
       <r>    4.7547    1.0000 </r>
       <r>    4.9113    1.0000 </r>
       <r>    5.1943    1.0000 </r>
       <r>    5.3276    1.0000 </r>
       <r>    5.4880    1.0000 </r>
       <r>    5.7191    1.0000 </r>
       <r>    5.7807    1.0000 </r>
       <r>    5.9232    1.0000 </r>
       <r>    6.1589    1.0000 </r>
       <r>    6.2902    1.0000 </r>
       <r>    6.4532    1.0000 </r>
       <r>    6.5738    1.0000 </r>
       <r>    6.7491    1.0000 </r>
       <r>    6.8243    1.0000 </r>
       <r>    7.0001    1.0000 </r>
       <r>    7.1183    1.0000 </r>
       <r>    7.2302    1.0000 </r>
       <r>    7.7221    0.9900 </r>
       <r>    7.9960    0.0940 </r>
       <r>    8.1157   -0.0349 </r>
       <r>    8.3772   -0.0013 </r>
       <r>    8.5826   -0.0000 </r>
       <r>    8.7786   -0.0000 </r>
       <r>    8.8411   -0.0000 </r>
       <r>    8.9153   -0.0000 </r>
       <r>    9.2050   -0.0000 </r>
       <r>    9.2549   -0.0000 </r>
       <r>    9.5392   -0.0000 </r>
       <r>    9.6268   -0.0000 </r>
       <r>    9.6695   -0.0000 </r>
       <r>    9.7426   -0.0000 </r>
       <r>   10.1462   -0.0000 </r>
       <r>   10.1871   -0.0000 </r>
       <r>   10.3655   -0.0000 </r>
       <r>   10.5506   -0.0000 </r>
       <r>   10.7281   -0.0000 </r>
       <r>   10.9025   -0.0000 </r>
       <r>   11.2443   -0.0000 </r>
       <r>   11.3213   -0.0000 </r>
       <r>   11.4516   -0.0000 </r>
       <r>   11.5940   -0.0000 </r>
      </set>
      <set comment="kpoint 12">
       <r>   -3.0931    1.0000 </r>
       <r>   -1.9235    1.0000 </r>
       <r>   -1.3140    1.0000 </r>
       <r>   -0.9016    1.0000 </r>
       <r>   -0.7060    1.0000 </r>
       <r>   -0.2507    1.0000 </r>
       <r>   -0.1330    1.0000 </r>
       <r>    0.2284    1.0000 </r>
       <r>    0.2806    1.0000 </r>
       <r>    0.5315    1.0000 </r>
       <r>    1.1108    1.0000 </r>
       <r>    1.4408    1.0000 </r>
       <r>    1.7817    1.0000 </r>
       <r>    2.0849    1.0000 </r>
       <r>    2.4477    1.0000 </r>
       <r>    2.5666    1.0000 </r>
       <r>    2.8711    1.0000 </r>
       <r>    2.9408    1.0000 </r>
       <r>    3.7830    1.0000 </r>
       <r>    3.9366    1.0000 </r>
       <r>    4.2835    1.0000 </r>
       <r>    4.4552    1.0000 </r>
       <r>    4.7637    1.0000 </r>
       <r>    4.8472    1.0000 </r>
       <r>    4.9856    1.0000 </r>
       <r>    5.1038    1.0000 </r>
       <r>    5.2169    1.0000 </r>
       <r>    5.4647    1.0000 </r>
       <r>    5.7625    1.0000 </r>
       <r>    5.8250    1.0000 </r>
       <r>    5.9988    1.0000 </r>
       <r>    6.0723    1.0000 </r>
       <r>    6.1991    1.0000 </r>
       <r>    6.4107    1.0000 </r>
       <r>    6.5666    1.0000 </r>
       <r>    6.6831    1.0000 </r>
       <r>    6.8217    1.0000 </r>
       <r>    6.9409    1.0000 </r>
       <r>    7.0757    1.0000 </r>
       <r>    7.3450    1.0005 </r>
       <r>    7.6833    1.0245 </r>
       <r>    7.8337    0.6979 </r>
       <r>    8.1810   -0.0279 </r>
       <r>    8.4544   -0.0002 </r>
       <r>    8.6501   -0.0000 </r>
       <r>    8.7530   -0.0000 </r>
       <r>    8.8621   -0.0000 </r>
       <r>    9.0286   -0.0000 </r>
       <r>    9.0886   -0.0000 </r>
       <r>    9.2053   -0.0000 </r>
       <r>    9.4935   -0.0000 </r>
       <r>    9.6263   -0.0000 </r>
       <r>    9.6964   -0.0000 </r>
       <r>    9.8002   -0.0000 </r>
       <r>   10.1594   -0.0000 </r>
       <r>   10.2346   -0.0000 </r>
       <r>   10.5054   -0.0000 </r>
       <r>   10.6829   -0.0000 </r>
       <r>   10.8776   -0.0000 </r>
       <r>   10.9369   -0.0000 </r>
       <r>   11.1098   -0.0000 </r>
       <r>   11.2656   -0.0000 </r>
       <r>   11.3484   -0.0000 </r>
       <r>   11.4526   -0.0000 </r>
      </set>
      <set comment="kpoint 13">
       <r>   -3.0881    1.0000 </r>
       <r>   -1.9373    1.0000 </r>
       <r>   -1.3374    1.0000 </r>
       <r>   -0.8693    1.0000 </r>
       <r>   -0.6678    1.0000 </r>
       <r>   -0.3399    1.0000 </r>
       <r>   -0.1115    1.0000 </r>
       <r>    0.1564    1.0000 </r>
       <r>    0.3396    1.0000 </r>
       <r>    0.6293    1.0000 </r>
       <r>    1.1399    1.0000 </r>
       <r>    1.4461    1.0000 </r>
       <r>    1.7733    1.0000 </r>
       <r>    1.9737    1.0000 </r>
       <r>    2.4183    1.0000 </r>
       <r>    2.5868    1.0000 </r>
       <r>    2.8506    1.0000 </r>
       <r>    2.9688    1.0000 </r>
       <r>    3.8114    1.0000 </r>
       <r>    3.9711    1.0000 </r>
       <r>    4.1363    1.0000 </r>
       <r>    4.5320    1.0000 </r>
       <r>    4.7443    1.0000 </r>
       <r>    4.8357    1.0000 </r>
       <r>    4.9604    1.0000 </r>
       <r>    5.1696    1.0000 </r>
       <r>    5.2056    1.0000 </r>
       <r>    5.5294    1.0000 </r>
       <r>    5.7361    1.0000 </r>
       <r>    5.9102    1.0000 </r>
       <r>    5.9594    1.0000 </r>
       <r>    6.1063    1.0000 </r>
       <r>    6.1982    1.0000 </r>
       <r>    6.3506    1.0000 </r>
       <r>    6.5106    1.0000 </r>
       <r>    6.6613    1.0000 </r>
       <r>    6.8124    1.0000 </r>
       <r>    7.0328    1.0000 </r>
       <r>    7.1097    1.0000 </r>
       <r>    7.2966    1.0001 </r>
       <r>    7.6896    1.0207 </r>
       <r>    7.9838    0.1250 </r>
       <r>    8.0927   -0.0298 </r>
       <r>    8.4253   -0.0004 </r>
       <r>    8.6358   -0.0000 </r>
       <r>    8.7182   -0.0000 </r>
       <r>    8.8807   -0.0000 </r>
       <r>    9.0095   -0.0000 </r>
       <r>    9.1788   -0.0000 </r>
       <r>    9.2556   -0.0000 </r>
       <r>    9.5060   -0.0000 </r>
       <r>    9.6410   -0.0000 </r>
       <r>    9.6822   -0.0000 </r>
       <r>    9.7543   -0.0000 </r>
       <r>   10.0819   -0.0000 </r>
       <r>   10.2783   -0.0000 </r>
       <r>   10.4505   -0.0000 </r>
       <r>   10.5809   -0.0000 </r>
       <r>   10.8618   -0.0000 </r>
       <r>   10.8834   -0.0000 </r>
       <r>   11.1284   -0.0000 </r>
       <r>   11.3027   -0.0000 </r>
       <r>   11.3438   -0.0000 </r>
       <r>   11.4415   -0.0000 </r>
      </set>
      <set comment="kpoint 14">
       <r>   -3.0837    1.0000 </r>
       <r>   -1.9613    1.0000 </r>
       <r>   -1.3550    1.0000 </r>
       <r>   -0.8036    1.0000 </r>
       <r>   -0.6223    1.0000 </r>
       <r>   -0.3480    1.0000 </r>
       <r>   -0.1980    1.0000 </r>
       <r>    0.1349    1.0000 </r>
       <r>    0.4769    1.0000 </r>
       <r>    0.5670    1.0000 </r>
       <r>    1.0967    1.0000 </r>
       <r>    1.3925    1.0000 </r>
       <r>    1.7855    1.0000 </r>
       <r>    1.9920    1.0000 </r>
       <r>    2.5084    1.0000 </r>
       <r>    2.5352    1.0000 </r>
       <r>    2.7990    1.0000 </r>
       <r>    3.0221    1.0000 </r>
       <r>    3.8141    1.0000 </r>
       <r>    3.9265    1.0000 </r>
       <r>    4.2932    1.0000 </r>
       <r>    4.3807    1.0000 </r>
       <r>    4.7471    1.0000 </r>
       <r>    4.8286    1.0000 </r>
       <r>    5.0612    1.0000 </r>
       <r>    5.0859    1.0000 </r>
       <r>    5.3324    1.0000 </r>
       <r>    5.3892    1.0000 </r>
       <r>    5.6870    1.0000 </r>
       <r>    5.9319    1.0000 </r>
       <r>    6.0097    1.0000 </r>
       <r>    6.0495    1.0000 </r>
       <r>    6.2202    1.0000 </r>
       <r>    6.3820    1.0000 </r>
       <r>    6.5767    1.0000 </r>
       <r>    6.7225    1.0000 </r>
       <r>    6.8522    1.0000 </r>
       <r>    6.8982    1.0000 </r>
       <r>    7.0830    1.0000 </r>
       <r>    7.3056    1.0002 </r>
       <r>    7.7348    0.9719 </r>
       <r>    7.9631    0.1861 </r>
       <r>    8.1638   -0.0314 </r>
       <r>    8.3646   -0.0017 </r>
       <r>    8.5599   -0.0000 </r>
       <r>    8.7032   -0.0000 </r>
       <r>    8.9172   -0.0000 </r>
       <r>    8.9471   -0.0000 </r>
       <r>    9.1557   -0.0000 </r>
       <r>    9.2723   -0.0000 </r>
       <r>    9.4753   -0.0000 </r>
       <r>    9.6295   -0.0000 </r>
       <r>    9.7496   -0.0000 </r>
       <r>    9.7816   -0.0000 </r>
       <r>   10.1607   -0.0000 </r>
       <r>   10.2387   -0.0000 </r>
       <r>   10.4283   -0.0000 </r>
       <r>   10.5764   -0.0000 </r>
       <r>   10.8522   -0.0000 </r>
       <r>   10.9563   -0.0000 </r>
       <r>   11.1428   -0.0000 </r>
       <r>   11.2412   -0.0000 </r>
       <r>   11.3847   -0.0000 </r>
       <r>   11.4354   -0.0000 </r>
      </set>
      <set comment="kpoint 15">
       <r>   -3.0974    1.0000 </r>
       <r>   -1.8944    1.0000 </r>
       <r>   -1.3255    1.0000 </r>
       <r>   -0.8981    1.0000 </r>
       <r>   -0.5711    1.0000 </r>
       <r>   -0.4522    1.0000 </r>
       <r>   -0.2285    1.0000 </r>
       <r>    0.0470    1.0000 </r>
       <r>    0.4771    1.0000 </r>
       <r>    0.6619    1.0000 </r>
       <r>    1.2415    1.0000 </r>
       <r>    1.4945    1.0000 </r>
       <r>    1.7566    1.0000 </r>
       <r>    2.0645    1.0000 </r>
       <r>    2.2489    1.0000 </r>
       <r>    2.5390    1.0000 </r>
       <r>    2.8569    1.0000 </r>
       <r>    3.1701    1.0000 </r>
       <r>    3.6119    1.0000 </r>
       <r>    3.9693    1.0000 </r>
       <r>    4.2750    1.0000 </r>
       <r>    4.5038    1.0000 </r>
       <r>    4.6136    1.0000 </r>
       <r>    4.7652    1.0000 </r>
       <r>    4.8907    1.0000 </r>
       <r>    5.1916    1.0000 </r>
       <r>    5.2554    1.0000 </r>
       <r>    5.5516    1.0000 </r>
       <r>    5.6734    1.0000 </r>
       <r>    5.7864    1.0000 </r>
       <r>    6.0299    1.0000 </r>
       <r>    6.1165    1.0000 </r>
       <r>    6.3143    1.0000 </r>
       <r>    6.5070    1.0000 </r>
       <r>    6.5866    1.0000 </r>
       <r>    6.7093    1.0000 </r>
       <r>    6.7894    1.0000 </r>
       <r>    6.9182    1.0000 </r>
       <r>    7.1464    1.0000 </r>
       <r>    7.2822    1.0001 </r>
       <r>    7.7047    1.0090 </r>
       <r>    8.0165    0.0501 </r>
       <r>    8.1109   -0.0343 </r>
       <r>    8.3222   -0.0040 </r>
       <r>    8.5898   -0.0000 </r>
       <r>    8.7810   -0.0000 </r>
       <r>    8.8699   -0.0000 </r>
       <r>    9.0090   -0.0000 </r>
       <r>    9.1169   -0.0000 </r>
       <r>    9.2542   -0.0000 </r>
       <r>    9.5128   -0.0000 </r>
       <r>    9.6078   -0.0000 </r>
       <r>    9.7219   -0.0000 </r>
       <r>    9.7584   -0.0000 </r>
       <r>   10.1587   -0.0000 </r>
       <r>   10.1990   -0.0000 </r>
       <r>   10.3557   -0.0000 </r>
       <r>   10.5687   -0.0000 </r>
       <r>   10.7262   -0.0000 </r>
       <r>   10.9044   -0.0000 </r>
       <r>   11.1608   -0.0000 </r>
       <r>   11.3363   -0.0000 </r>
       <r>   11.4305   -0.0000 </r>
       <r>   11.5933   -0.0000 </r>
      </set>
      <set comment="kpoint 16">
       <r>   -3.0883    1.0000 </r>
       <r>   -1.9454    1.0000 </r>
       <r>   -1.3552    1.0000 </r>
       <r>   -0.7909    1.0000 </r>
       <r>   -0.6074    1.0000 </r>
       <r>   -0.4203    1.0000 </r>
       <r>   -0.1863    1.0000 </r>
       <r>    0.2253    1.0000 </r>
       <r>    0.3664    1.0000 </r>
       <r>    0.5692    1.0000 </r>
       <r>    1.0731    1.0000 </r>
       <r>    1.4136    1.0000 </r>
       <r>    1.8489    1.0000 </r>
       <r>    2.0343    1.0000 </r>
       <r>    2.3885    1.0000 </r>
       <r>    2.5557    1.0000 </r>
       <r>    2.8724    1.0000 </r>
       <r>    3.0372    1.0000 </r>
       <r>    3.7259    1.0000 </r>
       <r>    3.8865    1.0000 </r>
       <r>    4.2743    1.0000 </r>
       <r>    4.5845    1.0000 </r>
       <r>    4.7087    1.0000 </r>
       <r>    4.8339    1.0000 </r>
       <r>    4.9727    1.0000 </r>
       <r>    5.1359    1.0000 </r>
       <r>    5.2455    1.0000 </r>
       <r>    5.5273    1.0000 </r>
       <r>    5.7179    1.0000 </r>
       <r>    5.8754    1.0000 </r>
       <r>    6.0001    1.0000 </r>
       <r>    6.0555    1.0000 </r>
       <r>    6.2040    1.0000 </r>
       <r>    6.3623    1.0000 </r>
       <r>    6.6021    1.0000 </r>
       <r>    6.7158    1.0000 </r>
       <r>    6.7974    1.0000 </r>
       <r>    6.8679    1.0000 </r>
       <r>    7.0760    1.0000 </r>
       <r>    7.1927    1.0000 </r>
       <r>    7.7281    0.9819 </r>
       <r>    8.0201    0.0436 </r>
       <r>    8.1565   -0.0327 </r>
       <r>    8.4069   -0.0007 </r>
       <r>    8.6111   -0.0000 </r>
       <r>    8.7758   -0.0000 </r>
       <r>    8.8954   -0.0000 </r>
       <r>    8.9574   -0.0000 </r>
       <r>    9.1511   -0.0000 </r>
       <r>    9.2589   -0.0000 </r>
       <r>    9.5424   -0.0000 </r>
       <r>    9.6262   -0.0000 </r>
       <r>    9.6845   -0.0000 </r>
       <r>    9.7873   -0.0000 </r>
       <r>   10.1514   -0.0000 </r>
       <r>   10.3190   -0.0000 </r>
       <r>   10.4145   -0.0000 </r>
       <r>   10.5479   -0.0000 </r>
       <r>   10.7895   -0.0000 </r>
       <r>   10.9293   -0.0000 </r>
       <r>   11.1486   -0.0000 </r>
       <r>   11.2427   -0.0000 </r>
       <r>   11.3808   -0.0000 </r>
       <r>   11.4725   -0.0000 </r>
      </set>
      <set comment="kpoint 17">
       <r>   -2.7764    1.0000 </r>
       <r>   -2.4405    1.0000 </r>
       <r>   -1.3357    1.0000 </r>
       <r>   -1.1154    1.0000 </r>
       <r>   -0.6794    1.0000 </r>
       <r>   -0.3617    1.0000 </r>
       <r>   -0.2229    1.0000 </r>
       <r>    0.3271    1.0000 </r>
       <r>    0.5713    1.0000 </r>
       <r>    0.9896    1.0000 </r>
       <r>    1.3376    1.0000 </r>
       <r>    1.6044    1.0000 </r>
       <r>    1.8212    1.0000 </r>
       <r>    2.2742    1.0000 </r>
       <r>    2.5812    1.0000 </r>
       <r>    2.7780    1.0000 </r>
       <r>    3.0997    1.0000 </r>
       <r>    3.2496    1.0000 </r>
       <r>    3.5790    1.0000 </r>
       <r>    3.6908    1.0000 </r>
       <r>    3.8180    1.0000 </r>
       <r>    4.0020    1.0000 </r>
       <r>    4.1940    1.0000 </r>
       <r>    4.3481    1.0000 </r>
       <r>    4.6327    1.0000 </r>
       <r>    4.7225    1.0000 </r>
       <r>    5.1610    1.0000 </r>
       <r>    5.1806    1.0000 </r>
       <r>    5.3895    1.0000 </r>
       <r>    5.5117    1.0000 </r>
       <r>    5.8369    1.0000 </r>
       <r>    5.9490    1.0000 </r>
       <r>    6.2664    1.0000 </r>
       <r>    6.3463    1.0000 </r>
       <r>    6.5369    1.0000 </r>
       <r>    6.6224    1.0000 </r>
       <r>    6.7334    1.0000 </r>
       <r>    7.6850    1.0235 </r>
       <r>    7.8401    0.6732 </r>
       <r>    7.9068    0.3960 </r>
       <r>    8.0078    0.0674 </r>
       <r>    8.2705   -0.0096 </r>
       <r>    8.4370   -0.0003 </r>
       <r>    8.6241   -0.0000 </r>
       <r>    8.6816   -0.0000 </r>
       <r>    8.9879   -0.0000 </r>
       <r>    9.0668   -0.0000 </r>
       <r>    9.2303   -0.0000 </r>
       <r>    9.4575   -0.0000 </r>
       <r>    9.5928   -0.0000 </r>
       <r>    9.8192   -0.0000 </r>
       <r>    9.9308   -0.0000 </r>
       <r>   10.0590   -0.0000 </r>
       <r>   10.2072   -0.0000 </r>
       <r>   10.2779   -0.0000 </r>
       <r>   10.4363   -0.0000 </r>
       <r>   10.5497   -0.0000 </r>
       <r>   10.7118   -0.0000 </r>
       <r>   10.8329   -0.0000 </r>
       <r>   10.8714   -0.0000 </r>
       <r>   10.9459   -0.0000 </r>
       <r>   11.1064   -0.0000 </r>
       <r>   11.3004   -0.0000 </r>
       <r>   11.5745   -0.0000 </r>
      </set>
      <set comment="kpoint 18">
       <r>   -2.7634    1.0000 </r>
       <r>   -2.4601    1.0000 </r>
       <r>   -1.3452    1.0000 </r>
       <r>   -0.9557    1.0000 </r>
       <r>   -0.8618    1.0000 </r>
       <r>   -0.3478    1.0000 </r>
       <r>   -0.2257    1.0000 </r>
       <r>    0.1903    1.0000 </r>
       <r>    0.6664    1.0000 </r>
       <r>    1.1769    1.0000 </r>
       <r>    1.3957    1.0000 </r>
       <r>    1.5877    1.0000 </r>
       <r>    1.7124    1.0000 </r>
       <r>    2.3093    1.0000 </r>
       <r>    2.6353    1.0000 </r>
       <r>    2.7866    1.0000 </r>
       <r>    2.9771    1.0000 </r>
       <r>    3.1755    1.0000 </r>
       <r>    3.5078    1.0000 </r>
       <r>    3.7446    1.0000 </r>
       <r>    3.9648    1.0000 </r>
       <r>    3.9940    1.0000 </r>
       <r>    4.1399    1.0000 </r>
       <r>    4.2056    1.0000 </r>
       <r>    4.5202    1.0000 </r>
       <r>    4.6877    1.0000 </r>
       <r>    5.1159    1.0000 </r>
       <r>    5.2289    1.0000 </r>
       <r>    5.5524    1.0000 </r>
       <r>    5.6169    1.0000 </r>
       <r>    5.8910    1.0000 </r>
       <r>    5.9481    1.0000 </r>
       <r>    6.1775    1.0000 </r>
       <r>    6.3814    1.0000 </r>
       <r>    6.5085    1.0000 </r>
       <r>    6.6964    1.0000 </r>
       <r>    6.8278    1.0000 </r>
       <r>    7.6720    1.0296 </r>
       <r>    7.8129    0.7741 </r>
       <r>    7.8823    0.4987 </r>
       <r>    8.0087    0.0656 </r>
       <r>    8.3869   -0.0010 </r>
       <r>    8.4361   -0.0003 </r>
       <r>    8.5704   -0.0000 </r>
       <r>    8.7725   -0.0000 </r>
       <r>    8.9098   -0.0000 </r>
       <r>    9.0252   -0.0000 </r>
       <r>    9.1759   -0.0000 </r>
       <r>    9.3570   -0.0000 </r>
       <r>    9.6770   -0.0000 </r>
       <r>    9.8255   -0.0000 </r>
       <r>    9.9294   -0.0000 </r>
       <r>   10.0704   -0.0000 </r>
       <r>   10.1940   -0.0000 </r>
       <r>   10.3181   -0.0000 </r>
       <r>   10.4732   -0.0000 </r>
       <r>   10.5377   -0.0000 </r>
       <r>   10.6303   -0.0000 </r>
       <r>   10.7150   -0.0000 </r>
       <r>   10.7884   -0.0000 </r>
       <r>   10.9046   -0.0000 </r>
       <r>   11.1853   -0.0000 </r>
       <r>   11.3275   -0.0000 </r>
       <r>   11.5283   -0.0000 </r>
      </set>
      <set comment="kpoint 19">
       <r>   -2.8286    1.0000 </r>
       <r>   -2.3454    1.0000 </r>
       <r>   -1.3481    1.0000 </r>
       <r>   -0.9932    1.0000 </r>
       <r>   -0.9192    1.0000 </r>
       <r>   -0.3242    1.0000 </r>
       <r>   -0.2506    1.0000 </r>
       <r>    0.1817    1.0000 </r>
       <r>    0.6731    1.0000 </r>
       <r>    1.1869    1.0000 </r>
       <r>    1.4653    1.0000 </r>
       <r>    1.6099    1.0000 </r>
       <r>    1.7271    1.0000 </r>
       <r>    2.2694    1.0000 </r>
       <r>    2.6119    1.0000 </r>
       <r>    2.8286    1.0000 </r>
       <r>    3.0269    1.0000 </r>
       <r>    3.1544    1.0000 </r>
       <r>    3.5170    1.0000 </r>
       <r>    3.7523    1.0000 </r>
       <r>    3.9405    1.0000 </r>
       <r>    4.0422    1.0000 </r>
       <r>    4.0991    1.0000 </r>
       <r>    4.1511    1.0000 </r>
       <r>    4.4417    1.0000 </r>
       <r>    4.7500    1.0000 </r>
       <r>    5.0881    1.0000 </r>
       <r>    5.1879    1.0000 </r>
       <r>    5.4545    1.0000 </r>
       <r>    5.6724    1.0000 </r>
       <r>    5.8315    1.0000 </r>
       <r>    6.0614    1.0000 </r>
       <r>    6.1629    1.0000 </r>
       <r>    6.3727    1.0000 </r>
       <r>    6.6120    1.0000 </r>
       <r>    6.6783    1.0000 </r>
       <r>    6.8349    1.0000 </r>
       <r>    7.6924    1.0188 </r>
       <r>    7.7825    0.8688 </r>
       <r>    7.8648    0.5727 </r>
       <r>    8.0439    0.0076 </r>
       <r>    8.2763   -0.0088 </r>
       <r>    8.4389   -0.0003 </r>
       <r>    8.5117   -0.0000 </r>
       <r>    8.8125   -0.0000 </r>
       <r>    8.9586   -0.0000 </r>
       <r>    9.0431   -0.0000 </r>
       <r>    9.1867   -0.0000 </r>
       <r>    9.3439   -0.0000 </r>
       <r>    9.7021   -0.0000 </r>
       <r>    9.8052   -0.0000 </r>
       <r>    9.8944   -0.0000 </r>
       <r>   10.1140   -0.0000 </r>
       <r>   10.1540   -0.0000 </r>
       <r>   10.3963   -0.0000 </r>
       <r>   10.4527   -0.0000 </r>
       <r>   10.5080   -0.0000 </r>
       <r>   10.6591   -0.0000 </r>
       <r>   10.8192   -0.0000 </r>
       <r>   10.8681   -0.0000 </r>
       <r>   10.9825   -0.0000 </r>
       <r>   11.1491   -0.0000 </r>
       <r>   11.2447   -0.0000 </r>
       <r>   11.5152   -0.0000 </r>
      </set>
      <set comment="kpoint 20">
       <r>   -2.8280    1.0000 </r>
       <r>   -2.3468    1.0000 </r>
       <r>   -1.3083    1.0000 </r>
       <r>   -1.0856    1.0000 </r>
       <r>   -0.8766    1.0000 </r>
       <r>   -0.3363    1.0000 </r>
       <r>   -0.2423    1.0000 </r>
       <r>    0.1900    1.0000 </r>
       <r>    0.7118    1.0000 </r>
       <r>    1.2066    1.0000 </r>
       <r>    1.4664    1.0000 </r>
       <r>    1.5581    1.0000 </r>
       <r>    1.6928    1.0000 </r>
       <r>    2.2753    1.0000 </r>
       <r>    2.7047    1.0000 </r>
       <r>    2.8218    1.0000 </r>
       <r>    2.9734    1.0000 </r>
       <r>    3.1337    1.0000 </r>
       <r>    3.5018    1.0000 </r>
       <r>    3.7591    1.0000 </r>
       <r>    3.9463    1.0000 </r>
       <r>    3.9753    1.0000 </r>
       <r>    4.0855    1.0000 </r>
       <r>    4.1996    1.0000 </r>
       <r>    4.6157    1.0000 </r>
       <r>    4.6815    1.0000 </r>
       <r>    5.0503    1.0000 </r>
       <r>    5.2019    1.0000 </r>
       <r>    5.4876    1.0000 </r>
       <r>    5.5356    1.0000 </r>
       <r>    5.8981    1.0000 </r>
       <r>    6.0166    1.0000 </r>
       <r>    6.0948    1.0000 </r>
       <r>    6.4847    1.0000 </r>
       <r>    6.6602    1.0000 </r>
       <r>    6.7184    1.0000 </r>
       <r>    6.7890    1.0000 </r>
       <r>    7.6805    1.0259 </r>
       <r>    7.7427    0.9587 </r>
       <r>    7.8504    0.6319 </r>
       <r>    8.0655   -0.0143 </r>
       <r>    8.2559   -0.0119 </r>
       <r>    8.3728   -0.0014 </r>
       <r>    8.5402   -0.0000 </r>
       <r>    8.8707   -0.0000 </r>
       <r>    8.9829   -0.0000 </r>
       <r>    9.0605   -0.0000 </r>
       <r>    9.2047   -0.0000 </r>
       <r>    9.3656   -0.0000 </r>
       <r>    9.7187   -0.0000 </r>
       <r>    9.8293   -0.0000 </r>
       <r>    9.9746   -0.0000 </r>
       <r>   10.0092   -0.0000 </r>
       <r>   10.1483   -0.0000 </r>
       <r>   10.3696   -0.0000 </r>
       <r>   10.4667   -0.0000 </r>
       <r>   10.5487   -0.0000 </r>
       <r>   10.5959   -0.0000 </r>
       <r>   10.7283   -0.0000 </r>
       <r>   10.7861   -0.0000 </r>
       <r>   10.8958   -0.0000 </r>
       <r>   11.2120   -0.0000 </r>
       <r>   11.3409   -0.0000 </r>
       <r>   11.5315   -0.0000 </r>
      </set>
      <set comment="kpoint 21">
       <r>   -2.7419    1.0000 </r>
       <r>   -2.4873    1.0000 </r>
       <r>   -1.3303    1.0000 </r>
       <r>   -1.1326    1.0000 </r>
       <r>   -0.6232    1.0000 </r>
       <r>   -0.4146    1.0000 </r>
       <r>   -0.2269    1.0000 </r>
       <r>    0.3336    1.0000 </r>
       <r>    0.6027    1.0000 </r>
       <r>    1.1221    1.0000 </r>
       <r>    1.2906    1.0000 </r>
       <r>    1.5217    1.0000 </r>
       <r>    1.8311    1.0000 </r>
       <r>    2.3109    1.0000 </r>
       <r>    2.5322    1.0000 </r>
       <r>    2.7639    1.0000 </r>
       <r>    2.9869    1.0000 </r>
       <r>    3.2175    1.0000 </r>
       <r>    3.6536    1.0000 </r>
       <r>    3.6920    1.0000 </r>
       <r>    3.7895    1.0000 </r>
       <r>    4.1271    1.0000 </r>
       <r>    4.1938    1.0000 </r>
       <r>    4.3642    1.0000 </r>
       <r>    4.5478    1.0000 </r>
       <r>    4.7159    1.0000 </r>
       <r>    5.1271    1.0000 </r>
       <r>    5.2155    1.0000 </r>
       <r>    5.3870    1.0000 </r>
       <r>    5.5047    1.0000 </r>
       <r>    5.9246    1.0000 </r>
       <r>    6.0199    1.0000 </r>
       <r>    6.2155    1.0000 </r>
       <r>    6.3001    1.0000 </r>
       <r>    6.4522    1.0000 </r>
       <r>    6.6763    1.0000 </r>
       <r>    6.7744    1.0000 </r>
       <r>    7.7794    0.8772 </r>
       <r>    7.8188    0.7533 </r>
       <r>    7.9661    0.1768 </r>
       <r>    8.0504   -0.0000 </r>
       <r>    8.2203   -0.0189 </r>
       <r>    8.4706   -0.0001 </r>
       <r>    8.5530   -0.0000 </r>
       <r>    8.7535   -0.0000 </r>
       <r>    8.8997   -0.0000 </r>
       <r>    8.9414   -0.0000 </r>
       <r>    9.2957   -0.0000 </r>
       <r>    9.4319   -0.0000 </r>
       <r>    9.5961   -0.0000 </r>
       <r>    9.8884   -0.0000 </r>
       <r>    9.9569   -0.0000 </r>
       <r>   10.0184   -0.0000 </r>
       <r>   10.1626   -0.0000 </r>
       <r>   10.3128   -0.0000 </r>
       <r>   10.4726   -0.0000 </r>
       <r>   10.4978   -0.0000 </r>
       <r>   10.6270   -0.0000 </r>
       <r>   10.6692   -0.0000 </r>
       <r>   10.8511   -0.0000 </r>
       <r>   11.0025   -0.0000 </r>
       <r>   11.1910   -0.0000 </r>
       <r>   11.2996   -0.0000 </r>
       <r>   11.6038   -0.0000 </r>
      </set>
      <set comment="kpoint 22">
       <r>   -2.7619    1.0000 </r>
       <r>   -2.4648    1.0000 </r>
       <r>   -1.3192    1.0000 </r>
       <r>   -1.0218    1.0000 </r>
       <r>   -0.8056    1.0000 </r>
       <r>   -0.3415    1.0000 </r>
       <r>   -0.2536    1.0000 </r>
       <r>    0.1921    1.0000 </r>
       <r>    0.6844    1.0000 </r>
       <r>    1.1868    1.0000 </r>
       <r>    1.3371    1.0000 </r>
       <r>    1.5663    1.0000 </r>
       <r>    1.7868    1.0000 </r>
       <r>    2.2746    1.0000 </r>
       <r>    2.6493    1.0000 </r>
       <r>    2.7532    1.0000 </r>
       <r>    3.0242    1.0000 </r>
       <r>    3.1647    1.0000 </r>
       <r>    3.5280    1.0000 </r>
       <r>    3.7224    1.0000 </r>
       <r>    3.8989    1.0000 </r>
       <r>    4.0259    1.0000 </r>
       <r>    4.1862    1.0000 </r>
       <r>    4.2217    1.0000 </r>
       <r>    4.5750    1.0000 </r>
       <r>    4.7495    1.0000 </r>
       <r>    5.0467    1.0000 </r>
       <r>    5.2302    1.0000 </r>
       <r>    5.3874    1.0000 </r>
       <r>    5.5492    1.0000 </r>
       <r>    5.9214    1.0000 </r>
       <r>    6.0588    1.0000 </r>
       <r>    6.1372    1.0000 </r>
       <r>    6.3316    1.0000 </r>
       <r>    6.6246    1.0000 </r>
       <r>    6.7271    1.0000 </r>
       <r>    6.8146    1.0000 </r>
       <r>    7.7246    0.9866 </r>
       <r>    7.7724    0.8953 </r>
       <r>    7.8874    0.4772 </r>
       <r>    8.0702   -0.0179 </r>
       <r>    8.2605   -0.0111 </r>
       <r>    8.4119   -0.0006 </r>
       <r>    8.5330   -0.0000 </r>
       <r>    8.7962   -0.0000 </r>
       <r>    8.9219   -0.0000 </r>
       <r>    9.0630   -0.0000 </r>
       <r>    9.1473   -0.0000 </r>
       <r>    9.3844   -0.0000 </r>
       <r>    9.7311   -0.0000 </r>
       <r>    9.7756   -0.0000 </r>
       <r>    9.8773   -0.0000 </r>
       <r>   10.1398   -0.0000 </r>
       <r>   10.2153   -0.0000 </r>
       <r>   10.3054   -0.0000 </r>
       <r>   10.4386   -0.0000 </r>
       <r>   10.5072   -0.0000 </r>
       <r>   10.6341   -0.0000 </r>
       <r>   10.7414   -0.0000 </r>
       <r>   10.8545   -0.0000 </r>
       <r>   10.9309   -0.0000 </r>
       <r>   11.1525   -0.0000 </r>
       <r>   11.2450   -0.0000 </r>
       <r>   11.4859   -0.0000 </r>
      </set>
      <set comment="kpoint 23">
       <r>   -2.7605    1.0000 </r>
       <r>   -2.4689    1.0000 </r>
       <r>   -1.2476    1.0000 </r>
       <r>   -1.1486    1.0000 </r>
       <r>   -0.7595    1.0000 </r>
       <r>   -0.3335    1.0000 </r>
       <r>   -0.1637    1.0000 </r>
       <r>    0.1100    1.0000 </r>
       <r>    0.6559    1.0000 </r>
       <r>    1.1493    1.0000 </r>
       <r>    1.4100    1.0000 </r>
       <r>    1.5549    1.0000 </r>
       <r>    1.7703    1.0000 </r>
       <r>    2.2696    1.0000 </r>
       <r>    2.6220    1.0000 </r>
       <r>    2.8477    1.0000 </r>
       <r>    2.9786    1.0000 </r>
       <r>    3.1238    1.0000 </r>
       <r>    3.6255    1.0000 </r>
       <r>    3.7560    1.0000 </r>
       <r>    3.8289    1.0000 </r>
       <r>    3.9814    1.0000 </r>
       <r>    4.1891    1.0000 </r>
       <r>    4.3897    1.0000 </r>
       <r>    4.4905    1.0000 </r>
       <r>    4.7235    1.0000 </r>
       <r>    5.0954    1.0000 </r>
       <r>    5.2179    1.0000 </r>
       <r>    5.2802    1.0000 </r>
       <r>    5.5100    1.0000 </r>
       <r>    5.8664    1.0000 </r>
       <r>    6.0624    1.0000 </r>
       <r>    6.3112    1.0000 </r>
       <r>    6.3516    1.0000 </r>
       <r>    6.6057    1.0000 </r>
       <r>    6.7153    1.0000 </r>
       <r>    6.8169    1.0000 </r>
       <r>    7.6115    1.0334 </r>
       <r>    7.7492    0.9468 </r>
       <r>    7.8726    0.5400 </r>
       <r>    8.1287   -0.0354 </r>
       <r>    8.2638   -0.0106 </r>
       <r>    8.3647   -0.0017 </r>
       <r>    8.5704   -0.0000 </r>
       <r>    8.8040   -0.0000 </r>
       <r>    8.9148   -0.0000 </r>
       <r>    9.0658   -0.0000 </r>
       <r>    9.2376   -0.0000 </r>
       <r>    9.4645   -0.0000 </r>
       <r>    9.6426   -0.0000 </r>
       <r>    9.7229   -0.0000 </r>
       <r>    9.9633   -0.0000 </r>
       <r>   10.0147   -0.0000 </r>
       <r>   10.2223   -0.0000 </r>
       <r>   10.2835   -0.0000 </r>
       <r>   10.4660   -0.0000 </r>
       <r>   10.5647   -0.0000 </r>
       <r>   10.6450   -0.0000 </r>
       <r>   10.7131   -0.0000 </r>
       <r>   10.8148   -0.0000 </r>
       <r>   10.9525   -0.0000 </r>
       <r>   11.2553   -0.0000 </r>
       <r>   11.2936   -0.0000 </r>
       <r>   11.4656   -0.0000 </r>
      </set>
      <set comment="kpoint 24">
       <r>   -2.7736    1.0000 </r>
       <r>   -2.4468    1.0000 </r>
       <r>   -1.2339    1.0000 </r>
       <r>   -1.1182    1.0000 </r>
       <r>   -0.9355    1.0000 </r>
       <r>   -0.2478    1.0000 </r>
       <r>   -0.0783    1.0000 </r>
       <r>    0.2023    1.0000 </r>
       <r>    0.5631    1.0000 </r>
       <r>    1.1644    1.0000 </r>
       <r>    1.3744    1.0000 </r>
       <r>    1.4538    1.0000 </r>
       <r>    1.7091    1.0000 </r>
       <r>    2.3434    1.0000 </r>
       <r>    2.6985    1.0000 </r>
       <r>    2.8432    1.0000 </r>
       <r>    2.9763    1.0000 </r>
       <r>    3.1050    1.0000 </r>
       <r>    3.6013    1.0000 </r>
       <r>    3.7141    1.0000 </r>
       <r>    3.8945    1.0000 </r>
       <r>    4.0353    1.0000 </r>
       <r>    4.1912    1.0000 </r>
       <r>    4.3461    1.0000 </r>
       <r>    4.5778    1.0000 </r>
       <r>    4.6467    1.0000 </r>
       <r>    5.1163    1.0000 </r>
       <r>    5.1632    1.0000 </r>
       <r>    5.4137    1.0000 </r>
       <r>    5.6192    1.0000 </r>
       <r>    5.8160    1.0000 </r>
       <r>    6.0420    1.0000 </r>
       <r>    6.2016    1.0000 </r>
       <r>    6.4072    1.0000 </r>
       <r>    6.4612    1.0000 </r>
       <r>    6.7119    1.0000 </r>
       <r>    6.8017    1.0000 </r>
       <r>    7.5343    1.0169 </r>
       <r>    7.7174    0.9957 </r>
       <r>    7.8744    0.5322 </r>
       <r>    8.0591   -0.0087 </r>
       <r>    8.2952   -0.0064 </r>
       <r>    8.4242   -0.0004 </r>
       <r>    8.6935   -0.0000 </r>
       <r>    8.8295   -0.0000 </r>
       <r>    8.9903   -0.0000 </r>
       <r>    9.0746   -0.0000 </r>
       <r>    9.1118   -0.0000 </r>
       <r>    9.5196   -0.0000 </r>
       <r>    9.7141   -0.0000 </r>
       <r>    9.8107   -0.0000 </r>
       <r>    9.9321   -0.0000 </r>
       <r>   10.0483   -0.0000 </r>
       <r>   10.1473   -0.0000 </r>
       <r>   10.2454   -0.0000 </r>
       <r>   10.4692   -0.0000 </r>
       <r>   10.5382   -0.0000 </r>
       <r>   10.6030   -0.0000 </r>
       <r>   10.7218   -0.0000 </r>
       <r>   10.8025   -0.0000 </r>
       <r>   10.8860   -0.0000 </r>
       <r>   11.1905   -0.0000 </r>
       <r>   11.3474   -0.0000 </r>
       <r>   11.5555   -0.0000 </r>
      </set>
      <set comment="kpoint 25">
       <r>   -2.7389    1.0000 </r>
       <r>   -2.4934    1.0000 </r>
       <r>   -1.2925    1.0000 </r>
       <r>   -1.0296    1.0000 </r>
       <r>   -0.9429    1.0000 </r>
       <r>   -0.2494    1.0000 </r>
       <r>   -0.1061    1.0000 </r>
       <r>    0.2078    1.0000 </r>
       <r>    0.5882    1.0000 </r>
       <r>    1.2184    1.0000 </r>
       <r>    1.3039    1.0000 </r>
       <r>    1.5690    1.0000 </r>
       <r>    1.6646    1.0000 </r>
       <r>    2.3404    1.0000 </r>
       <r>    2.5731    1.0000 </r>
       <r>    2.8465    1.0000 </r>
       <r>    2.9269    1.0000 </r>
       <r>    3.1677    1.0000 </r>
       <r>    3.5290    1.0000 </r>
       <r>    3.7302    1.0000 </r>
       <r>    3.9056    1.0000 </r>
       <r>    4.0768    1.0000 </r>
       <r>    4.2214    1.0000 </r>
       <r>    4.3582    1.0000 </r>
       <r>    4.5395    1.0000 </r>
       <r>    4.6683    1.0000 </r>
       <r>    5.1442    1.0000 </r>
       <r>    5.2596    1.0000 </r>
       <r>    5.3526    1.0000 </r>
       <r>    5.4697    1.0000 </r>
       <r>    5.9266    1.0000 </r>
       <r>    6.0666    1.0000 </r>
       <r>    6.2813    1.0000 </r>
       <r>    6.3117    1.0000 </r>
       <r>    6.4753    1.0000 </r>
       <r>    6.6021    1.0000 </r>
       <r>    6.9071    1.0000 </r>
       <r>    7.5650    1.0238 </r>
       <r>    7.7097    1.0042 </r>
       <r>    7.9238    0.3274 </r>
       <r>    8.0987   -0.0318 </r>
       <r>    8.4129   -0.0006 </r>
       <r>    8.4407   -0.0003 </r>
       <r>    8.5501   -0.0000 </r>
       <r>    8.8372   -0.0000 </r>
       <r>    8.9558   -0.0000 </r>
       <r>    9.0211   -0.0000 </r>
       <r>    9.1052   -0.0000 </r>
       <r>    9.3974   -0.0000 </r>
       <r>    9.7083   -0.0000 </r>
       <r>    9.8300   -0.0000 </r>
       <r>    9.9619   -0.0000 </r>
       <r>   10.0510   -0.0000 </r>
       <r>   10.1401   -0.0000 </r>
       <r>   10.2342   -0.0000 </r>
       <r>   10.4120   -0.0000 </r>
       <r>   10.5681   -0.0000 </r>
       <r>   10.6176   -0.0000 </r>
       <r>   10.7550   -0.0000 </r>
       <r>   10.8298   -0.0000 </r>
       <r>   10.9216   -0.0000 </r>
       <r>   11.1146   -0.0000 </r>
       <r>   11.2941   -0.0000 </r>
       <r>   11.5873   -0.0000 </r>
      </set>
      <set comment="kpoint 26">
       <r>   -2.7418    1.0000 </r>
       <r>   -2.4859    1.0000 </r>
       <r>   -1.3483    1.0000 </r>
       <r>   -0.9971    1.0000 </r>
       <r>   -0.8812    1.0000 </r>
       <r>   -0.2926    1.0000 </r>
       <r>   -0.1832    1.0000 </r>
       <r>    0.2942    1.0000 </r>
       <r>    0.6024    1.0000 </r>
       <r>    1.1490    1.0000 </r>
       <r>    1.3950    1.0000 </r>
       <r>    1.5269    1.0000 </r>
       <r>    1.6719    1.0000 </r>
       <r>    2.3333    1.0000 </r>
       <r>    2.6319    1.0000 </r>
       <r>    2.7778    1.0000 </r>
       <r>    2.9035    1.0000 </r>
       <r>    3.1743    1.0000 </r>
       <r>    3.5750    1.0000 </r>
       <r>    3.7195    1.0000 </r>
       <r>    3.9407    1.0000 </r>
       <r>    4.0169    1.0000 </r>
       <r>    4.1574    1.0000 </r>
       <r>    4.3805    1.0000 </r>
       <r>    4.5234    1.0000 </r>
       <r>    4.6542    1.0000 </r>
       <r>    5.2223    1.0000 </r>
       <r>    5.2926    1.0000 </r>
       <r>    5.4639    1.0000 </r>
       <r>    5.5095    1.0000 </r>
       <r>    5.7980    1.0000 </r>
       <r>    6.0316    1.0000 </r>
       <r>    6.1589    1.0000 </r>
       <r>    6.3661    1.0000 </r>
       <r>    6.4921    1.0000 </r>
       <r>    6.6722    1.0000 </r>
       <r>    6.8363    1.0000 </r>
       <r>    7.6396    1.0354 </r>
       <r>    7.7152    0.9983 </r>
       <r>    7.8801    0.5084 </r>
       <r>    8.1531   -0.0333 </r>
       <r>    8.3050   -0.0054 </r>
       <r>    8.4298   -0.0004 </r>
       <r>    8.6234   -0.0000 </r>
       <r>    8.7761   -0.0000 </r>
       <r>    8.9171   -0.0000 </r>
       <r>    9.0675   -0.0000 </r>
       <r>    9.2105   -0.0000 </r>
       <r>    9.4083   -0.0000 </r>
       <r>    9.7052   -0.0000 </r>
       <r>    9.7392   -0.0000 </r>
       <r>    9.9571   -0.0000 </r>
       <r>   10.1305   -0.0000 </r>
       <r>   10.1573   -0.0000 </r>
       <r>   10.2833   -0.0000 </r>
       <r>   10.3744   -0.0000 </r>
       <r>   10.4744   -0.0000 </r>
       <r>   10.6319   -0.0000 </r>
       <r>   10.6993   -0.0000 </r>
       <r>   10.8838   -0.0000 </r>
       <r>   10.9000   -0.0000 </r>
       <r>   11.1859   -0.0000 </r>
       <r>   11.3233   -0.0000 </r>
       <r>   11.5390   -0.0000 </r>
      </set>
      <set comment="kpoint 27">
       <r>   -2.8283    1.0000 </r>
       <r>   -2.3474    1.0000 </r>
       <r>   -1.3000    1.0000 </r>
       <r>   -1.1640    1.0000 </r>
       <r>   -0.7388    1.0000 </r>
       <r>   -0.3842    1.0000 </r>
       <r>   -0.2213    1.0000 </r>
       <r>    0.1489    1.0000 </r>
       <r>    0.6562    1.0000 </r>
       <r>    1.2561    1.0000 </r>
       <r>    1.4429    1.0000 </r>
       <r>    1.5436    1.0000 </r>
       <r>    1.7433    1.0000 </r>
       <r>    2.2811    1.0000 </r>
       <r>    2.6290    1.0000 </r>
       <r>    2.8386    1.0000 </r>
       <r>    3.0221    1.0000 </r>
       <r>    3.0922    1.0000 </r>
       <r>    3.6510    1.0000 </r>
       <r>    3.7266    1.0000 </r>
       <r>    3.8363    1.0000 </r>
       <r>    3.9631    1.0000 </r>
       <r>    4.1698    1.0000 </r>
       <r>    4.3403    1.0000 </r>
       <r>    4.4564    1.0000 </r>
       <r>    4.7162    1.0000 </r>
       <r>    5.0530    1.0000 </r>
       <r>    5.1931    1.0000 </r>
       <r>    5.3821    1.0000 </r>
       <r>    5.5408    1.0000 </r>
       <r>    5.8575    1.0000 </r>
       <r>    5.9753    1.0000 </r>
       <r>    6.2518    1.0000 </r>
       <r>    6.4416    1.0000 </r>
       <r>    6.6281    1.0000 </r>
       <r>    6.7606    1.0000 </r>
       <r>    6.8224    1.0000 </r>
       <r>    7.6385    1.0355 </r>
       <r>    7.7682    0.9056 </r>
       <r>    7.8669    0.5638 </r>
       <r>    8.0265    0.0325 </r>
       <r>    8.1942   -0.0249 </r>
       <r>    8.3936   -0.0009 </r>
       <r>    8.5457   -0.0000 </r>
       <r>    8.8158   -0.0000 </r>
       <r>    8.9840   -0.0000 </r>
       <r>    9.1112   -0.0000 </r>
       <r>    9.2342   -0.0000 </r>
       <r>    9.4415   -0.0000 </r>
       <r>    9.5961   -0.0000 </r>
       <r>    9.7699   -0.0000 </r>
       <r>   10.0199   -0.0000 </r>
       <r>   10.0978   -0.0000 </r>
       <r>   10.1189   -0.0000 </r>
       <r>   10.2320   -0.0000 </r>
       <r>   10.5149   -0.0000 </r>
       <r>   10.5895   -0.0000 </r>
       <r>   10.6593   -0.0000 </r>
       <r>   10.7159   -0.0000 </r>
       <r>   10.8213   -0.0000 </r>
       <r>   11.0426   -0.0000 </r>
       <r>   11.2577   -0.0000 </r>
       <r>   11.3189   -0.0000 </r>
       <r>   11.4528   -0.0000 </r>
      </set>
      <set comment="kpoint 28">
       <r>   -2.7751    1.0000 </r>
       <r>   -2.4435    1.0000 </r>
       <r>   -1.3250    1.0000 </r>
       <r>   -1.0301    1.0000 </r>
       <r>   -0.8688    1.0000 </r>
       <r>   -0.3436    1.0000 </r>
       <r>   -0.0825    1.0000 </r>
       <r>    0.2372    1.0000 </r>
       <r>    0.5386    1.0000 </r>
       <r>    1.1838    1.0000 </r>
       <r>    1.3154    1.0000 </r>
       <r>    1.5193    1.0000 </r>
       <r>    1.7525    1.0000 </r>
       <r>    2.3212    1.0000 </r>
       <r>    2.6255    1.0000 </r>
       <r>    2.8367    1.0000 </r>
       <r>    2.9815    1.0000 </r>
       <r>    3.1282    1.0000 </r>
       <r>    3.6306    1.0000 </r>
       <r>    3.7399    1.0000 </r>
       <r>    3.9037    1.0000 </r>
       <r>    4.0512    1.0000 </r>
       <r>    4.1646    1.0000 </r>
       <r>    4.3651    1.0000 </r>
       <r>    4.5079    1.0000 </r>
       <r>    4.6704    1.0000 </r>
       <r>    5.0813    1.0000 </r>
       <r>    5.2278    1.0000 </r>
       <r>    5.4541    1.0000 </r>
       <r>    5.5526    1.0000 </r>
       <r>    5.8696    1.0000 </r>
       <r>    5.9963    1.0000 </r>
       <r>    6.2056    1.0000 </r>
       <r>    6.3928    1.0000 </r>
       <r>    6.4490    1.0000 </r>
       <r>    6.6360    1.0000 </r>
       <r>    6.8310    1.0000 </r>
       <r>    7.6099    1.0331 </r>
       <r>    7.7168    0.9964 </r>
       <r>    7.8862    0.4825 </r>
       <r>    8.1023   -0.0327 </r>
       <r>    8.3442   -0.0026 </r>
       <r>    8.4064   -0.0007 </r>
       <r>    8.5889   -0.0000 </r>
       <r>    8.8462   -0.0000 </r>
       <r>    8.9554   -0.0000 </r>
       <r>    9.0350   -0.0000 </r>
       <r>    9.1454   -0.0000 </r>
       <r>    9.4448   -0.0000 </r>
       <r>    9.7122   -0.0000 </r>
       <r>    9.8507   -0.0000 </r>
       <r>    9.9748   -0.0000 </r>
       <r>   10.0375   -0.0000 </r>
       <r>   10.1143   -0.0000 </r>
       <r>   10.2266   -0.0000 </r>
       <r>   10.4657   -0.0000 </r>
       <r>   10.5435   -0.0000 </r>
       <r>   10.6523   -0.0000 </r>
       <r>   10.7676   -0.0000 </r>
       <r>   10.8289   -0.0000 </r>
       <r>   10.9461   -0.0000 </r>
       <r>   11.1496   -0.0000 </r>
       <r>   11.3752   -0.0000 </r>
       <r>   11.5133   -0.0000 </r>
      </set>
      <set comment="kpoint 29">
       <r>   -3.2061    1.0000 </r>
       <r>   -1.6309    1.0000 </r>
       <r>   -1.1744    1.0000 </r>
       <r>   -0.9849    1.0000 </r>
       <r>   -0.5898    1.0000 </r>
       <r>   -0.3665    1.0000 </r>
       <r>   -0.0470    1.0000 </r>
       <r>    0.1032    1.0000 </r>
       <r>    0.4076    1.0000 </r>
       <r>    0.6566    1.0000 </r>
       <r>    0.7207    1.0000 </r>
       <r>    1.1675    1.0000 </r>
       <r>    1.2943    1.0000 </r>
       <r>    1.7116    1.0000 </r>
       <r>    2.3598    1.0000 </r>
       <r>    2.7353    1.0000 </r>
       <r>    2.9224    1.0000 </r>
       <r>    3.5538    1.0000 </r>
       <r>    3.6631    1.0000 </r>
       <r>    3.9289    1.0000 </r>
       <r>    4.5538    1.0000 </r>
       <r>    4.7005    1.0000 </r>
       <r>    4.8965    1.0000 </r>
       <r>    5.1510    1.0000 </r>
       <r>    5.2586    1.0000 </r>
       <r>    5.3734    1.0000 </r>
       <r>    5.4882    1.0000 </r>
       <r>    5.6581    1.0000 </r>
       <r>    5.6864    1.0000 </r>
       <r>    5.8624    1.0000 </r>
       <r>    6.0216    1.0000 </r>
       <r>    6.1789    1.0000 </r>
       <r>    6.2808    1.0000 </r>
       <r>    6.4669    1.0000 </r>
       <r>    6.4992    1.0000 </r>
       <r>    6.7439    1.0000 </r>
       <r>    6.8729    1.0000 </r>
       <r>    6.9900    1.0000 </r>
       <r>    7.2765    1.0001 </r>
       <r>    7.3507    1.0006 </r>
       <r>    7.5468    1.0196 </r>
       <r>    7.6871    1.0223 </r>
       <r>    7.7990    0.8200 </r>
       <r>    7.9564    0.2082 </r>
       <r>    8.0702   -0.0179 </r>
       <r>    8.1240   -0.0354 </r>
       <r>    8.5039   -0.0000 </r>
       <r>    8.8603   -0.0000 </r>
       <r>    8.9994   -0.0000 </r>
       <r>    9.1273   -0.0000 </r>
       <r>    9.3551   -0.0000 </r>
       <r>    9.4090   -0.0000 </r>
       <r>    9.5715   -0.0000 </r>
       <r>    9.7131   -0.0000 </r>
       <r>    9.8083   -0.0000 </r>
       <r>    9.8695   -0.0000 </r>
       <r>   10.1313   -0.0000 </r>
       <r>   10.1910   -0.0000 </r>
       <r>   10.6096   -0.0000 </r>
       <r>   10.9329   -0.0000 </r>
       <r>   11.1379   -0.0000 </r>
       <r>   11.3591   -0.0000 </r>
       <r>   11.6762   -0.0000 </r>
       <r>   11.8222   -0.0000 </r>
      </set>
      <set comment="kpoint 30">
       <r>   -3.2051    1.0000 </r>
       <r>   -1.6355    1.0000 </r>
       <r>   -1.1272    1.0000 </r>
       <r>   -0.9861    1.0000 </r>
       <r>   -0.6605    1.0000 </r>
       <r>   -0.3946    1.0000 </r>
       <r>   -0.0937    1.0000 </r>
       <r>    0.1168    1.0000 </r>
       <r>    0.4316    1.0000 </r>
       <r>    0.6659    1.0000 </r>
       <r>    0.8423    1.0000 </r>
       <r>    1.1848    1.0000 </r>
       <r>    1.3849    1.0000 </r>
       <r>    1.5881    1.0000 </r>
       <r>    2.3564    1.0000 </r>
       <r>    2.7047    1.0000 </r>
       <r>    2.8714    1.0000 </r>
       <r>    3.5900    1.0000 </r>
       <r>    3.6981    1.0000 </r>
       <r>    3.8204    1.0000 </r>
       <r>    4.6213    1.0000 </r>
       <r>    4.6528    1.0000 </r>
       <r>    4.7976    1.0000 </r>
       <r>    5.1988    1.0000 </r>
       <r>    5.2711    1.0000 </r>
       <r>    5.3557    1.0000 </r>
       <r>    5.4823    1.0000 </r>
       <r>    5.6115    1.0000 </r>
       <r>    5.7674    1.0000 </r>
       <r>    5.8203    1.0000 </r>
       <r>    6.0552    1.0000 </r>
       <r>    6.2071    1.0000 </r>
       <r>    6.3206    1.0000 </r>
       <r>    6.4511    1.0000 </r>
       <r>    6.6055    1.0000 </r>
       <r>    6.7745    1.0000 </r>
       <r>    6.9236    1.0000 </r>
       <r>    7.0749    1.0000 </r>
       <r>    7.1571    1.0000 </r>
       <r>    7.3465    1.0005 </r>
       <r>    7.6560    1.0339 </r>
       <r>    7.6673    1.0312 </r>
       <r>    7.7597    0.9251 </r>
       <r>    7.8857    0.4844 </r>
       <r>    8.0343    0.0205 </r>
       <r>    8.2930   -0.0067 </r>
       <r>    8.4514   -0.0002 </r>
       <r>    8.8605   -0.0000 </r>
       <r>    8.9117   -0.0000 </r>
       <r>    9.0721   -0.0000 </r>
       <r>    9.2652   -0.0000 </r>
       <r>    9.4079   -0.0000 </r>
       <r>    9.5474   -0.0000 </r>
       <r>    9.6274   -0.0000 </r>
       <r>    9.8132   -0.0000 </r>
       <r>    9.8888   -0.0000 </r>
       <r>   10.1338   -0.0000 </r>
       <r>   10.1898   -0.0000 </r>
       <r>   10.6367   -0.0000 </r>
       <r>   10.9613   -0.0000 </r>
       <r>   11.2817   -0.0000 </r>
       <r>   11.4367   -0.0000 </r>
       <r>   11.6455   -0.0000 </r>
       <r>   11.7218   -0.0000 </r>
      </set>
      <set comment="kpoint 31">
       <r>   -3.2085    1.0000 </r>
       <r>   -1.6025    1.0000 </r>
       <r>   -1.1163    1.0000 </r>
       <r>   -0.9552    1.0000 </r>
       <r>   -0.8045    1.0000 </r>
       <r>   -0.3448    1.0000 </r>
       <r>   -0.1128    1.0000 </r>
       <r>    0.2453    1.0000 </r>
       <r>    0.3136    1.0000 </r>
       <r>    0.6502    1.0000 </r>
       <r>    0.9524    1.0000 </r>
       <r>    1.1011    1.0000 </r>
       <r>    1.3902    1.0000 </r>
       <r>    1.5844    1.0000 </r>
       <r>    2.3182    1.0000 </r>
       <r>    2.7378    1.0000 </r>
       <r>    2.9667    1.0000 </r>
       <r>    3.6262    1.0000 </r>
       <r>    3.7236    1.0000 </r>
       <r>    3.7703    1.0000 </r>
       <r>    4.5045    1.0000 </r>
       <r>    4.6016    1.0000 </r>
       <r>    4.7531    1.0000 </r>
       <r>    5.2143    1.0000 </r>
       <r>    5.2765    1.0000 </r>
       <r>    5.4761    1.0000 </r>
       <r>    5.5147    1.0000 </r>
       <r>    5.6253    1.0000 </r>
       <r>    5.7028    1.0000 </r>
       <r>    5.8628    1.0000 </r>
       <r>    6.0100    1.0000 </r>
       <r>    6.2255    1.0000 </r>
       <r>    6.3174    1.0000 </r>
       <r>    6.4836    1.0000 </r>
       <r>    6.5418    1.0000 </r>
       <r>    6.7188    1.0000 </r>
       <r>    6.9707    1.0000 </r>
       <r>    7.0994    1.0000 </r>
       <r>    7.1587    1.0000 </r>
       <r>    7.3868    1.0013 </r>
       <r>    7.5799    1.0272 </r>
       <r>    7.7236    0.9880 </r>
       <r>    7.8056    0.7988 </r>
       <r>    7.8679    0.5597 </r>
       <r>    8.0384    0.0147 </r>
       <r>    8.2122   -0.0207 </r>
       <r>    8.4181   -0.0005 </r>
       <r>    8.8520   -0.0000 </r>
       <r>    8.9547   -0.0000 </r>
       <r>    9.0754   -0.0000 </r>
       <r>    9.2670   -0.0000 </r>
       <r>    9.4235   -0.0000 </r>
       <r>    9.4843   -0.0000 </r>
       <r>    9.7385   -0.0000 </r>
       <r>    9.8274   -0.0000 </r>
       <r>    9.9384   -0.0000 </r>
       <r>   10.0176   -0.0000 </r>
       <r>   10.1687   -0.0000 </r>
       <r>   10.6619   -0.0000 </r>
       <r>   11.0347   -0.0000 </r>
       <r>   11.2586   -0.0000 </r>
       <r>   11.2954   -0.0000 </r>
       <r>   11.6958   -0.0000 </r>
       <r>   11.8374   -0.0000 </r>
      </set>
      <set comment="kpoint 32">
       <r>   -3.2076    1.0000 </r>
       <r>   -1.5918    1.0000 </r>
       <r>   -1.1111    1.0000 </r>
       <r>   -1.0575    1.0000 </r>
       <r>   -0.6749    1.0000 </r>
       <r>   -0.4038    1.0000 </r>
       <r>   -0.1317    1.0000 </r>
       <r>    0.1725    1.0000 </r>
       <r>    0.4661    1.0000 </r>
       <r>    0.6888    1.0000 </r>
       <r>    0.8371    1.0000 </r>
       <r>    1.1700    1.0000 </r>
       <r>    1.3989    1.0000 </r>
       <r>    1.5586    1.0000 </r>
       <r>    2.3407    1.0000 </r>
       <r>    2.6907    1.0000 </r>
       <r>    2.9115    1.0000 </r>
       <r>    3.6176    1.0000 </r>
       <r>    3.7118    1.0000 </r>
       <r>    3.8221    1.0000 </r>
       <r>    4.5460    1.0000 </r>
       <r>    4.6412    1.0000 </r>
       <r>    4.7351    1.0000 </r>
       <r>    5.1601    1.0000 </r>
       <r>    5.2952    1.0000 </r>
       <r>    5.4647    1.0000 </r>
       <r>    5.5135    1.0000 </r>
       <r>    5.5747    1.0000 </r>
       <r>    5.7784    1.0000 </r>
       <r>    5.8237    1.0000 </r>
       <r>    6.0502    1.0000 </r>
       <r>    6.1966    1.0000 </r>
       <r>    6.3835    1.0000 </r>
       <r>    6.4447    1.0000 </r>
       <r>    6.5339    1.0000 </r>
       <r>    6.6287    1.0000 </r>
       <r>    7.0700    1.0000 </r>
       <r>    7.1414    1.0000 </r>
       <r>    7.2188    1.0000 </r>
       <r>    7.3176    1.0002 </r>
       <r>    7.5664    1.0241 </r>
       <r>    7.7048    1.0089 </r>
       <r>    7.7801    0.8752 </r>
       <r>    7.8292    0.7152 </r>
       <r>    8.1417   -0.0347 </r>
       <r>    8.2353   -0.0158 </r>
       <r>    8.3879   -0.0010 </r>
       <r>    8.7648   -0.0000 </r>
       <r>    8.9745   -0.0000 </r>
       <r>    9.0547   -0.0000 </r>
       <r>    9.3624   -0.0000 </r>
       <r>    9.4534   -0.0000 </r>
       <r>    9.5626   -0.0000 </r>
       <r>    9.6258   -0.0000 </r>
       <r>    9.8114   -0.0000 </r>
       <r>    9.9233   -0.0000 </r>
       <r>   10.0323   -0.0000 </r>
       <r>   10.1687   -0.0000 </r>
       <r>   10.5736   -0.0000 </r>
       <r>   11.0661   -0.0000 </r>
       <r>   11.2626   -0.0000 </r>
       <r>   11.3429   -0.0000 </r>
       <r>   11.7065   -0.0000 </r>
       <r>   11.7713   -0.0000 </r>
      </set>
      <set comment="kpoint 33">
       <r>   -3.2041    1.0000 </r>
       <r>   -1.6444    1.0000 </r>
       <r>   -1.1631    1.0000 </r>
       <r>   -0.9975    1.0000 </r>
       <r>   -0.5672    1.0000 </r>
       <r>   -0.3951    1.0000 </r>
       <r>   -0.0249    1.0000 </r>
       <r>    0.0916    1.0000 </r>
       <r>    0.4119    1.0000 </r>
       <r>    0.6918    1.0000 </r>
       <r>    0.7519    1.0000 </r>
       <r>    1.1001    1.0000 </r>
       <r>    1.3217    1.0000 </r>
       <r>    1.6999    1.0000 </r>
       <r>    2.3831    1.0000 </r>
       <r>    2.6412    1.0000 </r>
       <r>    2.9056    1.0000 </r>
       <r>    3.6017    1.0000 </r>
       <r>    3.7486    1.0000 </r>
       <r>    3.9172    1.0000 </r>
       <r>    4.5825    1.0000 </r>
       <r>    4.6938    1.0000 </r>
       <r>    4.7855    1.0000 </r>
       <r>    5.1481    1.0000 </r>
       <r>    5.1884    1.0000 </r>
       <r>    5.4095    1.0000 </r>
       <r>    5.5021    1.0000 </r>
       <r>    5.6004    1.0000 </r>
       <r>    5.7478    1.0000 </r>
       <r>    5.8927    1.0000 </r>
       <r>    6.0165    1.0000 </r>
       <r>    6.2051    1.0000 </r>
       <r>    6.2471    1.0000 </r>
       <r>    6.4589    1.0000 </r>
       <r>    6.5557    1.0000 </r>
       <r>    6.7915    1.0000 </r>
       <r>    6.9136    1.0000 </r>
       <r>    7.0438    1.0000 </r>
       <r>    7.1960    1.0000 </r>
       <r>    7.3308    1.0003 </r>
       <r>    7.5475    1.0198 </r>
       <r>    7.6178    1.0342 </r>
       <r>    7.8791    0.5123 </r>
       <r>    7.9236    0.3283 </r>
       <r>    8.0609   -0.0104 </r>
       <r>    8.1851   -0.0270 </r>
       <r>    8.4940   -0.0001 </r>
       <r>    8.8508   -0.0000 </r>
       <r>    8.9908   -0.0000 </r>
       <r>    9.0809   -0.0000 </r>
       <r>    9.2793   -0.0000 </r>
       <r>    9.4715   -0.0000 </r>
       <r>    9.5458   -0.0000 </r>
       <r>    9.6952   -0.0000 </r>
       <r>    9.8245   -0.0000 </r>
       <r>    9.9880   -0.0000 </r>
       <r>   10.0597   -0.0000 </r>
       <r>   10.1678   -0.0000 </r>
       <r>   10.6284   -0.0000 </r>
       <r>   10.9447   -0.0000 </r>
       <r>   11.1374   -0.0000 </r>
       <r>   11.3967   -0.0000 </r>
       <r>   11.5760   -0.0000 </r>
       <r>   11.7648   -0.0000 </r>
      </set>
      <set comment="kpoint 34">
       <r>   -3.2048    1.0000 </r>
       <r>   -1.6547    1.0000 </r>
       <r>   -1.0770    1.0000 </r>
       <r>   -0.9630    1.0000 </r>
       <r>   -0.7291    1.0000 </r>
       <r>   -0.4148    1.0000 </r>
       <r>   -0.0916    1.0000 </r>
       <r>    0.2670    1.0000 </r>
       <r>    0.3692    1.0000 </r>
       <r>    0.5757    1.0000 </r>
       <r>    0.8916    1.0000 </r>
       <r>    1.1119    1.0000 </r>
       <r>    1.4053    1.0000 </r>
       <r>    1.6201    1.0000 </r>
       <r>    2.3288    1.0000 </r>
       <r>    2.6996    1.0000 </r>
       <r>    2.9093    1.0000 </r>
       <r>    3.6537    1.0000 </r>
       <r>    3.7492    1.0000 </r>
       <r>    3.7962    1.0000 </r>
       <r>    4.5117    1.0000 </r>
       <r>    4.6230    1.0000 </r>
       <r>    4.7882    1.0000 </r>
       <r>    5.1206    1.0000 </r>
       <r>    5.2759    1.0000 </r>
       <r>    5.4396    1.0000 </r>
       <r>    5.5279    1.0000 </r>
       <r>    5.5950    1.0000 </r>
       <r>    5.7489    1.0000 </r>
       <r>    5.8499    1.0000 </r>
       <r>    6.0864    1.0000 </r>
       <r>    6.2649    1.0000 </r>
       <r>    6.3069    1.0000 </r>
       <r>    6.4731    1.0000 </r>
       <r>    6.5787    1.0000 </r>
       <r>    6.6352    1.0000 </r>
       <r>    6.9239    1.0000 </r>
       <r>    7.0920    1.0000 </r>
       <r>    7.2461    1.0000 </r>
       <r>    7.3806    1.0011 </r>
       <r>    7.6113    1.0333 </r>
       <r>    7.6514    1.0346 </r>
       <r>    7.8143    0.7692 </r>
       <r>    7.8699    0.5513 </r>
       <r>    8.0790   -0.0235 </r>
       <r>    8.2060   -0.0221 </r>
       <r>    8.4340   -0.0003 </r>
       <r>    8.7981   -0.0000 </r>
       <r>    8.9459   -0.0000 </r>
       <r>    9.0947   -0.0000 </r>
       <r>    9.2266   -0.0000 </r>
       <r>    9.4185   -0.0000 </r>
       <r>    9.5149   -0.0000 </r>
       <r>    9.6693   -0.0000 </r>
       <r>    9.8040   -0.0000 </r>
       <r>    9.9664   -0.0000 </r>
       <r>   10.1126   -0.0000 </r>
       <r>   10.2369   -0.0000 </r>
       <r>   10.5656   -0.0000 </r>
       <r>   11.0175   -0.0000 </r>
       <r>   11.2642   -0.0000 </r>
       <r>   11.3197   -0.0000 </r>
       <r>   11.6716   -0.0000 </r>
       <r>   11.7975   -0.0000 </r>
      </set>
      <set comment="kpoint 35">
       <r>   -3.2039    1.0000 </r>
       <r>   -1.6596    1.0000 </r>
       <r>   -1.1840    1.0000 </r>
       <r>   -0.8511    1.0000 </r>
       <r>   -0.7161    1.0000 </r>
       <r>   -0.3577    1.0000 </r>
       <r>   -0.0089    1.0000 </r>
       <r>    0.1267    1.0000 </r>
       <r>    0.3595    1.0000 </r>
       <r>    0.5733    1.0000 </r>
       <r>    0.8015    1.0000 </r>
       <r>    1.2136    1.0000 </r>
       <r>    1.3215    1.0000 </r>
       <r>    1.6531    1.0000 </r>
       <r>    2.3782    1.0000 </r>
       <r>    2.6302    1.0000 </r>
       <r>    2.9458    1.0000 </r>
       <r>    3.6269    1.0000 </r>
       <r>    3.7218    1.0000 </r>
       <r>    3.9408    1.0000 </r>
       <r>    4.4370    1.0000 </r>
       <r>    4.6701    1.0000 </r>
       <r>    4.8511    1.0000 </r>
       <r>    5.1804    1.0000 </r>
       <r>    5.3130    1.0000 </r>
       <r>    5.3805    1.0000 </r>
       <r>    5.4951    1.0000 </r>
       <r>    5.6588    1.0000 </r>
       <r>    5.7224    1.0000 </r>
       <r>    5.8492    1.0000 </r>
       <r>    6.0056    1.0000 </r>
       <r>    6.0993    1.0000 </r>
       <r>    6.3077    1.0000 </r>
       <r>    6.3619    1.0000 </r>
       <r>    6.5326    1.0000 </r>
       <r>    6.7515    1.0000 </r>
       <r>    7.0852    1.0000 </r>
       <r>    7.1359    1.0000 </r>
       <r>    7.1678    1.0000 </r>
       <r>    7.3087    1.0002 </r>
       <r>    7.6008    1.0315 </r>
       <r>    7.6595    1.0332 </r>
       <r>    7.7765    0.8849 </r>
       <r>    7.9020    0.4160 </r>
       <r>    8.0502    0.0002 </r>
       <r>    8.2021   -0.0230 </r>
       <r>    8.4444   -0.0003 </r>
       <r>    8.9274   -0.0000 </r>
       <r>    8.9650   -0.0000 </r>
       <r>    9.0539   -0.0000 </r>
       <r>    9.3322   -0.0000 </r>
       <r>    9.3920   -0.0000 </r>
       <r>    9.5432   -0.0000 </r>
       <r>    9.7239   -0.0000 </r>
       <r>    9.8132   -0.0000 </r>
       <r>    9.9144   -0.0000 </r>
       <r>   10.0463   -0.0000 </r>
       <r>   10.3498   -0.0000 </r>
       <r>   10.5185   -0.0000 </r>
       <r>   10.8979   -0.0000 </r>
       <r>   11.1683   -0.0000 </r>
       <r>   11.3179   -0.0000 </r>
       <r>   11.6557   -0.0000 </r>
       <r>   11.8777   -0.0000 </r>
      </set>
      <set comment="kpoint 36">
       <r>   -3.2039    1.0000 </r>
       <r>   -1.6450    1.0000 </r>
       <r>   -1.1256    1.0000 </r>
       <r>   -0.9995    1.0000 </r>
       <r>   -0.6932    1.0000 </r>
       <r>   -0.3205    1.0000 </r>
       <r>   -0.0726    1.0000 </r>
       <r>    0.2003    1.0000 </r>
       <r>    0.4583    1.0000 </r>
       <r>    0.5451    1.0000 </r>
       <r>    0.7148    1.0000 </r>
       <r>    1.2298    1.0000 </r>
       <r>    1.4471    1.0000 </r>
       <r>    1.5645    1.0000 </r>
       <r>    2.3807    1.0000 </r>
       <r>    2.7267    1.0000 </r>
       <r>    2.7838    1.0000 </r>
       <r>    3.6124    1.0000 </r>
       <r>    3.7705    1.0000 </r>
       <r>    3.8191    1.0000 </r>
       <r>    4.5175    1.0000 </r>
       <r>    4.6176    1.0000 </r>
       <r>    4.7861    1.0000 </r>
       <r>    5.2028    1.0000 </r>
       <r>    5.3723    1.0000 </r>
       <r>    5.5105    1.0000 </r>
       <r>    5.5554    1.0000 </r>
       <r>    5.6201    1.0000 </r>
       <r>    5.7613    1.0000 </r>
       <r>    5.8406    1.0000 </r>
       <r>    6.0399    1.0000 </r>
       <r>    6.1562    1.0000 </r>
       <r>    6.2522    1.0000 </r>
       <r>    6.4310    1.0000 </r>
       <r>    6.5431    1.0000 </r>
       <r>    6.6269    1.0000 </r>
       <r>    7.0545    1.0000 </r>
       <r>    7.0723    1.0000 </r>
       <r>    7.1756    1.0000 </r>
       <r>    7.2868    1.0001 </r>
       <r>    7.5120    1.0126 </r>
       <r>    7.5932    1.0301 </r>
       <r>    7.7976    0.8244 </r>
       <r>    7.9317    0.2969 </r>
       <r>    8.1072   -0.0337 </r>
       <r>    8.2996   -0.0060 </r>
       <r>    8.4440   -0.0003 </r>
       <r>    8.8394   -0.0000 </r>
       <r>    8.9764   -0.0000 </r>
       <r>    9.0224   -0.0000 </r>
       <r>    9.2769   -0.0000 </r>
       <r>    9.4997   -0.0000 </r>
       <r>    9.6038   -0.0000 </r>
       <r>    9.6617   -0.0000 </r>
       <r>    9.8163   -0.0000 </r>
       <r>    9.9924   -0.0000 </r>
       <r>   10.1090   -0.0000 </r>
       <r>   10.1843   -0.0000 </r>
       <r>   10.5364   -0.0000 </r>
       <r>   10.9115   -0.0000 </r>
       <r>   11.2847   -0.0000 </r>
       <r>   11.3982   -0.0000 </r>
       <r>   11.6703   -0.0000 </r>
       <r>   11.6994   -0.0000 </r>
      </set>
      <set comment="kpoint 37">
       <r>   -3.2027    1.0000 </r>
       <r>   -1.6662    1.0000 </r>
       <r>   -1.0947    1.0000 </r>
       <r>   -0.9777    1.0000 </r>
       <r>   -0.7247    1.0000 </r>
       <r>   -0.3588    1.0000 </r>
       <r>    0.0122    1.0000 </r>
       <r>    0.1538    1.0000 </r>
       <r>    0.4337    1.0000 </r>
       <r>    0.5692    1.0000 </r>
       <r>    0.8070    1.0000 </r>
       <r>    1.0636    1.0000 </r>
       <r>    1.4330    1.0000 </r>
       <r>    1.6534    1.0000 </r>
       <r>    2.3630    1.0000 </r>
       <r>    2.7025    1.0000 </r>
       <r>    2.8108    1.0000 </r>
       <r>    3.6882    1.0000 </r>
       <r>    3.7287    1.0000 </r>
       <r>    3.8605    1.0000 </r>
       <r>    4.4799    1.0000 </r>
       <r>    4.6029    1.0000 </r>
       <r>    4.7385    1.0000 </r>
       <r>    5.2813    1.0000 </r>
       <r>    5.3641    1.0000 </r>
       <r>    5.3908    1.0000 </r>
       <r>    5.5563    1.0000 </r>
       <r>    5.6378    1.0000 </r>
       <r>    5.7402    1.0000 </r>
       <r>    5.8938    1.0000 </r>
       <r>    6.0143    1.0000 </r>
       <r>    6.1692    1.0000 </r>
       <r>    6.3327    1.0000 </r>
       <r>    6.4246    1.0000 </r>
       <r>    6.5340    1.0000 </r>
       <r>    6.6509    1.0000 </r>
       <r>    6.9714    1.0000 </r>
       <r>    7.0313    1.0000 </r>
       <r>    7.1867    1.0000 </r>
       <r>    7.3703    1.0009 </r>
       <r>    7.5964    1.0307 </r>
       <r>    7.6241    1.0349 </r>
       <r>    7.7981    0.8227 </r>
       <r>    7.9280    0.3110 </r>
       <r>    8.0278    0.0305 </r>
       <r>    8.2511   -0.0128 </r>
       <r>    8.4645   -0.0002 </r>
       <r>    8.8930   -0.0000 </r>
       <r>    8.9170   -0.0000 </r>
       <r>    9.0350   -0.0000 </r>
       <r>    9.2165   -0.0000 </r>
       <r>    9.4299   -0.0000 </r>
       <r>    9.5275   -0.0000 </r>
       <r>    9.7054   -0.0000 </r>
       <r>    9.8730   -0.0000 </r>
       <r>    9.9611   -0.0000 </r>
       <r>   10.1577   -0.0000 </r>
       <r>   10.3100   -0.0000 </r>
       <r>   10.5789   -0.0000 </r>
       <r>   10.8711   -0.0000 </r>
       <r>   11.2094   -0.0000 </r>
       <r>   11.3297   -0.0000 </r>
       <r>   11.6686   -0.0000 </r>
       <r>   11.7810   -0.0000 </r>
      </set>
      <set comment="kpoint 38">
       <r>   -3.2038    1.0000 </r>
       <r>   -1.6304    1.0000 </r>
       <r>   -1.1670    1.0000 </r>
       <r>   -0.9963    1.0000 </r>
       <r>   -0.6327    1.0000 </r>
       <r>   -0.3737    1.0000 </r>
       <r>   -0.1334    1.0000 </r>
       <r>    0.2736    1.0000 </r>
       <r>    0.4414    1.0000 </r>
       <r>    0.5848    1.0000 </r>
       <r>    0.7860    1.0000 </r>
       <r>    1.1144    1.0000 </r>
       <r>    1.4348    1.0000 </r>
       <r>    1.6168    1.0000 </r>
       <r>    2.3698    1.0000 </r>
       <r>    2.6528    1.0000 </r>
       <r>    2.8733    1.0000 </r>
       <r>    3.6207    1.0000 </r>
       <r>    3.7048    1.0000 </r>
       <r>    3.7799    1.0000 </r>
       <r>    4.6048    1.0000 </r>
       <r>    4.6923    1.0000 </r>
       <r>    4.7912    1.0000 </r>
       <r>    5.2323    1.0000 </r>
       <r>    5.3454    1.0000 </r>
       <r>    5.4098    1.0000 </r>
       <r>    5.4767    1.0000 </r>
       <r>    5.6212    1.0000 </r>
       <r>    5.6790    1.0000 </r>
       <r>    5.8768    1.0000 </r>
       <r>    6.0726    1.0000 </r>
       <r>    6.1933    1.0000 </r>
       <r>    6.2762    1.0000 </r>
       <r>    6.4252    1.0000 </r>
       <r>    6.5978    1.0000 </r>
       <r>    6.6947    1.0000 </r>
       <r>    6.9727    1.0000 </r>
       <r>    7.0566    1.0000 </r>
       <r>    7.1391    1.0000 </r>
       <r>    7.3124    1.0002 </r>
       <r>    7.5951    1.0304 </r>
       <r>    7.6387    1.0354 </r>
       <r>    7.8216    0.7434 </r>
       <r>    7.8869    0.4794 </r>
       <r>    8.0595   -0.0091 </r>
       <r>    8.3049   -0.0054 </r>
       <r>    8.4340   -0.0003 </r>
       <r>    8.8498   -0.0000 </r>
       <r>    8.9242   -0.0000 </r>
       <r>    9.0327   -0.0000 </r>
       <r>    9.3565   -0.0000 </r>
       <r>    9.4638   -0.0000 </r>
       <r>    9.5771   -0.0000 </r>
       <r>    9.6703   -0.0000 </r>
       <r>    9.7659   -0.0000 </r>
       <r>    9.8612   -0.0000 </r>
       <r>   10.1407   -0.0000 </r>
       <r>   10.3773   -0.0000 </r>
       <r>   10.5077   -0.0000 </r>
       <r>   10.9049   -0.0000 </r>
       <r>   11.3084   -0.0000 </r>
       <r>   11.3368   -0.0000 </r>
       <r>   11.6370   -0.0000 </r>
       <r>   11.7280   -0.0000 </r>
      </set>
      <set comment="kpoint 39">
       <r>   -3.2083    1.0000 </r>
       <r>   -1.5911    1.0000 </r>
       <r>   -1.1618    1.0000 </r>
       <r>   -1.0484    1.0000 </r>
       <r>   -0.6214    1.0000 </r>
       <r>   -0.2702    1.0000 </r>
       <r>   -0.1500    1.0000 </r>
       <r>    0.0471    1.0000 </r>
       <r>    0.4579    1.0000 </r>
       <r>    0.6752    1.0000 </r>
       <r>    0.8542    1.0000 </r>
       <r>    1.1237    1.0000 </r>
       <r>    1.3038    1.0000 </r>
       <r>    1.6484    1.0000 </r>
       <r>    2.3577    1.0000 </r>
       <r>    2.6842    1.0000 </r>
       <r>    2.9804    1.0000 </r>
       <r>    3.5675    1.0000 </r>
       <r>    3.7396    1.0000 </r>
       <r>    3.9505    1.0000 </r>
       <r>    4.4429    1.0000 </r>
       <r>    4.6658    1.0000 </r>
       <r>    4.7690    1.0000 </r>
       <r>    5.1171    1.0000 </r>
       <r>    5.3507    1.0000 </r>
       <r>    5.3995    1.0000 </r>
       <r>    5.5626    1.0000 </r>
       <r>    5.6455    1.0000 </r>
       <r>    5.7111    1.0000 </r>
       <r>    5.7894    1.0000 </r>
       <r>    6.0204    1.0000 </r>
       <r>    6.1908    1.0000 </r>
       <r>    6.2381    1.0000 </r>
       <r>    6.3717    1.0000 </r>
       <r>    6.5895    1.0000 </r>
       <r>    6.7649    1.0000 </r>
       <r>    7.0187    1.0000 </r>
       <r>    7.1052    1.0000 </r>
       <r>    7.2327    1.0000 </r>
       <r>    7.3133    1.0002 </r>
       <r>    7.5318    1.0164 </r>
       <r>    7.7279    0.9822 </r>
       <r>    7.7631    0.9175 </r>
       <r>    7.8821    0.4996 </r>
       <r>    8.0981   -0.0316 </r>
       <r>    8.1910   -0.0256 </r>
       <r>    8.4226   -0.0004 </r>
       <r>    8.8820   -0.0000 </r>
       <r>    8.9548   -0.0000 </r>
       <r>    9.1007   -0.0000 </r>
       <r>    9.3036   -0.0000 </r>
       <r>    9.4411   -0.0000 </r>
       <r>    9.5665   -0.0000 </r>
       <r>    9.6843   -0.0000 </r>
       <r>    9.8218   -0.0000 </r>
       <r>    9.9488   -0.0000 </r>
       <r>   10.0306   -0.0000 </r>
       <r>   10.2874   -0.0000 </r>
       <r>   10.4871   -0.0000 </r>
       <r>   11.0590   -0.0000 </r>
       <r>   11.1538   -0.0000 </r>
       <r>   11.2765   -0.0000 </r>
       <r>   11.7033   -0.0000 </r>
       <r>   11.9221   -0.0000 </r>
      </set>
      <set comment="kpoint 40">
       <r>   -3.2055    1.0000 </r>
       <r>   -1.6385    1.0000 </r>
       <r>   -1.1009    1.0000 </r>
       <r>   -1.0066    1.0000 </r>
       <r>   -0.7157    1.0000 </r>
       <r>   -0.3443    1.0000 </r>
       <r>   -0.0731    1.0000 </r>
       <r>    0.2586    1.0000 </r>
       <r>    0.4748    1.0000 </r>
       <r>    0.5051    1.0000 </r>
       <r>    0.6845    1.0000 </r>
       <r>    1.2438    1.0000 </r>
       <r>    1.4106    1.0000 </r>
       <r>    1.5900    1.0000 </r>
       <r>    2.3523    1.0000 </r>
       <r>    2.7544    1.0000 </r>
       <r>    2.8610    1.0000 </r>
       <r>    3.6168    1.0000 </r>
       <r>    3.6822    1.0000 </r>
       <r>    3.8590    1.0000 </r>
       <r>    4.4893    1.0000 </r>
       <r>    4.6163    1.0000 </r>
       <r>    4.8518    1.0000 </r>
       <r>    5.1596    1.0000 </r>
       <r>    5.3485    1.0000 </r>
       <r>    5.4716    1.0000 </r>
       <r>    5.5520    1.0000 </r>
       <r>    5.6164    1.0000 </r>
       <r>    5.7840    1.0000 </r>
       <r>    5.8595    1.0000 </r>
       <r>    6.0308    1.0000 </r>
       <r>    6.1421    1.0000 </r>
       <r>    6.2984    1.0000 </r>
       <r>    6.4445    1.0000 </r>
       <r>    6.5192    1.0000 </r>
       <r>    6.6361    1.0000 </r>
       <r>    6.9549    1.0000 </r>
       <r>    7.0966    1.0000 </r>
       <r>    7.2269    1.0000 </r>
       <r>    7.3254    1.0003 </r>
       <r>    7.5223    1.0145 </r>
       <r>    7.5896    1.0293 </r>
       <r>    7.7828    0.8679 </r>
       <r>    7.9098    0.3835 </r>
       <r>    8.1549   -0.0330 </r>
       <r>    8.2903   -0.0070 </r>
       <r>    8.4098   -0.0006 </r>
       <r>    8.8817   -0.0000 </r>
       <r>    8.9407   -0.0000 </r>
       <r>    9.0377   -0.0000 </r>
       <r>    9.2025   -0.0000 </r>
       <r>    9.4846   -0.0000 </r>
       <r>    9.5537   -0.0000 </r>
       <r>    9.6971   -0.0000 </r>
       <r>    9.8293   -0.0000 </r>
       <r>    9.9742   -0.0000 </r>
       <r>   10.1709   -0.0000 </r>
       <r>   10.2486   -0.0000 </r>
       <r>   10.5296   -0.0000 </r>
       <r>   10.9301   -0.0000 </r>
       <r>   11.2744   -0.0000 </r>
       <r>   11.3639   -0.0000 </r>
       <r>   11.6594   -0.0000 </r>
       <r>   11.7148   -0.0000 </r>
      </set>
      <set comment="kpoint 41">
       <r>   -2.9707    1.0000 </r>
       <r>   -1.9340    1.0000 </r>
       <r>   -1.4468    1.0000 </r>
       <r>   -1.2021    1.0000 </r>
       <r>   -1.1208    1.0000 </r>
       <r>   -0.5626    1.0000 </r>
       <r>    0.4053    1.0000 </r>
       <r>    0.5389    1.0000 </r>
       <r>    0.7443    1.0000 </r>
       <r>    1.1405    1.0000 </r>
       <r>    1.3322    1.0000 </r>
       <r>    1.4485    1.0000 </r>
       <r>    1.8172    1.0000 </r>
       <r>    1.9951    1.0000 </r>
       <r>    2.1151    1.0000 </r>
       <r>    2.2034    1.0000 </r>
       <r>    2.9892    1.0000 </r>
       <r>    3.1176    1.0000 </r>
       <r>    3.5313    1.0000 </r>
       <r>    3.6119    1.0000 </r>
       <r>    3.9402    1.0000 </r>
       <r>    4.1739    1.0000 </r>
       <r>    4.3020    1.0000 </r>
       <r>    4.6994    1.0000 </r>
       <r>    4.9496    1.0000 </r>
       <r>    5.0192    1.0000 </r>
       <r>    5.2847    1.0000 </r>
       <r>    5.4322    1.0000 </r>
       <r>    5.6127    1.0000 </r>
       <r>    5.8662    1.0000 </r>
       <r>    6.0045    1.0000 </r>
       <r>    6.0953    1.0000 </r>
       <r>    6.3892    1.0000 </r>
       <r>    6.6247    1.0000 </r>
       <r>    6.7555    1.0000 </r>
       <r>    6.9108    1.0000 </r>
       <r>    7.1110    1.0000 </r>
       <r>    7.1564    1.0000 </r>
       <r>    7.4090    1.0021 </r>
       <r>    7.6752    1.0283 </r>
       <r>    7.7062    1.0076 </r>
       <r>    7.8438    0.6586 </r>
       <r>    7.9201    0.3419 </r>
       <r>    8.0066    0.0699 </r>
       <r>    8.0848   -0.0265 </r>
       <r>    8.2071   -0.0219 </r>
       <r>    8.4879   -0.0001 </r>
       <r>    8.6482   -0.0000 </r>
       <r>    9.6055   -0.0000 </r>
       <r>    9.6572   -0.0000 </r>
       <r>    9.9697   -0.0000 </r>
       <r>   10.1700   -0.0000 </r>
       <r>   10.2993   -0.0000 </r>
       <r>   10.4464   -0.0000 </r>
       <r>   10.4691   -0.0000 </r>
       <r>   10.6466   -0.0000 </r>
       <r>   10.8384   -0.0000 </r>
       <r>   11.0262   -0.0000 </r>
       <r>   11.0924   -0.0000 </r>
       <r>   11.1766   -0.0000 </r>
       <r>   11.2603   -0.0000 </r>
       <r>   11.4138   -0.0000 </r>
       <r>   11.5102   -0.0000 </r>
       <r>   11.5432   -0.0000 </r>
      </set>
      <set comment="kpoint 42">
       <r>   -2.9743    1.0000 </r>
       <r>   -1.8884    1.0000 </r>
       <r>   -1.5256    1.0000 </r>
       <r>   -1.3486    1.0000 </r>
       <r>   -0.8686    1.0000 </r>
       <r>   -0.5340    1.0000 </r>
       <r>    0.2511    1.0000 </r>
       <r>    0.4710    1.0000 </r>
       <r>    0.8238    1.0000 </r>
       <r>    1.2046    1.0000 </r>
       <r>    1.3103    1.0000 </r>
       <r>    1.4201    1.0000 </r>
       <r>    1.6964    1.0000 </r>
       <r>    1.9825    1.0000 </r>
       <r>    2.1763    1.0000 </r>
       <r>    2.2761    1.0000 </r>
       <r>    3.0232    1.0000 </r>
       <r>    3.1659    1.0000 </r>
       <r>    3.5193    1.0000 </r>
       <r>    3.6400    1.0000 </r>
       <r>    3.9554    1.0000 </r>
       <r>    4.1595    1.0000 </r>
       <r>    4.3830    1.0000 </r>
       <r>    4.7431    1.0000 </r>
       <r>    4.9688    1.0000 </r>
       <r>    4.9963    1.0000 </r>
       <r>    5.2493    1.0000 </r>
       <r>    5.2656    1.0000 </r>
       <r>    5.6152    1.0000 </r>
       <r>    5.8969    1.0000 </r>
       <r>    5.9757    1.0000 </r>
       <r>    6.1436    1.0000 </r>
       <r>    6.3454    1.0000 </r>
       <r>    6.4215    1.0000 </r>
       <r>    6.7074    1.0000 </r>
       <r>    6.8629    1.0000 </r>
       <r>    7.1204    1.0000 </r>
       <r>    7.3201    1.0003 </r>
       <r>    7.4545    1.0050 </r>
       <r>    7.6589    1.0333 </r>
       <r>    7.7352    0.9713 </r>
       <r>    7.8373    0.6841 </r>
       <r>    7.8982    0.4319 </r>
       <r>    8.0113    0.0603 </r>
       <r>    8.1157   -0.0349 </r>
       <r>    8.3080   -0.0051 </r>
       <r>    8.4894   -0.0001 </r>
       <r>    8.5966   -0.0000 </r>
       <r>    9.6273   -0.0000 </r>
       <r>    9.7174   -0.0000 </r>
       <r>   10.0251   -0.0000 </r>
       <r>   10.1246   -0.0000 </r>
       <r>   10.2737   -0.0000 </r>
       <r>   10.3555   -0.0000 </r>
       <r>   10.5142   -0.0000 </r>
       <r>   10.6917   -0.0000 </r>
       <r>   10.8141   -0.0000 </r>
       <r>   10.9485   -0.0000 </r>
       <r>   11.1019   -0.0000 </r>
       <r>   11.2285   -0.0000 </r>
       <r>   11.2878   -0.0000 </r>
       <r>   11.3935   -0.0000 </r>
       <r>   11.4940   -0.0000 </r>
       <r>   11.6177   -0.0000 </r>
      </set>
      <set comment="kpoint 43">
       <r>   -2.9734    1.0000 </r>
       <r>   -1.8631    1.0000 </r>
       <r>   -1.5714    1.0000 </r>
       <r>   -1.2073    1.0000 </r>
       <r>   -1.0653    1.0000 </r>
       <r>   -0.5657    1.0000 </r>
       <r>    0.3328    1.0000 </r>
       <r>    0.5374    1.0000 </r>
       <r>    0.8852    1.0000 </r>
       <r>    1.1390    1.0000 </r>
       <r>    1.3162    1.0000 </r>
       <r>    1.5457    1.0000 </r>
       <r>    1.7066    1.0000 </r>
       <r>    1.9709    1.0000 </r>
       <r>    2.1338    1.0000 </r>
       <r>    2.2375    1.0000 </r>
       <r>    2.9136    1.0000 </r>
       <r>    3.0609    1.0000 </r>
       <r>    3.4954    1.0000 </r>
       <r>    3.6992    1.0000 </r>
       <r>    3.9070    1.0000 </r>
       <r>    4.1668    1.0000 </r>
       <r>    4.3105    1.0000 </r>
       <r>    4.7275    1.0000 </r>
       <r>    4.9251    1.0000 </r>
       <r>    5.0241    1.0000 </r>
       <r>    5.2507    1.0000 </r>
       <r>    5.4491    1.0000 </r>
       <r>    5.7027    1.0000 </r>
       <r>    5.9536    1.0000 </r>
       <r>    6.0225    1.0000 </r>
       <r>    6.1099    1.0000 </r>
       <r>    6.4191    1.0000 </r>
       <r>    6.4998    1.0000 </r>
       <r>    6.6955    1.0000 </r>
       <r>    6.8057    1.0000 </r>
       <r>    7.1429    1.0000 </r>
       <r>    7.2485    1.0000 </r>
       <r>    7.3560    1.0006 </r>
       <r>    7.6840    1.0241 </r>
       <r>    7.7268    0.9837 </r>
       <r>    7.8154    0.7653 </r>
       <r>    7.9480    0.2371 </r>
       <r>    8.0547   -0.0045 </r>
       <r>    8.0982   -0.0316 </r>
       <r>    8.1935   -0.0250 </r>
       <r>    8.5014   -0.0001 </r>
       <r>    8.6360   -0.0000 </r>
       <r>    9.5601   -0.0000 </r>
       <r>    9.6874   -0.0000 </r>
       <r>    9.9648   -0.0000 </r>
       <r>   10.1784   -0.0000 </r>
       <r>   10.3208   -0.0000 </r>
       <r>   10.4179   -0.0000 </r>
       <r>   10.5257   -0.0000 </r>
       <r>   10.7588   -0.0000 </r>
       <r>   10.8113   -0.0000 </r>
       <r>   10.9472   -0.0000 </r>
       <r>   11.0242   -0.0000 </r>
       <r>   11.1756   -0.0000 </r>
       <r>   11.2736   -0.0000 </r>
       <r>   11.4443   -0.0000 </r>
       <r>   11.4937   -0.0000 </r>
       <r>   11.5478   -0.0000 </r>
      </set>
      <set comment="kpoint 44">
       <r>   -2.9766    1.0000 </r>
       <r>   -1.8874    1.0000 </r>
       <r>   -1.5097    1.0000 </r>
       <r>   -1.2291    1.0000 </r>
       <r>   -1.0580    1.0000 </r>
       <r>   -0.5671    1.0000 </r>
       <r>    0.3148    1.0000 </r>
       <r>    0.5603    1.0000 </r>
       <r>    0.8811    1.0000 </r>
       <r>    1.0377    1.0000 </r>
       <r>    1.2331    1.0000 </r>
       <r>    1.5494    1.0000 </r>
       <r>    1.8567    1.0000 </r>
       <r>    2.0100    1.0000 </r>
       <r>    2.1157    1.0000 </r>
       <r>    2.2277    1.0000 </r>
       <r>    2.9103    1.0000 </r>
       <r>    3.1433    1.0000 </r>
       <r>    3.5159    1.0000 </r>
       <r>    3.5807    1.0000 </r>
       <r>    3.9091    1.0000 </r>
       <r>    4.2456    1.0000 </r>
       <r>    4.3976    1.0000 </r>
       <r>    4.7159    1.0000 </r>
       <r>    4.8435    1.0000 </r>
       <r>    4.9952    1.0000 </r>
       <r>    5.3378    1.0000 </r>
       <r>    5.4342    1.0000 </r>
       <r>    5.6277    1.0000 </r>
       <r>    5.8625    1.0000 </r>
       <r>    5.9582    1.0000 </r>
       <r>    6.1193    1.0000 </r>
       <r>    6.3582    1.0000 </r>
       <r>    6.5620    1.0000 </r>
       <r>    6.7267    1.0000 </r>
       <r>    6.9242    1.0000 </r>
       <r>    7.0700    1.0000 </r>
       <r>    7.2656    1.0001 </r>
       <r>    7.4133    1.0023 </r>
       <r>    7.6694    1.0305 </r>
       <r>    7.7253    0.9858 </r>
       <r>    7.8236    0.7357 </r>
       <r>    7.8704    0.5490 </r>
       <r>    8.0624   -0.0118 </r>
       <r>    8.0826   -0.0254 </r>
       <r>    8.2367   -0.0155 </r>
       <r>    8.4644   -0.0002 </r>
       <r>    8.6263   -0.0000 </r>
       <r>    9.6109   -0.0000 </r>
       <r>    9.6991   -0.0000 </r>
       <r>   10.0251   -0.0000 </r>
       <r>   10.1396   -0.0000 </r>
       <r>   10.3009   -0.0000 </r>
       <r>   10.3419   -0.0000 </r>
       <r>   10.5304   -0.0000 </r>
       <r>   10.6847   -0.0000 </r>
       <r>   10.8668   -0.0000 </r>
       <r>   10.9662   -0.0000 </r>
       <r>   11.0963   -0.0000 </r>
       <r>   11.1503   -0.0000 </r>
       <r>   11.2891   -0.0000 </r>
       <r>   11.3768   -0.0000 </r>
       <r>   11.5102   -0.0000 </r>
       <r>   11.6562   -0.0000 </r>
      </set>
      <set comment="kpoint 45">
       <r>   -2.9732    1.0000 </r>
       <r>   -1.8997    1.0000 </r>
       <r>   -1.4637    1.0000 </r>
       <r>   -1.2598    1.0000 </r>
       <r>   -1.1127    1.0000 </r>
       <r>   -0.5318    1.0000 </r>
       <r>    0.3816    1.0000 </r>
       <r>    0.5616    1.0000 </r>
       <r>    0.7973    1.0000 </r>
       <r>    1.0794    1.0000 </r>
       <r>    1.2734    1.0000 </r>
       <r>    1.6029    1.0000 </r>
       <r>    1.7675    1.0000 </r>
       <r>    2.0317    1.0000 </r>
       <r>    2.0865    1.0000 </r>
       <r>    2.2032    1.0000 </r>
       <r>    2.9017    1.0000 </r>
       <r>    3.1141    1.0000 </r>
       <r>    3.4847    1.0000 </r>
       <r>    3.6701    1.0000 </r>
       <r>    3.9960    1.0000 </r>
       <r>    4.1244    1.0000 </r>
       <r>    4.3128    1.0000 </r>
       <r>    4.7114    1.0000 </r>
       <r>    4.8720    1.0000 </r>
       <r>    5.0056    1.0000 </r>
       <r>    5.3121    1.0000 </r>
       <r>    5.5254    1.0000 </r>
       <r>    5.6500    1.0000 </r>
       <r>    5.9001    1.0000 </r>
       <r>    5.9751    1.0000 </r>
       <r>    6.1572    1.0000 </r>
       <r>    6.3923    1.0000 </r>
       <r>    6.5514    1.0000 </r>
       <r>    6.7108    1.0000 </r>
       <r>    6.8295    1.0000 </r>
       <r>    7.0208    1.0000 </r>
       <r>    7.2234    1.0000 </r>
       <r>    7.5455    1.0193 </r>
       <r>    7.6470    1.0351 </r>
       <r>    7.7071    1.0067 </r>
       <r>    7.8629    0.5805 </r>
       <r>    7.9178    0.3514 </r>
       <r>    7.9872    0.1161 </r>
       <r>    8.1164   -0.0350 </r>
       <r>    8.1374   -0.0351 </r>
       <r>    8.5109   -0.0000 </r>
       <r>    8.6537   -0.0000 </r>
       <r>    9.5971   -0.0000 </r>
       <r>    9.6727   -0.0000 </r>
       <r>    9.9947   -0.0000 </r>
       <r>   10.2366   -0.0000 </r>
       <r>   10.2955   -0.0000 </r>
       <r>   10.4047   -0.0000 </r>
       <r>   10.4966   -0.0000 </r>
       <r>   10.6239   -0.0000 </r>
       <r>   10.8493   -0.0000 </r>
       <r>   11.0279   -0.0000 </r>
       <r>   11.1304   -0.0000 </r>
       <r>   11.1693   -0.0000 </r>
       <r>   11.2528   -0.0000 </r>
       <r>   11.3720   -0.0000 </r>
       <r>   11.4456   -0.0000 </r>
       <r>   11.6344   -0.0000 </r>
      </set>
      <set comment="kpoint 46">
       <r>   -2.9783    1.0000 </r>
       <r>   -1.8635    1.0000 </r>
       <r>   -1.5430    1.0000 </r>
       <r>   -1.3500    1.0000 </r>
       <r>   -0.8771    1.0000 </r>
       <r>   -0.5181    1.0000 </r>
       <r>    0.2589    1.0000 </r>
       <r>    0.4596    1.0000 </r>
       <r>    0.8199    1.0000 </r>
       <r>    1.1177    1.0000 </r>
       <r>    1.2903    1.0000 </r>
       <r>    1.4443    1.0000 </r>
       <r>    1.6970    1.0000 </r>
       <r>    2.1136    1.0000 </r>
       <r>    2.1974    1.0000 </r>
       <r>    2.3029    1.0000 </r>
       <r>    2.8859    1.0000 </r>
       <r>    3.2038    1.0000 </r>
       <r>    3.4889    1.0000 </r>
       <r>    3.5783    1.0000 </r>
       <r>    4.0322    1.0000 </r>
       <r>    4.2568    1.0000 </r>
       <r>    4.3377    1.0000 </r>
       <r>    4.8138    1.0000 </r>
       <r>    4.9113    1.0000 </r>
       <r>    4.9880    1.0000 </r>
       <r>    5.2037    1.0000 </r>
       <r>    5.2586    1.0000 </r>
       <r>    5.6743    1.0000 </r>
       <r>    5.8659    1.0000 </r>
       <r>    6.0263    1.0000 </r>
       <r>    6.1158    1.0000 </r>
       <r>    6.3362    1.0000 </r>
       <r>    6.4448    1.0000 </r>
       <r>    6.5826    1.0000 </r>
       <r>    6.9074    1.0000 </r>
       <r>    7.1105    1.0000 </r>
       <r>    7.2770    1.0001 </r>
       <r>    7.4779    1.0075 </r>
       <r>    7.6233    1.0348 </r>
       <r>    7.7039    1.0097 </r>
       <r>    7.8203    0.7478 </r>
       <r>    7.9641    0.1831 </r>
       <r>    8.0660   -0.0147 </r>
       <r>    8.1139   -0.0347 </r>
       <r>    8.3777   -0.0013 </r>
       <r>    8.4179   -0.0005 </r>
       <r>    8.5810   -0.0000 </r>
       <r>    9.6440   -0.0000 </r>
       <r>    9.7771   -0.0000 </r>
       <r>    9.9877   -0.0000 </r>
       <r>   10.0814   -0.0000 </r>
       <r>   10.3478   -0.0000 </r>
       <r>   10.3765   -0.0000 </r>
       <r>   10.5310   -0.0000 </r>
       <r>   10.7633   -0.0000 </r>
       <r>   10.7901   -0.0000 </r>
       <r>   10.9759   -0.0000 </r>
       <r>   11.0835   -0.0000 </r>
       <r>   11.1217   -0.0000 </r>
       <r>   11.2125   -0.0000 </r>
       <r>   11.3303   -0.0000 </r>
       <r>   11.5432   -0.0000 </r>
       <r>   11.6430   -0.0000 </r>
      </set>
      <set comment="kpoint 47">
       <r>   -2.9830    1.0000 </r>
       <r>   -1.8293    1.0000 </r>
       <r>   -1.5548    1.0000 </r>
       <r>   -1.1975    1.0000 </r>
       <r>   -1.1072    1.0000 </r>
       <r>   -0.5675    1.0000 </r>
       <r>    0.3352    1.0000 </r>
       <r>    0.5032    1.0000 </r>
       <r>    0.7422    1.0000 </r>
       <r>    1.1986    1.0000 </r>
       <r>    1.3851    1.0000 </r>
       <r>    1.5384    1.0000 </r>
       <r>    1.7643    1.0000 </r>
       <r>    1.9477    1.0000 </r>
       <r>    2.1559    1.0000 </r>
       <r>    2.2850    1.0000 </r>
       <r>    2.9568    1.0000 </r>
       <r>    3.0685    1.0000 </r>
       <r>    3.4639    1.0000 </r>
       <r>    3.6080    1.0000 </r>
       <r>    3.9993    1.0000 </r>
       <r>    4.1548    1.0000 </r>
       <r>    4.2447    1.0000 </r>
       <r>    4.7747    1.0000 </r>
       <r>    4.9180    1.0000 </r>
       <r>    5.0355    1.0000 </r>
       <r>    5.2740    1.0000 </r>
       <r>    5.3747    1.0000 </r>
       <r>    5.6062    1.0000 </r>
       <r>    5.9267    1.0000 </r>
       <r>    6.0017    1.0000 </r>
       <r>    6.2258    1.0000 </r>
       <r>    6.3518    1.0000 </r>
       <r>    6.5281    1.0000 </r>
       <r>    6.6592    1.0000 </r>
       <r>    6.8324    1.0000 </r>
       <r>    7.1069    1.0000 </r>
       <r>    7.2889    1.0001 </r>
       <r>    7.4101    1.0021 </r>
       <r>    7.6609    1.0329 </r>
       <r>    7.7721    0.8961 </r>
       <r>    7.8838    0.4924 </r>
       <r>    7.9491    0.2330 </r>
       <r>    8.0381    0.0151 </r>
       <r>    8.1069   -0.0337 </r>
       <r>    8.2296   -0.0169 </r>
       <r>    8.4620   -0.0002 </r>
       <r>    8.5269   -0.0000 </r>
       <r>    9.6250   -0.0000 </r>
       <r>    9.7241   -0.0000 </r>
       <r>    9.9776   -0.0000 </r>
       <r>   10.1032   -0.0000 </r>
       <r>   10.2568   -0.0000 </r>
       <r>   10.3844   -0.0000 </r>
       <r>   10.5843   -0.0000 </r>
       <r>   10.6862   -0.0000 </r>
       <r>   10.8689   -0.0000 </r>
       <r>   10.9784   -0.0000 </r>
       <r>   11.0626   -0.0000 </r>
       <r>   11.1340   -0.0000 </r>
       <r>   11.2493   -0.0000 </r>
       <r>   11.3686   -0.0000 </r>
       <r>   11.4509   -0.0000 </r>
       <r>   11.5738   -0.0000 </r>
      </set>
      <set comment="kpoint 48">
       <r>   -2.9831    1.0000 </r>
       <r>   -1.8129    1.0000 </r>
       <r>   -1.5586    1.0000 </r>
       <r>   -1.3766    1.0000 </r>
       <r>   -0.9205    1.0000 </r>
       <r>   -0.4751    1.0000 </r>
       <r>    0.2597    1.0000 </r>
       <r>    0.3827    1.0000 </r>
       <r>    0.8427    1.0000 </r>
       <r>    1.1176    1.0000 </r>
       <r>    1.4156    1.0000 </r>
       <r>    1.5208    1.0000 </r>
       <r>    1.6882    1.0000 </r>
       <r>    1.9627    1.0000 </r>
       <r>    2.1202    1.0000 </r>
       <r>    2.3592    1.0000 </r>
       <r>    2.9160    1.0000 </r>
       <r>    3.2191    1.0000 </r>
       <r>    3.4597    1.0000 </r>
       <r>    3.7337    1.0000 </r>
       <r>    3.9730    1.0000 </r>
       <r>    4.0801    1.0000 </r>
       <r>    4.3601    1.0000 </r>
       <r>    4.7518    1.0000 </r>
       <r>    4.9202    1.0000 </r>
       <r>    5.1053    1.0000 </r>
       <r>    5.2041    1.0000 </r>
       <r>    5.3659    1.0000 </r>
       <r>    5.5719    1.0000 </r>
       <r>    5.8029    1.0000 </r>
       <r>    5.9351    1.0000 </r>
       <r>    6.1258    1.0000 </r>
       <r>    6.3443    1.0000 </r>
       <r>    6.4846    1.0000 </r>
       <r>    6.6971    1.0000 </r>
       <r>    6.9705    1.0000 </r>
       <r>    7.1128    1.0000 </r>
       <r>    7.2411    1.0000 </r>
       <r>    7.3703    1.0009 </r>
       <r>    7.7084    1.0055 </r>
       <r>    7.8113    0.7794 </r>
       <r>    7.8348    0.6937 </r>
       <r>    7.9848    0.1223 </r>
       <r>    8.0109    0.0612 </r>
       <r>    8.1336   -0.0353 </r>
       <r>    8.2474   -0.0134 </r>
       <r>    8.4394   -0.0003 </r>
       <r>    8.5766   -0.0000 </r>
       <r>    9.5977   -0.0000 </r>
       <r>    9.7286   -0.0000 </r>
       <r>    9.9661   -0.0000 </r>
       <r>   10.1252   -0.0000 </r>
       <r>   10.3331   -0.0000 </r>
       <r>   10.3738   -0.0000 </r>
       <r>   10.5743   -0.0000 </r>
       <r>   10.7624   -0.0000 </r>
       <r>   10.8119   -0.0000 </r>
       <r>   10.9475   -0.0000 </r>
       <r>   11.1376   -0.0000 </r>
       <r>   11.1967   -0.0000 </r>
       <r>   11.2752   -0.0000 </r>
       <r>   11.3373   -0.0000 </r>
       <r>   11.5376   -0.0000 </r>
       <r>   11.5952   -0.0000 </r>
      </set>
      <set comment="kpoint 49">
       <r>   -2.9813    1.0000 </r>
       <r>   -1.8085    1.0000 </r>
       <r>   -1.5630    1.0000 </r>
       <r>   -1.2767    1.0000 </r>
       <r>   -1.0608    1.0000 </r>
       <r>   -0.5710    1.0000 </r>
       <r>    0.3505    1.0000 </r>
       <r>    0.4751    1.0000 </r>
       <r>    0.8452    1.0000 </r>
       <r>    1.1901    1.0000 </r>
       <r>    1.4150    1.0000 </r>
       <r>    1.5436    1.0000 </r>
       <r>    1.7422    1.0000 </r>
       <r>    1.9371    1.0000 </r>
       <r>    2.0807    1.0000 </r>
       <r>    2.2944    1.0000 </r>
       <r>    2.9390    1.0000 </r>
       <r>    3.0262    1.0000 </r>
       <r>    3.4265    1.0000 </r>
       <r>    3.6803    1.0000 </r>
       <r>    3.9877    1.0000 </r>
       <r>    4.1843    1.0000 </r>
       <r>    4.2418    1.0000 </r>
       <r>    4.7096    1.0000 </r>
       <r>    4.9076    1.0000 </r>
       <r>    5.0308    1.0000 </r>
       <r>    5.3317    1.0000 </r>
       <r>    5.4320    1.0000 </r>
       <r>    5.6547    1.0000 </r>
       <r>    5.8680    1.0000 </r>
       <r>    6.0636    1.0000 </r>
       <r>    6.1007    1.0000 </r>
       <r>    6.3912    1.0000 </r>
       <r>    6.5545    1.0000 </r>
       <r>    6.6821    1.0000 </r>
       <r>    6.8319    1.0000 </r>
       <r>    7.1285    1.0000 </r>
       <r>    7.2529    1.0000 </r>
       <r>    7.3984    1.0017 </r>
       <r>    7.6781    1.0270 </r>
       <r>    7.7924    0.8402 </r>
       <r>    7.8762    0.5244 </r>
       <r>    7.9395    0.2674 </r>
       <r>    8.0363    0.0176 </r>
       <r>    8.1325   -0.0353 </r>
       <r>    8.1695   -0.0303 </r>
       <r>    8.5025   -0.0001 </r>
       <r>    8.5561   -0.0000 </r>
       <r>    9.5816   -0.0000 </r>
       <r>    9.6952   -0.0000 </r>
       <r>    9.9631   -0.0000 </r>
       <r>   10.1452   -0.0000 </r>
       <r>   10.2600   -0.0000 </r>
       <r>   10.4159   -0.0000 </r>
       <r>   10.5502   -0.0000 </r>
       <r>   10.7211   -0.0000 </r>
       <r>   10.8872   -0.0000 </r>
       <r>   10.9614   -0.0000 </r>
       <r>   11.1080   -0.0000 </r>
       <r>   11.1503   -0.0000 </r>
       <r>   11.2334   -0.0000 </r>
       <r>   11.3921   -0.0000 </r>
       <r>   11.4605   -0.0000 </r>
       <r>   11.5439   -0.0000 </r>
      </set>
      <set comment="kpoint 50">
       <r>   -2.9750    1.0000 </r>
       <r>   -1.9087    1.0000 </r>
       <r>   -1.4772    1.0000 </r>
       <r>   -1.2190    1.0000 </r>
       <r>   -1.0567    1.0000 </r>
       <r>   -0.6153    1.0000 </r>
       <r>    0.3695    1.0000 </r>
       <r>    0.5227    1.0000 </r>
       <r>    0.7909    1.0000 </r>
       <r>    1.0818    1.0000 </r>
       <r>    1.4255    1.0000 </r>
       <r>    1.5041    1.0000 </r>
       <r>    1.7483    1.0000 </r>
       <r>    1.9832    1.0000 </r>
       <r>    2.1315    1.0000 </r>
       <r>    2.2667    1.0000 </r>
       <r>    2.9961    1.0000 </r>
       <r>    3.0803    1.0000 </r>
       <r>    3.4879    1.0000 </r>
       <r>    3.5619    1.0000 </r>
       <r>    3.9502    1.0000 </r>
       <r>    4.1673    1.0000 </r>
       <r>    4.3503    1.0000 </r>
       <r>    4.7538    1.0000 </r>
       <r>    4.8968    1.0000 </r>
       <r>    4.9729    1.0000 </r>
       <r>    5.3031    1.0000 </r>
       <r>    5.4235    1.0000 </r>
       <r>    5.6153    1.0000 </r>
       <r>    5.8731    1.0000 </r>
       <r>    6.0116    1.0000 </r>
       <r>    6.1415    1.0000 </r>
       <r>    6.3973    1.0000 </r>
       <r>    6.5314    1.0000 </r>
       <r>    6.7988    1.0000 </r>
       <r>    6.8214    1.0000 </r>
       <r>    7.1374    1.0000 </r>
       <r>    7.2353    1.0000 </r>
       <r>    7.3923    1.0015 </r>
       <r>    7.6745    1.0286 </r>
       <r>    7.7169    0.9963 </r>
       <r>    7.7936    0.8365 </r>
       <r>    7.9676    0.1719 </r>
       <r>    8.0192    0.0452 </r>
       <r>    8.1546   -0.0330 </r>
       <r>    8.2839   -0.0078 </r>
       <r>    8.4864   -0.0001 </r>
       <r>    8.5379   -0.0000 </r>
       <r>    9.6056   -0.0000 </r>
       <r>    9.6907   -0.0000 </r>
       <r>    9.9592   -0.0000 </r>
       <r>   10.1123   -0.0000 </r>
       <r>   10.2075   -0.0000 </r>
       <r>   10.4177   -0.0000 </r>
       <r>   10.5211   -0.0000 </r>
       <r>   10.7428   -0.0000 </r>
       <r>   10.8234   -0.0000 </r>
       <r>   10.9740   -0.0000 </r>
       <r>   11.0468   -0.0000 </r>
       <r>   11.1437   -0.0000 </r>
       <r>   11.3155   -0.0000 </r>
       <r>   11.3540   -0.0000 </r>
       <r>   11.5371   -0.0000 </r>
       <r>   11.6311   -0.0000 </r>
      </set>
      <set comment="kpoint 51">
       <r>   -2.9759    1.0000 </r>
       <r>   -1.8643    1.0000 </r>
       <r>   -1.5480    1.0000 </r>
       <r>   -1.2099    1.0000 </r>
       <r>   -1.0719    1.0000 </r>
       <r>   -0.5798    1.0000 </r>
       <r>    0.3512    1.0000 </r>
       <r>    0.5171    1.0000 </r>
       <r>    0.7659    1.0000 </r>
       <r>    1.2621    1.0000 </r>
       <r>    1.3060    1.0000 </r>
       <r>    1.6041    1.0000 </r>
       <r>    1.6803    1.0000 </r>
       <r>    2.0007    1.0000 </r>
       <r>    2.1017    1.0000 </r>
       <r>    2.2662    1.0000 </r>
       <r>    2.8897    1.0000 </r>
       <r>    3.0993    1.0000 </r>
       <r>    3.4559    1.0000 </r>
       <r>    3.6513    1.0000 </r>
       <r>    3.9140    1.0000 </r>
       <r>    4.1592    1.0000 </r>
       <r>    4.2727    1.0000 </r>
       <r>    4.8272    1.0000 </r>
       <r>    4.9001    1.0000 </r>
       <r>    5.0383    1.0000 </r>
       <r>    5.2862    1.0000 </r>
       <r>    5.3824    1.0000 </r>
       <r>    5.6648    1.0000 </r>
       <r>    5.8576    1.0000 </r>
       <r>    6.1021    1.0000 </r>
       <r>    6.2448    1.0000 </r>
       <r>    6.3546    1.0000 </r>
       <r>    6.4923    1.0000 </r>
       <r>    6.6502    1.0000 </r>
       <r>    6.7953    1.0000 </r>
       <r>    7.0874    1.0000 </r>
       <r>    7.3263    1.0003 </r>
       <r>    7.4580    1.0053 </r>
       <r>    7.6342    1.0354 </r>
       <r>    7.7390    0.9651 </r>
       <r>    7.8327    0.7017 </r>
       <r>    7.9236    0.3282 </r>
       <r>    7.9926    0.1022 </r>
       <r>    8.1423   -0.0346 </r>
       <r>    8.2236   -0.0182 </r>
       <r>    8.5284   -0.0000 </r>
       <r>    8.5934   -0.0000 </r>
       <r>    9.5994   -0.0000 </r>
       <r>    9.7322   -0.0000 </r>
       <r>    9.9749   -0.0000 </r>
       <r>   10.0528   -0.0000 </r>
       <r>   10.2841   -0.0000 </r>
       <r>   10.3942   -0.0000 </r>
       <r>   10.5226   -0.0000 </r>
       <r>   10.7267   -0.0000 </r>
       <r>   10.8693   -0.0000 </r>
       <r>   10.9618   -0.0000 </r>
       <r>   11.0857   -0.0000 </r>
       <r>   11.1275   -0.0000 </r>
       <r>   11.2689   -0.0000 </r>
       <r>   11.3508   -0.0000 </r>
       <r>   11.4480   -0.0000 </r>
       <r>   11.5964   -0.0000 </r>
      </set>
      <set comment="kpoint 52">
       <r>   -2.9733    1.0000 </r>
       <r>   -1.9214    1.0000 </r>
       <r>   -1.4542    1.0000 </r>
       <r>   -1.3379    1.0000 </r>
       <r>   -0.9633    1.0000 </r>
       <r>   -0.4881    1.0000 </r>
       <r>    0.2982    1.0000 </r>
       <r>    0.4970    1.0000 </r>
       <r>    0.7389    1.0000 </r>
       <r>    1.0220    1.0000 </r>
       <r>    1.3584    1.0000 </r>
       <r>    1.5551    1.0000 </r>
       <r>    1.8536    1.0000 </r>
       <r>    1.9437    1.0000 </r>
       <r>    2.0289    1.0000 </r>
       <r>    2.3368    1.0000 </r>
       <r>    2.9737    1.0000 </r>
       <r>    3.1589    1.0000 </r>
       <r>    3.5360    1.0000 </r>
       <r>    3.6900    1.0000 </r>
       <r>    4.0094    1.0000 </r>
       <r>    4.0871    1.0000 </r>
       <r>    4.3337    1.0000 </r>
       <r>    4.7843    1.0000 </r>
       <r>    4.8967    1.0000 </r>
       <r>    5.0859    1.0000 </r>
       <r>    5.1660    1.0000 </r>
       <r>    5.4125    1.0000 </r>
       <r>    5.6015    1.0000 </r>
       <r>    5.7970    1.0000 </r>
       <r>    5.9466    1.0000 </r>
       <r>    6.1037    1.0000 </r>
       <r>    6.3823    1.0000 </r>
       <r>    6.5148    1.0000 </r>
       <r>    6.7099    1.0000 </r>
       <r>    6.9317    1.0000 </r>
       <r>    7.0723    1.0000 </r>
       <r>    7.1601    1.0000 </r>
       <r>    7.4602    1.0055 </r>
       <r>    7.6757    1.0281 </r>
       <r>    7.7999    0.8173 </r>
       <r>    7.8754    0.5281 </r>
       <r>    7.8926    0.4552 </r>
       <r>    8.0307    0.0259 </r>
       <r>    8.1415   -0.0347 </r>
       <r>    8.2760   -0.0088 </r>
       <r>    8.4740   -0.0001 </r>
       <r>    8.5736   -0.0000 </r>
       <r>    9.6423   -0.0000 </r>
       <r>    9.7308   -0.0000 </r>
       <r>    9.9874   -0.0000 </r>
       <r>   10.1248   -0.0000 </r>
       <r>   10.3194   -0.0000 </r>
       <r>   10.3602   -0.0000 </r>
       <r>   10.4916   -0.0000 </r>
       <r>   10.6504   -0.0000 </r>
       <r>   10.8815   -0.0000 </r>
       <r>   11.0091   -0.0000 </r>
       <r>   11.0510   -0.0000 </r>
       <r>   11.1642   -0.0000 </r>
       <r>   11.2900   -0.0000 </r>
       <r>   11.3224   -0.0000 </r>
       <r>   11.4896   -0.0000 </r>
       <r>   11.6276   -0.0000 </r>
      </set>
      <set comment="kpoint 53">
       <r>   -2.5560    1.0000 </r>
       <r>   -2.3239    1.0000 </r>
       <r>   -1.9108    1.0000 </r>
       <r>   -1.5289    1.0000 </r>
       <r>   -0.7468    1.0000 </r>
       <r>   -0.1839    1.0000 </r>
       <r>    0.0297    1.0000 </r>
       <r>    0.5610    1.0000 </r>
       <r>    0.9008    1.0000 </r>
       <r>    1.3667    1.0000 </r>
       <r>    1.5016    1.0000 </r>
       <r>    1.8083    1.0000 </r>
       <r>    1.9980    1.0000 </r>
       <r>    2.1555    1.0000 </r>
       <r>    2.5815    1.0000 </r>
       <r>    2.7014    1.0000 </r>
       <r>    2.9576    1.0000 </r>
       <r>    3.0188    1.0000 </r>
       <r>    3.3827    1.0000 </r>
       <r>    3.4470    1.0000 </r>
       <r>    3.6510    1.0000 </r>
       <r>    3.7836    1.0000 </r>
       <r>    4.0090    1.0000 </r>
       <r>    4.2351    1.0000 </r>
       <r>    4.4033    1.0000 </r>
       <r>    4.5159    1.0000 </r>
       <r>    4.7408    1.0000 </r>
       <r>    4.9438    1.0000 </r>
       <r>    5.0394    1.0000 </r>
       <r>    5.2414    1.0000 </r>
       <r>    6.1911    1.0000 </r>
       <r>    6.4708    1.0000 </r>
       <r>    6.6095    1.0000 </r>
       <r>    6.8157    1.0000 </r>
       <r>    6.8913    1.0000 </r>
       <r>    7.0932    1.0000 </r>
       <r>    7.2416    1.0000 </r>
       <r>    7.5003    1.0106 </r>
       <r>    7.8023    0.8096 </r>
       <r>    7.9184    0.3490 </r>
       <r>    8.1217   -0.0353 </r>
       <r>    8.2028   -0.0229 </r>
       <r>    8.3056   -0.0054 </r>
       <r>    8.4219   -0.0005 </r>
       <r>    8.6472   -0.0000 </r>
       <r>    8.8709   -0.0000 </r>
       <r>    8.9809   -0.0000 </r>
       <r>    9.1649   -0.0000 </r>
       <r>    9.2930   -0.0000 </r>
       <r>    9.4361   -0.0000 </r>
       <r>    9.6789   -0.0000 </r>
       <r>   10.0106   -0.0000 </r>
       <r>   10.0662   -0.0000 </r>
       <r>   10.1721   -0.0000 </r>
       <r>   10.2317   -0.0000 </r>
       <r>   10.3978   -0.0000 </r>
       <r>   10.5996   -0.0000 </r>
       <r>   10.8132   -0.0000 </r>
       <r>   10.9326   -0.0000 </r>
       <r>   11.1357   -0.0000 </r>
       <r>   11.3068   -0.0000 </r>
       <r>   11.4169   -0.0000 </r>
       <r>   11.6113   -0.0000 </r>
       <r>   11.7051   -0.0000 </r>
      </set>
      <set comment="kpoint 54">
       <r>   -2.5630    1.0000 </r>
       <r>   -2.3239    1.0000 </r>
       <r>   -1.8547    1.0000 </r>
       <r>   -1.5985    1.0000 </r>
       <r>   -0.7240    1.0000 </r>
       <r>   -0.1068    1.0000 </r>
       <r>   -0.0418    1.0000 </r>
       <r>    0.5626    1.0000 </r>
       <r>    0.9161    1.0000 </r>
       <r>    1.1812    1.0000 </r>
       <r>    1.5894    1.0000 </r>
       <r>    1.8363    1.0000 </r>
       <r>    2.0667    1.0000 </r>
       <r>    2.3018    1.0000 </r>
       <r>    2.4433    1.0000 </r>
       <r>    2.6779    1.0000 </r>
       <r>    2.8751    1.0000 </r>
       <r>    3.1072    1.0000 </r>
       <r>    3.3053    1.0000 </r>
       <r>    3.4777    1.0000 </r>
       <r>    3.6769    1.0000 </r>
       <r>    3.8838    1.0000 </r>
       <r>    4.0257    1.0000 </r>
       <r>    4.2011    1.0000 </r>
       <r>    4.3520    1.0000 </r>
       <r>    4.4743    1.0000 </r>
       <r>    4.8026    1.0000 </r>
       <r>    4.8519    1.0000 </r>
       <r>    5.0490    1.0000 </r>
       <r>    5.2672    1.0000 </r>
       <r>    6.1563    1.0000 </r>
       <r>    6.4429    1.0000 </r>
       <r>    6.5916    1.0000 </r>
       <r>    6.8102    1.0000 </r>
       <r>    6.9867    1.0000 </r>
       <r>    7.1207    1.0000 </r>
       <r>    7.2233    1.0000 </r>
       <r>    7.5153    1.0132 </r>
       <r>    7.7613    0.9216 </r>
       <r>    7.9738    0.1533 </r>
       <r>    8.0701   -0.0178 </r>
       <r>    8.1632   -0.0316 </r>
       <r>    8.3336   -0.0032 </r>
       <r>    8.4420   -0.0003 </r>
       <r>    8.6539   -0.0000 </r>
       <r>    8.8627   -0.0000 </r>
       <r>    9.1041   -0.0000 </r>
       <r>    9.1570   -0.0000 </r>
       <r>    9.2210   -0.0000 </r>
       <r>    9.4108   -0.0000 </r>
       <r>    9.6694   -0.0000 </r>
       <r>    9.9530   -0.0000 </r>
       <r>   10.0668   -0.0000 </r>
       <r>   10.1559   -0.0000 </r>
       <r>   10.2903   -0.0000 </r>
       <r>   10.4378   -0.0000 </r>
       <r>   10.6229   -0.0000 </r>
       <r>   10.8628   -0.0000 </r>
       <r>   10.9555   -0.0000 </r>
       <r>   11.0998   -0.0000 </r>
       <r>   11.2438   -0.0000 </r>
       <r>   11.4115   -0.0000 </r>
       <r>   11.6134   -0.0000 </r>
       <r>   11.7927   -0.0000 </r>
      </set>
      <set comment="kpoint 55">
       <r>   -2.6211    1.0000 </r>
       <r>   -2.1727    1.0000 </r>
       <r>   -1.9334    1.0000 </r>
       <r>   -1.5968    1.0000 </r>
       <r>   -0.8097    1.0000 </r>
       <r>   -0.2873    1.0000 </r>
       <r>    0.2189    1.0000 </r>
       <r>    0.6018    1.0000 </r>
       <r>    0.9142    1.0000 </r>
       <r>    1.2488    1.0000 </r>
       <r>    1.5870    1.0000 </r>
       <r>    1.8810    1.0000 </r>
       <r>    1.9740    1.0000 </r>
       <r>    2.2811    1.0000 </r>
       <r>    2.4748    1.0000 </r>
       <r>    2.7512    1.0000 </r>
       <r>    2.7832    1.0000 </r>
       <r>    3.0001    1.0000 </r>
       <r>    3.3134    1.0000 </r>
       <r>    3.4437    1.0000 </r>
       <r>    3.6058    1.0000 </r>
       <r>    3.8121    1.0000 </r>
       <r>    4.0195    1.0000 </r>
       <r>    4.2916    1.0000 </r>
       <r>    4.3649    1.0000 </r>
       <r>    4.5645    1.0000 </r>
       <r>    4.8135    1.0000 </r>
       <r>    4.8701    1.0000 </r>
       <r>    5.0773    1.0000 </r>
       <r>    5.1872    1.0000 </r>
       <r>    6.2061    1.0000 </r>
       <r>    6.4618    1.0000 </r>
       <r>    6.6568    1.0000 </r>
       <r>    6.7672    1.0000 </r>
       <r>    6.9277    1.0000 </r>
       <r>    7.1086    1.0000 </r>
       <r>    7.3417    1.0004 </r>
       <r>    7.4105    1.0021 </r>
       <r>    7.8079    0.7912 </r>
       <r>    7.9502    0.2291 </r>
       <r>    8.1192   -0.0352 </r>
       <r>    8.2711   -0.0095 </r>
       <r>    8.4089   -0.0006 </r>
       <r>    8.4931   -0.0001 </r>
       <r>    8.5727   -0.0000 </r>
       <r>    8.7800   -0.0000 </r>
       <r>    9.0727   -0.0000 </r>
       <r>    9.1848   -0.0000 </r>
       <r>    9.2513   -0.0000 </r>
       <r>    9.4549   -0.0000 </r>
       <r>    9.6985   -0.0000 </r>
       <r>    9.8336   -0.0000 </r>
       <r>   10.0399   -0.0000 </r>
       <r>   10.1051   -0.0000 </r>
       <r>   10.1966   -0.0000 </r>
       <r>   10.3857   -0.0000 </r>
       <r>   10.6742   -0.0000 </r>
       <r>   10.8522   -0.0000 </r>
       <r>   10.9871   -0.0000 </r>
       <r>   11.0760   -0.0000 </r>
       <r>   11.2001   -0.0000 </r>
       <r>   11.3141   -0.0000 </r>
       <r>   11.6512   -0.0000 </r>
       <r>   11.7970   -0.0000 </r>
      </set>
      <set comment="kpoint 56">
       <r>   -2.6213    1.0000 </r>
       <r>   -2.1762    1.0000 </r>
       <r>   -1.9410    1.0000 </r>
       <r>   -1.5831    1.0000 </r>
       <r>   -0.7913    1.0000 </r>
       <r>   -0.2707    1.0000 </r>
       <r>    0.1488    1.0000 </r>
       <r>    0.6024    1.0000 </r>
       <r>    0.9451    1.0000 </r>
       <r>    1.2172    1.0000 </r>
       <r>    1.6266    1.0000 </r>
       <r>    1.8472    1.0000 </r>
       <r>    1.9922    1.0000 </r>
       <r>    2.2538    1.0000 </r>
       <r>    2.4672    1.0000 </r>
       <r>    2.7497    1.0000 </r>
       <r>    2.8625    1.0000 </r>
       <r>    3.0325    1.0000 </r>
       <r>    3.2950    1.0000 </r>
       <r>    3.4547    1.0000 </r>
       <r>    3.5184    1.0000 </r>
       <r>    3.8109    1.0000 </r>
       <r>    4.0985    1.0000 </r>
       <r>    4.2663    1.0000 </r>
       <r>    4.4556    1.0000 </r>
       <r>    4.5066    1.0000 </r>
       <r>    4.7389    1.0000 </r>
       <r>    4.9434    1.0000 </r>
       <r>    5.0264    1.0000 </r>
       <r>    5.1639    1.0000 </r>
       <r>    6.2006    1.0000 </r>
       <r>    6.5366    1.0000 </r>
       <r>    6.6107    1.0000 </r>
       <r>    6.7817    1.0000 </r>
       <r>    6.8989    1.0000 </r>
       <r>    7.1113    1.0000 </r>
       <r>    7.3060    1.0002 </r>
       <r>    7.4485    1.0045 </r>
       <r>    7.8172    0.7591 </r>
       <r>    7.9992    0.0865 </r>
       <r>    8.1029   -0.0328 </r>
       <r>    8.2144   -0.0202 </r>
       <r>    8.4187   -0.0005 </r>
       <r>    8.4745   -0.0001 </r>
       <r>    8.5541   -0.0000 </r>
       <r>    8.8774   -0.0000 </r>
       <r>    9.0331   -0.0000 </r>
       <r>    9.1243   -0.0000 </r>
       <r>    9.2492   -0.0000 </r>
       <r>    9.3799   -0.0000 </r>
       <r>    9.6787   -0.0000 </r>
       <r>    9.8675   -0.0000 </r>
       <r>   10.0692   -0.0000 </r>
       <r>   10.1329   -0.0000 </r>
       <r>   10.2575   -0.0000 </r>
       <r>   10.4150   -0.0000 </r>
       <r>   10.6405   -0.0000 </r>
       <r>   10.8439   -0.0000 </r>
       <r>   10.9849   -0.0000 </r>
       <r>   11.1095   -0.0000 </r>
       <r>   11.1666   -0.0000 </r>
       <r>   11.3839   -0.0000 </r>
       <r>   11.6103   -0.0000 </r>
       <r>   11.8642   -0.0000 </r>
      </set>
      <set comment="kpoint 57">
       <r>   -2.5456    1.0000 </r>
       <r>   -2.3139    1.0000 </r>
       <r>   -1.9510    1.0000 </r>
       <r>   -1.5132    1.0000 </r>
       <r>   -0.7657    1.0000 </r>
       <r>   -0.2563    1.0000 </r>
       <r>    0.1533    1.0000 </r>
       <r>    0.5772    1.0000 </r>
       <r>    0.9105    1.0000 </r>
       <r>    1.3243    1.0000 </r>
       <r>    1.5964    1.0000 </r>
       <r>    1.7461    1.0000 </r>
       <r>    2.0029    1.0000 </r>
       <r>    2.0985    1.0000 </r>
       <r>    2.6048    1.0000 </r>
       <r>    2.7570    1.0000 </r>
       <r>    2.8283    1.0000 </r>
       <r>    3.0489    1.0000 </r>
       <r>    3.3474    1.0000 </r>
       <r>    3.5184    1.0000 </r>
       <r>    3.6281    1.0000 </r>
       <r>    3.7563    1.0000 </r>
       <r>    3.9530    1.0000 </r>
       <r>    4.2328    1.0000 </r>
       <r>    4.4084    1.0000 </r>
       <r>    4.5622    1.0000 </r>
       <r>    4.7553    1.0000 </r>
       <r>    4.8712    1.0000 </r>
       <r>    5.0923    1.0000 </r>
       <r>    5.2588    1.0000 </r>
       <r>    6.2961    1.0000 </r>
       <r>    6.4442    1.0000 </r>
       <r>    6.6678    1.0000 </r>
       <r>    6.8046    1.0000 </r>
       <r>    6.9468    1.0000 </r>
       <r>    7.0794    1.0000 </r>
       <r>    7.2465    1.0000 </r>
       <r>    7.4361    1.0036 </r>
       <r>    7.6972    1.0154 </r>
       <r>    7.9325    0.2938 </r>
       <r>    8.1030   -0.0329 </r>
       <r>    8.1633   -0.0315 </r>
       <r>    8.3585   -0.0019 </r>
       <r>    8.4860   -0.0001 </r>
       <r>    8.6446   -0.0000 </r>
       <r>    8.8679   -0.0000 </r>
       <r>    9.0520   -0.0000 </r>
       <r>    9.1289   -0.0000 </r>
       <r>    9.3223   -0.0000 </r>
       <r>    9.4569   -0.0000 </r>
       <r>    9.5799   -0.0000 </r>
       <r>    9.9236   -0.0000 </r>
       <r>   10.1096   -0.0000 </r>
       <r>   10.1494   -0.0000 </r>
       <r>   10.2342   -0.0000 </r>
       <r>   10.4731   -0.0000 </r>
       <r>   10.6602   -0.0000 </r>
       <r>   10.7645   -0.0000 </r>
       <r>   10.9042   -0.0000 </r>
       <r>   11.1716   -0.0000 </r>
       <r>   11.3133   -0.0000 </r>
       <r>   11.4033   -0.0000 </r>
       <r>   11.6061   -0.0000 </r>
       <r>   11.7463   -0.0000 </r>
      </set>
      <set comment="kpoint 58">
       <r>   -2.5647    1.0000 </r>
       <r>   -2.3341    1.0000 </r>
       <r>   -1.8097    1.0000 </r>
       <r>   -1.6349    1.0000 </r>
       <r>   -0.7026    1.0000 </r>
       <r>   -0.0944    1.0000 </r>
       <r>   -0.0460    1.0000 </r>
       <r>    0.4912    1.0000 </r>
       <r>    0.8684    1.0000 </r>
       <r>    1.3145    1.0000 </r>
       <r>    1.5584    1.0000 </r>
       <r>    1.7864    1.0000 </r>
       <r>    2.1259    1.0000 </r>
       <r>    2.2867    1.0000 </r>
       <r>    2.3940    1.0000 </r>
       <r>    2.6861    1.0000 </r>
       <r>    2.8980    1.0000 </r>
       <r>    3.1458    1.0000 </r>
       <r>    3.4066    1.0000 </r>
       <r>    3.4999    1.0000 </r>
       <r>    3.6188    1.0000 </r>
       <r>    3.8446    1.0000 </r>
       <r>    3.9233    1.0000 </r>
       <r>    4.2092    1.0000 </r>
       <r>    4.3436    1.0000 </r>
       <r>    4.5124    1.0000 </r>
       <r>    4.7838    1.0000 </r>
       <r>    4.8821    1.0000 </r>
       <r>    5.0583    1.0000 </r>
       <r>    5.2844    1.0000 </r>
       <r>    6.1756    1.0000 </r>
       <r>    6.4381    1.0000 </r>
       <r>    6.5978    1.0000 </r>
       <r>    6.7943    1.0000 </r>
       <r>    6.9481    1.0000 </r>
       <r>    7.1024    1.0000 </r>
       <r>    7.2423    1.0000 </r>
       <r>    7.4534    1.0049 </r>
       <r>    7.7612    0.9219 </r>
       <r>    7.8863    0.4820 </r>
       <r>    8.0828   -0.0255 </r>
       <r>    8.2264   -0.0176 </r>
       <r>    8.3676   -0.0016 </r>
       <r>    8.4598   -0.0002 </r>
       <r>    8.6544   -0.0000 </r>
       <r>    8.9024   -0.0000 </r>
       <r>    9.0323   -0.0000 </r>
       <r>    9.1934   -0.0000 </r>
       <r>    9.2793   -0.0000 </r>
       <r>    9.4031   -0.0000 </r>
       <r>    9.6800   -0.0000 </r>
       <r>    9.9741   -0.0000 </r>
       <r>   10.0590   -0.0000 </r>
       <r>   10.1364   -0.0000 </r>
       <r>   10.2550   -0.0000 </r>
       <r>   10.4514   -0.0000 </r>
       <r>   10.6766   -0.0000 </r>
       <r>   10.8129   -0.0000 </r>
       <r>   10.9555   -0.0000 </r>
       <r>   11.1021   -0.0000 </r>
       <r>   11.2263   -0.0000 </r>
       <r>   11.4755   -0.0000 </r>
       <r>   11.5626   -0.0000 </r>
       <r>   11.7384   -0.0000 </r>
      </set>
      <set comment="kpoint 59">
       <r>   -2.5687    1.0000 </r>
       <r>   -2.3186    1.0000 </r>
       <r>   -1.8619    1.0000 </r>
       <r>   -1.5716    1.0000 </r>
       <r>   -0.7346    1.0000 </r>
       <r>   -0.2509    1.0000 </r>
       <r>    0.0709    1.0000 </r>
       <r>    0.5452    1.0000 </r>
       <r>    0.9733    1.0000 </r>
       <r>    1.2896    1.0000 </r>
       <r>    1.4782    1.0000 </r>
       <r>    1.7497    1.0000 </r>
       <r>    2.2186    1.0000 </r>
       <r>    2.2525    1.0000 </r>
       <r>    2.4832    1.0000 </r>
       <r>    2.7800    1.0000 </r>
       <r>    2.8231    1.0000 </r>
       <r>    2.9872    1.0000 </r>
       <r>    3.3238    1.0000 </r>
       <r>    3.4819    1.0000 </r>
       <r>    3.5682    1.0000 </r>
       <r>    3.8060    1.0000 </r>
       <r>    4.0734    1.0000 </r>
       <r>    4.1979    1.0000 </r>
       <r>    4.3490    1.0000 </r>
       <r>    4.5457    1.0000 </r>
       <r>    4.7461    1.0000 </r>
       <r>    4.9585    1.0000 </r>
       <r>    5.0576    1.0000 </r>
       <r>    5.3003    1.0000 </r>
       <r>    6.1741    1.0000 </r>
       <r>    6.3991    1.0000 </r>
       <r>    6.6330    1.0000 </r>
       <r>    6.8525    1.0000 </r>
       <r>    6.9184    1.0000 </r>
       <r>    7.0780    1.0000 </r>
       <r>    7.2346    1.0000 </r>
       <r>    7.4159    1.0024 </r>
       <r>    7.7834    0.8663 </r>
       <r>    7.9971    0.0912 </r>
       <r>    8.0809   -0.0245 </r>
       <r>    8.1643   -0.0313 </r>
       <r>    8.4195   -0.0005 </r>
       <r>    8.5024   -0.0001 </r>
       <r>    8.7040   -0.0000 </r>
       <r>    8.8557   -0.0000 </r>
       <r>    9.0742   -0.0000 </r>
       <r>    9.1043   -0.0000 </r>
       <r>    9.2414   -0.0000 </r>
       <r>    9.3490   -0.0000 </r>
       <r>    9.7156   -0.0000 </r>
       <r>    9.8403   -0.0000 </r>
       <r>   10.0285   -0.0000 </r>
       <r>   10.1198   -0.0000 </r>
       <r>   10.2751   -0.0000 </r>
       <r>   10.5267   -0.0000 </r>
       <r>   10.7090   -0.0000 </r>
       <r>   10.8598   -0.0000 </r>
       <r>   10.9053   -0.0000 </r>
       <r>   11.1547   -0.0000 </r>
       <r>   11.2376   -0.0000 </r>
       <r>   11.3579   -0.0000 </r>
       <r>   11.6002   -0.0000 </r>
       <r>   11.7294   -0.0000 </r>
      </set>
      <set comment="kpoint 60">
       <r>   -2.5892    1.0000 </r>
       <r>   -2.2489    1.0000 </r>
       <r>   -1.9382    1.0000 </r>
       <r>   -1.5778    1.0000 </r>
       <r>   -0.6743    1.0000 </r>
       <r>   -0.1590    1.0000 </r>
       <r>   -0.0294    1.0000 </r>
       <r>    0.5730    1.0000 </r>
       <r>    0.8912    1.0000 </r>
       <r>    1.3142    1.0000 </r>
       <r>    1.5396    1.0000 </r>
       <r>    1.6710    1.0000 </r>
       <r>    2.1076    1.0000 </r>
       <r>    2.2163    1.0000 </r>
       <r>    2.4642    1.0000 </r>
       <r>    2.8190    1.0000 </r>
       <r>    2.9289    1.0000 </r>
       <r>    3.0351    1.0000 </r>
       <r>    3.3876    1.0000 </r>
       <r>    3.4254    1.0000 </r>
       <r>    3.6505    1.0000 </r>
       <r>    3.8939    1.0000 </r>
       <r>    4.0877    1.0000 </r>
       <r>    4.2240    1.0000 </r>
       <r>    4.3511    1.0000 </r>
       <r>    4.3934    1.0000 </r>
       <r>    4.7818    1.0000 </r>
       <r>    4.9325    1.0000 </r>
       <r>    5.0783    1.0000 </r>
       <r>    5.1529    1.0000 </r>
       <r>    6.2355    1.0000 </r>
       <r>    6.3684    1.0000 </r>
       <r>    6.6004    1.0000 </r>
       <r>    6.8338    1.0000 </r>
       <r>    6.9674    1.0000 </r>
       <r>    7.0437    1.0000 </r>
       <r>    7.2388    1.0000 </r>
       <r>    7.5020    1.0109 </r>
       <r>    7.8279    0.7199 </r>
       <r>    7.9012    0.4194 </r>
       <r>    8.1079   -0.0339 </r>
       <r>    8.1978   -0.0240 </r>
       <r>    8.3559   -0.0020 </r>
       <r>    8.4036   -0.0007 </r>
       <r>    8.6648   -0.0000 </r>
       <r>    8.8168   -0.0000 </r>
       <r>    9.1351   -0.0000 </r>
       <r>    9.1854   -0.0000 </r>
       <r>    9.2514   -0.0000 </r>
       <r>    9.3583   -0.0000 </r>
       <r>    9.7237   -0.0000 </r>
       <r>    9.8964   -0.0000 </r>
       <r>   10.0677   -0.0000 </r>
       <r>   10.1332   -0.0000 </r>
       <r>   10.2268   -0.0000 </r>
       <r>   10.4521   -0.0000 </r>
       <r>   10.6302   -0.0000 </r>
       <r>   10.9402   -0.0000 </r>
       <r>   11.0228   -0.0000 </r>
       <r>   11.0665   -0.0000 </r>
       <r>   11.2578   -0.0000 </r>
       <r>   11.3770   -0.0000 </r>
       <r>   11.6858   -0.0000 </r>
       <r>   11.7601   -0.0000 </r>
      </set>
      <set comment="kpoint 61">
       <r>   -2.5634    1.0000 </r>
       <r>   -2.2978    1.0000 </r>
       <r>   -1.9047    1.0000 </r>
       <r>   -1.5573    1.0000 </r>
       <r>   -0.8032    1.0000 </r>
       <r>   -0.2482    1.0000 </r>
       <r>    0.1565    1.0000 </r>
       <r>    0.6020    1.0000 </r>
       <r>    0.9648    1.0000 </r>
       <r>    1.2769    1.0000 </r>
       <r>    1.5999    1.0000 </r>
       <r>    1.7701    1.0000 </r>
       <r>    2.0012    1.0000 </r>
       <r>    2.2071    1.0000 </r>
       <r>    2.5047    1.0000 </r>
       <r>    2.6487    1.0000 </r>
       <r>    2.8661    1.0000 </r>
       <r>    3.0424    1.0000 </r>
       <r>    3.3259    1.0000 </r>
       <r>    3.4485    1.0000 </r>
       <r>    3.7161    1.0000 </r>
       <r>    3.7809    1.0000 </r>
       <r>    3.9852    1.0000 </r>
       <r>    4.2598    1.0000 </r>
       <r>    4.3241    1.0000 </r>
       <r>    4.5934    1.0000 </r>
       <r>    4.6974    1.0000 </r>
       <r>    4.9376    1.0000 </r>
       <r>    5.0784    1.0000 </r>
       <r>    5.2550    1.0000 </r>
       <r>    6.2551    1.0000 </r>
       <r>    6.5040    1.0000 </r>
       <r>    6.5625    1.0000 </r>
       <r>    6.8585    1.0000 </r>
       <r>    6.9988    1.0000 </r>
       <r>    7.0683    1.0000 </r>
       <r>    7.2291    1.0000 </r>
       <r>    7.5074    1.0118 </r>
       <r>    7.7716    0.8974 </r>
       <r>    7.9305    0.3016 </r>
       <r>    7.9968    0.0921 </r>
       <r>    8.1949   -0.0247 </r>
       <r>    8.3565   -0.0020 </r>
       <r>    8.4981   -0.0001 </r>
       <r>    8.7176   -0.0000 </r>
       <r>    8.8233   -0.0000 </r>
       <r>    9.0796   -0.0000 </r>
       <r>    9.1557   -0.0000 </r>
       <r>    9.2852   -0.0000 </r>
       <r>    9.4242   -0.0000 </r>
       <r>    9.6442   -0.0000 </r>
       <r>    9.9681   -0.0000 </r>
       <r>    9.9905   -0.0000 </r>
       <r>   10.0792   -0.0000 </r>
       <r>   10.1651   -0.0000 </r>
       <r>   10.4902   -0.0000 </r>
       <r>   10.6766   -0.0000 </r>
       <r>   10.8251   -0.0000 </r>
       <r>   10.8917   -0.0000 </r>
       <r>   11.1382   -0.0000 </r>
       <r>   11.2441   -0.0000 </r>
       <r>   11.3794   -0.0000 </r>
       <r>   11.6000   -0.0000 </r>
       <r>   11.7694   -0.0000 </r>
      </set>
      <set comment="kpoint 62">
       <r>   -2.5488    1.0000 </r>
       <r>   -2.3427    1.0000 </r>
       <r>   -1.8461    1.0000 </r>
       <r>   -1.5798    1.0000 </r>
       <r>   -0.8130    1.0000 </r>
       <r>   -0.2121    1.0000 </r>
       <r>    0.1154    1.0000 </r>
       <r>    0.6250    1.0000 </r>
       <r>    0.9326    1.0000 </r>
       <r>    1.2770    1.0000 </r>
       <r>    1.5909    1.0000 </r>
       <r>    1.7584    1.0000 </r>
       <r>    2.0042    1.0000 </r>
       <r>    2.2352    1.0000 </r>
       <r>    2.5351    1.0000 </r>
       <r>    2.5964    1.0000 </r>
       <r>    2.8440    1.0000 </r>
       <r>    3.0421    1.0000 </r>
       <r>    3.4260    1.0000 </r>
       <r>    3.5076    1.0000 </r>
       <r>    3.6713    1.0000 </r>
       <r>    3.7601    1.0000 </r>
       <r>    4.0410    1.0000 </r>
       <r>    4.2424    1.0000 </r>
       <r>    4.3288    1.0000 </r>
       <r>    4.4897    1.0000 </r>
       <r>    4.7940    1.0000 </r>
       <r>    4.9148    1.0000 </r>
       <r>    5.0148    1.0000 </r>
       <r>    5.2320    1.0000 </r>
       <r>    6.2769    1.0000 </r>
       <r>    6.4787    1.0000 </r>
       <r>    6.5751    1.0000 </r>
       <r>    6.7512    1.0000 </r>
       <r>    6.9896    1.0000 </r>
       <r>    7.1723    1.0000 </r>
       <r>    7.3189    1.0003 </r>
       <r>    7.4948    1.0098 </r>
       <r>    7.7888    0.8509 </r>
       <r>    7.9063    0.3980 </r>
       <r>    8.0758   -0.0216 </r>
       <r>    8.2298   -0.0169 </r>
       <r>    8.3098   -0.0050 </r>
       <r>    8.4140   -0.0006 </r>
       <r>    8.6152   -0.0000 </r>
       <r>    8.8657   -0.0000 </r>
       <r>    9.0503   -0.0000 </r>
       <r>    9.1320   -0.0000 </r>
       <r>    9.3265   -0.0000 </r>
       <r>    9.3976   -0.0000 </r>
       <r>    9.6237   -0.0000 </r>
       <r>    9.8982   -0.0000 </r>
       <r>   10.0767   -0.0000 </r>
       <r>   10.1438   -0.0000 </r>
       <r>   10.2151   -0.0000 </r>
       <r>   10.4637   -0.0000 </r>
       <r>   10.5671   -0.0000 </r>
       <r>   10.8433   -0.0000 </r>
       <r>   10.9866   -0.0000 </r>
       <r>   11.1530   -0.0000 </r>
       <r>   11.2369   -0.0000 </r>
       <r>   11.3963   -0.0000 </r>
       <r>   11.5987   -0.0000 </r>
       <r>   11.8329   -0.0000 </r>
      </set>
      <set comment="kpoint 63">
       <r>   -2.6227    1.0000 </r>
       <r>   -2.1667    1.0000 </r>
       <r>   -1.9518    1.0000 </r>
       <r>   -1.5821    1.0000 </r>
       <r>   -0.7960    1.0000 </r>
       <r>   -0.2420    1.0000 </r>
       <r>    0.1338    1.0000 </r>
       <r>    0.6070    1.0000 </r>
       <r>    0.9148    1.0000 </r>
       <r>    1.2232    1.0000 </r>
       <r>    1.6128    1.0000 </r>
       <r>    1.7732    1.0000 </r>
       <r>    2.0855    1.0000 </r>
       <r>    2.2830    1.0000 </r>
       <r>    2.5406    1.0000 </r>
       <r>    2.7011    1.0000 </r>
       <r>    2.8185    1.0000 </r>
       <r>    3.0307    1.0000 </r>
       <r>    3.2707    1.0000 </r>
       <r>    3.4917    1.0000 </r>
       <r>    3.5971    1.0000 </r>
       <r>    3.7746    1.0000 </r>
       <r>    3.9845    1.0000 </r>
       <r>    4.2822    1.0000 </r>
       <r>    4.3311    1.0000 </r>
       <r>    4.5979    1.0000 </r>
       <r>    4.7551    1.0000 </r>
       <r>    4.9068    1.0000 </r>
       <r>    5.0743    1.0000 </r>
       <r>    5.3080    1.0000 </r>
       <r>    6.1473    1.0000 </r>
       <r>    6.4537    1.0000 </r>
       <r>    6.6325    1.0000 </r>
       <r>    6.7980    1.0000 </r>
       <r>    6.9450    1.0000 </r>
       <r>    7.0587    1.0000 </r>
       <r>    7.3010    1.0002 </r>
       <r>    7.4244    1.0028 </r>
       <r>    7.7595    0.9257 </r>
       <r>    7.9449    0.2481 </r>
       <r>    8.1338   -0.0353 </r>
       <r>    8.2443   -0.0140 </r>
       <r>    8.4009   -0.0008 </r>
       <r>    8.4862   -0.0001 </r>
       <r>    8.5920   -0.0000 </r>
       <r>    8.8615   -0.0000 </r>
       <r>    9.0902   -0.0000 </r>
       <r>    9.1670   -0.0000 </r>
       <r>    9.2843   -0.0000 </r>
       <r>    9.3845   -0.0000 </r>
       <r>    9.6890   -0.0000 </r>
       <r>    9.9044   -0.0000 </r>
       <r>    9.9233   -0.0000 </r>
       <r>   10.1181   -0.0000 </r>
       <r>   10.3106   -0.0000 </r>
       <r>   10.4657   -0.0000 </r>
       <r>   10.6771   -0.0000 </r>
       <r>   10.8749   -0.0000 </r>
       <r>   10.9465   -0.0000 </r>
       <r>   11.1611   -0.0000 </r>
       <r>   11.1850   -0.0000 </r>
       <r>   11.4325   -0.0000 </r>
       <r>   11.5555   -0.0000 </r>
       <r>   11.8105   -0.0000 </r>
      </set>
      <set comment="kpoint 64">
       <r>   -2.5638    1.0000 </r>
       <r>   -2.3049    1.0000 </r>
       <r>   -1.9234    1.0000 </r>
       <r>   -1.5580    1.0000 </r>
       <r>   -0.6489    1.0000 </r>
       <r>   -0.1377    1.0000 </r>
       <r>   -0.0676    1.0000 </r>
       <r>    0.5372    1.0000 </r>
       <r>    0.8525    1.0000 </r>
       <r>    1.3730    1.0000 </r>
       <r>    1.5166    1.0000 </r>
       <r>    1.7761    1.0000 </r>
       <r>    2.0006    1.0000 </r>
       <r>    2.1860    1.0000 </r>
       <r>    2.5699    1.0000 </r>
       <r>    2.6698    1.0000 </r>
       <r>    2.9781    1.0000 </r>
       <r>    3.1587    1.0000 </r>
       <r>    3.3983    1.0000 </r>
       <r>    3.4682    1.0000 </r>
       <r>    3.5594    1.0000 </r>
       <r>    3.8893    1.0000 </r>
       <r>    3.9361    1.0000 </r>
       <r>    4.2508    1.0000 </r>
       <r>    4.4061    1.0000 </r>
       <r>    4.5105    1.0000 </r>
       <r>    4.6961    1.0000 </r>
       <r>    4.8756    1.0000 </r>
       <r>    5.1259    1.0000 </r>
       <r>    5.1973    1.0000 </r>
       <r>    6.2242    1.0000 </r>
       <r>    6.4218    1.0000 </r>
       <r>    6.5734    1.0000 </r>
       <r>    6.8115    1.0000 </r>
       <r>    6.9433    1.0000 </r>
       <r>    7.0642    1.0000 </r>
       <r>    7.2653    1.0001 </r>
       <r>    7.4710    1.0067 </r>
       <r>    7.7753    0.8880 </r>
       <r>    7.9216    0.3362 </r>
       <r>    8.0526   -0.0024 </r>
       <r>    8.1666   -0.0309 </r>
       <r>    8.3544   -0.0021 </r>
       <r>    8.4557   -0.0002 </r>
       <r>    8.6161   -0.0000 </r>
       <r>    8.8642   -0.0000 </r>
       <r>    9.0691   -0.0000 </r>
       <r>    9.2268   -0.0000 </r>
       <r>    9.3149   -0.0000 </r>
       <r>    9.4466   -0.0000 </r>
       <r>    9.6790   -0.0000 </r>
       <r>    9.9435   -0.0000 </r>
       <r>   10.0953   -0.0000 </r>
       <r>   10.1213   -0.0000 </r>
       <r>   10.2931   -0.0000 </r>
       <r>   10.3778   -0.0000 </r>
       <r>   10.5824   -0.0000 </r>
       <r>   10.7951   -0.0000 </r>
       <r>   10.9236   -0.0000 </r>
       <r>   11.2286   -0.0000 </r>
       <r>   11.3007   -0.0000 </r>
       <r>   11.3641   -0.0000 </r>
       <r>   11.5818   -0.0000 </r>
       <r>   11.7274   -0.0000 </r>
      </set>
      <set comment="kpoint 65">
       <r>   -2.6227    1.0000 </r>
       <r>   -2.1837    1.0000 </r>
       <r>   -1.9265    1.0000 </r>
       <r>   -1.6130    1.0000 </r>
       <r>   -0.7199    1.0000 </r>
       <r>   -0.1618    1.0000 </r>
       <r>    0.0317    1.0000 </r>
       <r>    0.5021    1.0000 </r>
       <r>    0.8711    1.0000 </r>
       <r>    1.3021    1.0000 </r>
       <r>    1.6239    1.0000 </r>
       <r>    1.7915    1.0000 </r>
       <r>    2.0617    1.0000 </r>
       <r>    2.2744    1.0000 </r>
       <r>    2.4543    1.0000 </r>
       <r>    2.7094    1.0000 </r>
       <r>    2.8641    1.0000 </r>
       <r>    3.0736    1.0000 </r>
       <r>    3.3612    1.0000 </r>
       <r>    3.5307    1.0000 </r>
       <r>    3.6053    1.0000 </r>
       <r>    3.7811    1.0000 </r>
       <r>    4.1055    1.0000 </r>
       <r>    4.1838    1.0000 </r>
       <r>    4.3943    1.0000 </r>
       <r>    4.4571    1.0000 </r>
       <r>    4.7728    1.0000 </r>
       <r>    4.9369    1.0000 </r>
       <r>    5.0222    1.0000 </r>
       <r>    5.2394    1.0000 </r>
       <r>    6.1255    1.0000 </r>
       <r>    6.4130    1.0000 </r>
       <r>    6.6262    1.0000 </r>
       <r>    6.8124    1.0000 </r>
       <r>    6.9253    1.0000 </r>
       <r>    7.0887    1.0000 </r>
       <r>    7.2693    1.0001 </r>
       <r>    7.4730    1.0069 </r>
       <r>    7.8082    0.7901 </r>
       <r>    8.0304    0.0263 </r>
       <r>    8.0870   -0.0275 </r>
       <r>    8.1939   -0.0250 </r>
       <r>    8.3615   -0.0018 </r>
       <r>    8.4742   -0.0001 </r>
       <r>    8.5487   -0.0000 </r>
       <r>    8.8635   -0.0000 </r>
       <r>    9.0930   -0.0000 </r>
       <r>    9.1521   -0.0000 </r>
       <r>    9.2584   -0.0000 </r>
       <r>    9.3592   -0.0000 </r>
       <r>    9.7735   -0.0000 </r>
       <r>    9.8895   -0.0000 </r>
       <r>    9.9758   -0.0000 </r>
       <r>   10.2149   -0.0000 </r>
       <r>   10.2944   -0.0000 </r>
       <r>   10.4770   -0.0000 </r>
       <r>   10.6639   -0.0000 </r>
       <r>   10.8123   -0.0000 </r>
       <r>   10.9757   -0.0000 </r>
       <r>   11.1189   -0.0000 </r>
       <r>   11.2188   -0.0000 </r>
       <r>   11.4086   -0.0000 </r>
       <r>   11.6426   -0.0000 </r>
       <r>   11.7838   -0.0000 </r>
      </set>
      <set comment="kpoint 66">
       <r>   -2.5565    1.0000 </r>
       <r>   -2.3116    1.0000 </r>
       <r>   -1.9083    1.0000 </r>
       <r>   -1.5426    1.0000 </r>
       <r>   -0.7829    1.0000 </r>
       <r>   -0.2966    1.0000 </r>
       <r>    0.2079    1.0000 </r>
       <r>    0.5566    1.0000 </r>
       <r>    0.9700    1.0000 </r>
       <r>    1.2700    1.0000 </r>
       <r>    1.5369    1.0000 </r>
       <r>    1.8793    1.0000 </r>
       <r>    1.9763    1.0000 </r>
       <r>    2.2438    1.0000 </r>
       <r>    2.4415    1.0000 </r>
       <r>    2.7496    1.0000 </r>
       <r>    2.8589    1.0000 </r>
       <r>    3.0255    1.0000 </r>
       <r>    3.3354    1.0000 </r>
       <r>    3.4138    1.0000 </r>
       <r>    3.6036    1.0000 </r>
       <r>    3.7394    1.0000 </r>
       <r>    4.0340    1.0000 </r>
       <r>    4.2636    1.0000 </r>
       <r>    4.4496    1.0000 </r>
       <r>    4.5518    1.0000 </r>
       <r>    4.7810    1.0000 </r>
       <r>    4.9305    1.0000 </r>
       <r>    5.0748    1.0000 </r>
       <r>    5.1717    1.0000 </r>
       <r>    6.2366    1.0000 </r>
       <r>    6.4959    1.0000 </r>
       <r>    6.6340    1.0000 </r>
       <r>    6.7601    1.0000 </r>
       <r>    7.0147    1.0000 </r>
       <r>    7.0563    1.0000 </r>
       <r>    7.2817    1.0001 </r>
       <r>    7.4658    1.0061 </r>
       <r>    7.7443    0.9559 </r>
       <r>    7.9436    0.2525 </r>
       <r>    8.0902   -0.0289 </r>
       <r>    8.2024   -0.0230 </r>
       <r>    8.3975   -0.0008 </r>
       <r>    8.4694   -0.0001 </r>
       <r>    8.6546   -0.0000 </r>
       <r>    8.7760   -0.0000 </r>
       <r>    9.1288   -0.0000 </r>
       <r>    9.1888   -0.0000 </r>
       <r>    9.2584   -0.0000 </r>
       <r>    9.4745   -0.0000 </r>
       <r>    9.6497   -0.0000 </r>
       <r>    9.9102   -0.0000 </r>
       <r>   10.0081   -0.0000 </r>
       <r>   10.1288   -0.0000 </r>
       <r>   10.1988   -0.0000 </r>
       <r>   10.3516   -0.0000 </r>
       <r>   10.6174   -0.0000 </r>
       <r>   10.8924   -0.0000 </r>
       <r>   10.9613   -0.0000 </r>
       <r>   11.0568   -0.0000 </r>
       <r>   11.1874   -0.0000 </r>
       <r>   11.2997   -0.0000 </r>
       <r>   11.6129   -0.0000 </r>
       <r>   11.7894   -0.0000 </r>
      </set>
      <set comment="kpoint 67">
       <r>   -2.5511    1.0000 </r>
       <r>   -2.3384    1.0000 </r>
       <r>   -1.8739    1.0000 </r>
       <r>   -1.5602    1.0000 </r>
       <r>   -0.7689    1.0000 </r>
       <r>   -0.1602    1.0000 </r>
       <r>    0.0381    1.0000 </r>
       <r>    0.5659    1.0000 </r>
       <r>    0.9940    1.0000 </r>
       <r>    1.1953    1.0000 </r>
       <r>    1.4844    1.0000 </r>
       <r>    1.8527    1.0000 </r>
       <r>    2.0676    1.0000 </r>
       <r>    2.2059    1.0000 </r>
       <r>    2.5211    1.0000 </r>
       <r>    2.6833    1.0000 </r>
       <r>    2.9979    1.0000 </r>
       <r>    3.0099    1.0000 </r>
       <r>    3.3354    1.0000 </r>
       <r>    3.4801    1.0000 </r>
       <r>    3.6611    1.0000 </r>
       <r>    3.7720    1.0000 </r>
       <r>    3.9392    1.0000 </r>
       <r>    4.1986    1.0000 </r>
       <r>    4.3666    1.0000 </r>
       <r>    4.6287    1.0000 </r>
       <r>    4.7560    1.0000 </r>
       <r>    4.9047    1.0000 </r>
       <r>    5.1135    1.0000 </r>
       <r>    5.1902    1.0000 </r>
       <r>    6.2036    1.0000 </r>
       <r>    6.4570    1.0000 </r>
       <r>    6.5834    1.0000 </r>
       <r>    6.8072    1.0000 </r>
       <r>    6.9958    1.0000 </r>
       <r>    7.1461    1.0000 </r>
       <r>    7.2533    1.0000 </r>
       <r>    7.4169    1.0024 </r>
       <r>    7.7791    0.8780 </r>
       <r>    7.8852    0.4868 </r>
       <r>    8.1266   -0.0355 </r>
       <r>    8.2136   -0.0204 </r>
       <r>    8.3151   -0.0045 </r>
       <r>    8.4537   -0.0002 </r>
       <r>    8.6608   -0.0000 </r>
       <r>    8.8792   -0.0000 </r>
       <r>    9.0187   -0.0000 </r>
       <r>    9.1544   -0.0000 </r>
       <r>    9.2126   -0.0000 </r>
       <r>    9.4382   -0.0000 </r>
       <r>    9.5926   -0.0000 </r>
       <r>    9.9937   -0.0000 </r>
       <r>   10.0612   -0.0000 </r>
       <r>   10.1568   -0.0000 </r>
       <r>   10.2642   -0.0000 </r>
       <r>   10.4392   -0.0000 </r>
       <r>   10.6839   -0.0000 </r>
       <r>   10.8184   -0.0000 </r>
       <r>   10.8670   -0.0000 </r>
       <r>   11.1899   -0.0000 </r>
       <r>   11.3056   -0.0000 </r>
       <r>   11.3886   -0.0000 </r>
       <r>   11.5765   -0.0000 </r>
       <r>   11.7524   -0.0000 </r>
      </set>
      <set comment="kpoint 68">
       <r>   -2.5633    1.0000 </r>
       <r>   -2.3078    1.0000 </r>
       <r>   -1.9040    1.0000 </r>
       <r>   -1.5820    1.0000 </r>
       <r>   -0.6382    1.0000 </r>
       <r>   -0.1995    1.0000 </r>
       <r>   -0.0246    1.0000 </r>
       <r>    0.5384    1.0000 </r>
       <r>    0.9788    1.0000 </r>
       <r>    1.2214    1.0000 </r>
       <r>    1.5192    1.0000 </r>
       <r>    1.7674    1.0000 </r>
       <r>    2.0051    1.0000 </r>
       <r>    2.2932    1.0000 </r>
       <r>    2.5706    1.0000 </r>
       <r>    2.7093    1.0000 </r>
       <r>    2.8487    1.0000 </r>
       <r>    3.1355    1.0000 </r>
       <r>    3.3542    1.0000 </r>
       <r>    3.4566    1.0000 </r>
       <r>    3.6982    1.0000 </r>
       <r>    3.8247    1.0000 </r>
       <r>    4.0324    1.0000 </r>
       <r>    4.1410    1.0000 </r>
       <r>    4.4324    1.0000 </r>
       <r>    4.4721    1.0000 </r>
       <r>    4.7102    1.0000 </r>
       <r>    4.9099    1.0000 </r>
       <r>    5.1193    1.0000 </r>
       <r>    5.1934    1.0000 </r>
       <r>    6.2372    1.0000 </r>
       <r>    6.3849    1.0000 </r>
       <r>    6.6127    1.0000 </r>
       <r>    6.8477    1.0000 </r>
       <r>    6.9309    1.0000 </r>
       <r>    7.0625    1.0000 </r>
       <r>    7.2393    1.0000 </r>
       <r>    7.4973    1.0101 </r>
       <r>    7.7961    0.8289 </r>
       <r>    7.9272    0.3141 </r>
       <r>    8.0176    0.0481 </r>
       <r>    8.1287   -0.0354 </r>
       <r>    8.4218   -0.0005 </r>
       <r>    8.4604   -0.0002 </r>
       <r>    8.6971   -0.0000 </r>
       <r>    8.8394   -0.0000 </r>
       <r>    9.0596   -0.0000 </r>
       <r>    9.1655   -0.0000 </r>
       <r>    9.3016   -0.0000 </r>
       <r>    9.4114   -0.0000 </r>
       <r>    9.6706   -0.0000 </r>
       <r>    9.9176   -0.0000 </r>
       <r>    9.9979   -0.0000 </r>
       <r>   10.1305   -0.0000 </r>
       <r>   10.2079   -0.0000 </r>
       <r>   10.5285   -0.0000 </r>
       <r>   10.6564   -0.0000 </r>
       <r>   10.8507   -0.0000 </r>
       <r>   10.9375   -0.0000 </r>
       <r>   11.1937   -0.0000 </r>
       <r>   11.2765   -0.0000 </r>
       <r>   11.3744   -0.0000 </r>
       <r>   11.5934   -0.0000 </r>
       <r>   11.7661   -0.0000 </r>
      </set>
      <set comment="kpoint 69">
       <r>   -2.5839    1.0000 </r>
       <r>   -2.2861    1.0000 </r>
       <r>   -1.8545    1.0000 </r>
       <r>   -1.6012    1.0000 </r>
       <r>   -0.7727    1.0000 </r>
       <r>   -0.2457    1.0000 </r>
       <r>    0.0849    1.0000 </r>
       <r>    0.6121    1.0000 </r>
       <r>    1.0255    1.0000 </r>
       <r>    1.2610    1.0000 </r>
       <r>    1.5495    1.0000 </r>
       <r>    1.7585    1.0000 </r>
       <r>    1.9815    1.0000 </r>
       <r>    2.1879    1.0000 </r>
       <r>    2.5762    1.0000 </r>
       <r>    2.6500    1.0000 </r>
       <r>    2.8302    1.0000 </r>
       <r>    3.0794    1.0000 </r>
       <r>    3.3683    1.0000 </r>
       <r>    3.5127    1.0000 </r>
       <r>    3.6263    1.0000 </r>
       <r>    3.8929    1.0000 </r>
       <r>    4.0837    1.0000 </r>
       <r>    4.2360    1.0000 </r>
       <r>    4.3023    1.0000 </r>
       <r>    4.4035    1.0000 </r>
       <r>    4.7729    1.0000 </r>
       <r>    4.8961    1.0000 </r>
       <r>    5.0950    1.0000 </r>
       <r>    5.2395    1.0000 </r>
       <r>    6.2273    1.0000 </r>
       <r>    6.4409    1.0000 </r>
       <r>    6.5798    1.0000 </r>
       <r>    6.7534    1.0000 </r>
       <r>    6.9885    1.0000 </r>
       <r>    7.0726    1.0000 </r>
       <r>    7.3343    1.0004 </r>
       <r>    7.5204    1.0141 </r>
       <r>    7.8258    0.7279 </r>
       <r>    7.9438    0.2518 </r>
       <r>    8.0547   -0.0046 </r>
       <r>    8.2028   -0.0229 </r>
       <r>    8.3539   -0.0021 </r>
       <r>    8.4470   -0.0002 </r>
       <r>    8.5901   -0.0000 </r>
       <r>    8.9627   -0.0000 </r>
       <r>    9.0545   -0.0000 </r>
       <r>    9.1483   -0.0000 </r>
       <r>    9.2522   -0.0000 </r>
       <r>    9.3228   -0.0000 </r>
       <r>    9.6694   -0.0000 </r>
       <r>    9.9143   -0.0000 </r>
       <r>   10.0253   -0.0000 </r>
       <r>   10.1623   -0.0000 </r>
       <r>   10.2329   -0.0000 </r>
       <r>   10.4802   -0.0000 </r>
       <r>   10.6980   -0.0000 </r>
       <r>   10.8812   -0.0000 </r>
       <r>   10.9653   -0.0000 </r>
       <r>   11.0665   -0.0000 </r>
       <r>   11.1877   -0.0000 </r>
       <r>   11.3711   -0.0000 </r>
       <r>   11.5390   -0.0000 </r>
       <r>   11.7285   -0.0000 </r>
      </set>
      <set comment="kpoint 70">
       <r>   -2.5757    1.0000 </r>
       <r>   -2.2735    1.0000 </r>
       <r>   -1.9332    1.0000 </r>
       <r>   -1.5396    1.0000 </r>
       <r>   -0.7636    1.0000 </r>
       <r>   -0.2713    1.0000 </r>
       <r>    0.1241    1.0000 </r>
       <r>    0.6125    1.0000 </r>
       <r>    1.0131    1.0000 </r>
       <r>    1.1192    1.0000 </r>
       <r>    1.5357    1.0000 </r>
       <r>    1.9156    1.0000 </r>
       <r>    2.0031    1.0000 </r>
       <r>    2.3216    1.0000 </r>
       <r>    2.4916    1.0000 </r>
       <r>    2.7661    1.0000 </r>
       <r>    2.8194    1.0000 </r>
       <r>    2.9957    1.0000 </r>
       <r>    3.2950    1.0000 </r>
       <r>    3.4246    1.0000 </r>
       <r>    3.5622    1.0000 </r>
       <r>    3.8513    1.0000 </r>
       <r>    4.0305    1.0000 </r>
       <r>    4.1836    1.0000 </r>
       <r>    4.3717    1.0000 </r>
       <r>    4.4984    1.0000 </r>
       <r>    4.7984    1.0000 </r>
       <r>    4.9680    1.0000 </r>
       <r>    5.1225    1.0000 </r>
       <r>    5.2660    1.0000 </r>
       <r>    6.2295    1.0000 </r>
       <r>    6.4869    1.0000 </r>
       <r>    6.6048    1.0000 </r>
       <r>    6.8247    1.0000 </r>
       <r>    6.9376    1.0000 </r>
       <r>    7.0298    1.0000 </r>
       <r>    7.2303    1.0000 </r>
       <r>    7.4545    1.0050 </r>
       <r>    7.7687    0.9044 </r>
       <r>    7.8954    0.4436 </r>
       <r>    8.0988   -0.0318 </r>
       <r>    8.2549   -0.0121 </r>
       <r>    8.3121   -0.0048 </r>
       <r>    8.4334   -0.0003 </r>
       <r>    8.7456   -0.0000 </r>
       <r>    8.9252   -0.0000 </r>
       <r>    9.0760   -0.0000 </r>
       <r>    9.1559   -0.0000 </r>
       <r>    9.2608   -0.0000 </r>
       <r>    9.4316   -0.0000 </r>
       <r>    9.6935   -0.0000 </r>
       <r>    9.8641   -0.0000 </r>
       <r>    9.9891   -0.0000 </r>
       <r>   10.0782   -0.0000 </r>
       <r>   10.2212   -0.0000 </r>
       <r>   10.4153   -0.0000 </r>
       <r>   10.7277   -0.0000 </r>
       <r>   10.8980   -0.0000 </r>
       <r>   10.9638   -0.0000 </r>
       <r>   11.1358   -0.0000 </r>
       <r>   11.2743   -0.0000 </r>
       <r>   11.3251   -0.0000 </r>
       <r>   11.5751   -0.0000 </r>
       <r>   11.7130   -0.0000 </r>
      </set>
      <set comment="kpoint 71">
       <r>   -2.5815    1.0000 </r>
       <r>   -2.2927    1.0000 </r>
       <r>   -1.8174    1.0000 </r>
       <r>   -1.6331    1.0000 </r>
       <r>   -0.8218    1.0000 </r>
       <r>   -0.2126    1.0000 </r>
       <r>    0.1430    1.0000 </r>
       <r>    0.5875    1.0000 </r>
       <r>    1.0659    1.0000 </r>
       <r>    1.2061    1.0000 </r>
       <r>    1.5188    1.0000 </r>
       <r>    1.7582    1.0000 </r>
       <r>    2.0071    1.0000 </r>
       <r>    2.2028    1.0000 </r>
       <r>    2.5689    1.0000 </r>
       <r>    2.6553    1.0000 </r>
       <r>    2.8491    1.0000 </r>
       <r>    3.1224    1.0000 </r>
       <r>    3.3196    1.0000 </r>
       <r>    3.4898    1.0000 </r>
       <r>    3.6155    1.0000 </r>
       <r>    3.8242    1.0000 </r>
       <r>    4.0153    1.0000 </r>
       <r>    4.2216    1.0000 </r>
       <r>    4.3665    1.0000 </r>
       <r>    4.5469    1.0000 </r>
       <r>    4.7030    1.0000 </r>
       <r>    4.9028    1.0000 </r>
       <r>    5.0807    1.0000 </r>
       <r>    5.2651    1.0000 </r>
       <r>    6.2159    1.0000 </r>
       <r>    6.4738    1.0000 </r>
       <r>    6.5958    1.0000 </r>
       <r>    6.8393    1.0000 </r>
       <r>    6.9658    1.0000 </r>
       <r>    7.0381    1.0000 </r>
       <r>    7.2682    1.0001 </r>
       <r>    7.5364    1.0173 </r>
       <r>    7.7751    0.8886 </r>
       <r>    7.9345    0.2861 </r>
       <r>    8.0231    0.0383 </r>
       <r>    8.2164   -0.0198 </r>
       <r>    8.3294   -0.0035 </r>
       <r>    8.5218   -0.0000 </r>
       <r>    8.7397   -0.0000 </r>
       <r>    8.8763   -0.0000 </r>
       <r>    9.0329   -0.0000 </r>
       <r>    9.1118   -0.0000 </r>
       <r>    9.2791   -0.0000 </r>
       <r>    9.4080   -0.0000 </r>
       <r>    9.6094   -0.0000 </r>
       <r>    9.9522   -0.0000 </r>
       <r>   10.0239   -0.0000 </r>
       <r>   10.1051   -0.0000 </r>
       <r>   10.2143   -0.0000 </r>
       <r>   10.5078   -0.0000 </r>
       <r>   10.6876   -0.0000 </r>
       <r>   10.8300   -0.0000 </r>
       <r>   10.9319   -0.0000 </r>
       <r>   11.0621   -0.0000 </r>
       <r>   11.2037   -0.0000 </r>
       <r>   11.4015   -0.0000 </r>
       <r>   11.5047   -0.0000 </r>
       <r>   11.8029   -0.0000 </r>
      </set>
      <set comment="kpoint 72">
       <r>   -2.6162    1.0000 </r>
       <r>   -2.1950    1.0000 </r>
       <r>   -1.9488    1.0000 </r>
       <r>   -1.5593    1.0000 </r>
       <r>   -0.7666    1.0000 </r>
       <r>   -0.2122    1.0000 </r>
       <r>    0.0647    1.0000 </r>
       <r>    0.5846    1.0000 </r>
       <r>    0.8877    1.0000 </r>
       <r>    1.1845    1.0000 </r>
       <r>    1.6371    1.0000 </r>
       <r>    1.8583    1.0000 </r>
       <r>    2.0861    1.0000 </r>
       <r>    2.2573    1.0000 </r>
       <r>    2.6017    1.0000 </r>
       <r>    2.7155    1.0000 </r>
       <r>    2.8316    1.0000 </r>
       <r>    2.9828    1.0000 </r>
       <r>    3.3266    1.0000 </r>
       <r>    3.4734    1.0000 </r>
       <r>    3.5281    1.0000 </r>
       <r>    3.7637    1.0000 </r>
       <r>    4.0203    1.0000 </r>
       <r>    4.1694    1.0000 </r>
       <r>    4.4084    1.0000 </r>
       <r>    4.5585    1.0000 </r>
       <r>    4.8260    1.0000 </r>
       <r>    4.9458    1.0000 </r>
       <r>    5.0762    1.0000 </r>
       <r>    5.2445    1.0000 </r>
       <r>    6.1847    1.0000 </r>
       <r>    6.4654    1.0000 </r>
       <r>    6.6377    1.0000 </r>
       <r>    6.8360    1.0000 </r>
       <r>    6.8670    1.0000 </r>
       <r>    7.0348    1.0000 </r>
       <r>    7.2661    1.0001 </r>
       <r>    7.4321    1.0033 </r>
       <r>    7.7901    0.8471 </r>
       <r>    7.8880    0.4748 </r>
       <r>    8.1296   -0.0354 </r>
       <r>    8.3144   -0.0046 </r>
       <r>    8.3567   -0.0020 </r>
       <r>    8.4958   -0.0001 </r>
       <r>    8.6696   -0.0000 </r>
       <r>    8.8209   -0.0000 </r>
       <r>    9.0945   -0.0000 </r>
       <r>    9.1728   -0.0000 </r>
       <r>    9.2621   -0.0000 </r>
       <r>    9.3456   -0.0000 </r>
       <r>    9.5976   -0.0000 </r>
       <r>    9.9199   -0.0000 </r>
       <r>    9.9989   -0.0000 </r>
       <r>   10.0817   -0.0000 </r>
       <r>   10.3010   -0.0000 </r>
       <r>   10.4254   -0.0000 </r>
       <r>   10.7462   -0.0000 </r>
       <r>   10.8755   -0.0000 </r>
       <r>   10.9695   -0.0000 </r>
       <r>   11.1666   -0.0000 </r>
       <r>   11.2148   -0.0000 </r>
       <r>   11.4386   -0.0000 </r>
       <r>   11.6581   -0.0000 </r>
       <r>   11.8066   -0.0000 </r>
      </set>
      <set comment="kpoint 73">
       <r>   -2.5422    1.0000 </r>
       <r>   -2.3303    1.0000 </r>
       <r>   -1.9304    1.0000 </r>
       <r>   -1.5468    1.0000 </r>
       <r>   -0.6674    1.0000 </r>
       <r>   -0.1811    1.0000 </r>
       <r>   -0.0256    1.0000 </r>
       <r>    0.5842    1.0000 </r>
       <r>    0.8864    1.0000 </r>
       <r>    1.3646    1.0000 </r>
       <r>    1.5453    1.0000 </r>
       <r>    1.7501    1.0000 </r>
       <r>    1.8797    1.0000 </r>
       <r>    2.2182    1.0000 </r>
       <r>    2.6330    1.0000 </r>
       <r>    2.7488    1.0000 </r>
       <r>    2.8555    1.0000 </r>
       <r>    3.0903    1.0000 </r>
       <r>    3.3522    1.0000 </r>
       <r>    3.4431    1.0000 </r>
       <r>    3.6567    1.0000 </r>
       <r>    3.9174    1.0000 </r>
       <r>    4.0000    1.0000 </r>
       <r>    4.2965    1.0000 </r>
       <r>    4.3415    1.0000 </r>
       <r>    4.4865    1.0000 </r>
       <r>    4.7609    1.0000 </r>
       <r>    4.8793    1.0000 </r>
       <r>    5.0205    1.0000 </r>
       <r>    5.1823    1.0000 </r>
       <r>    6.2586    1.0000 </r>
       <r>    6.3790    1.0000 </r>
       <r>    6.6294    1.0000 </r>
       <r>    6.8242    1.0000 </r>
       <r>    6.9750    1.0000 </r>
       <r>    7.1156    1.0000 </r>
       <r>    7.2361    1.0000 </r>
       <r>    7.4576    1.0053 </r>
       <r>    7.8221    0.7414 </r>
       <r>    7.9661    0.1766 </r>
       <r>    8.0743   -0.0207 </r>
       <r>    8.1368   -0.0351 </r>
       <r>    8.3576   -0.0020 </r>
       <r>    8.4303   -0.0004 </r>
       <r>    8.6118   -0.0000 </r>
       <r>    8.8450   -0.0000 </r>
       <r>    8.9868   -0.0000 </r>
       <r>    9.1827   -0.0000 </r>
       <r>    9.3007   -0.0000 </r>
       <r>    9.4295   -0.0000 </r>
       <r>    9.6883   -0.0000 </r>
       <r>    9.9851   -0.0000 </r>
       <r>   10.1018   -0.0000 </r>
       <r>   10.1361   -0.0000 </r>
       <r>   10.1828   -0.0000 </r>
       <r>   10.3751   -0.0000 </r>
       <r>   10.6455   -0.0000 </r>
       <r>   10.9138   -0.0000 </r>
       <r>   10.9697   -0.0000 </r>
       <r>   11.1399   -0.0000 </r>
       <r>   11.3067   -0.0000 </r>
       <r>   11.4041   -0.0000 </r>
       <r>   11.6323   -0.0000 </r>
       <r>   11.6997   -0.0000 </r>
      </set>
      <set comment="kpoint 74">
       <r>   -2.5814    1.0000 </r>
       <r>   -2.2754    1.0000 </r>
       <r>   -1.8982    1.0000 </r>
       <r>   -1.5687    1.0000 </r>
       <r>   -0.8076    1.0000 </r>
       <r>   -0.1886    1.0000 </r>
       <r>    0.1273    1.0000 </r>
       <r>    0.6046    1.0000 </r>
       <r>    0.9082    1.0000 </r>
       <r>    1.2887    1.0000 </r>
       <r>    1.4919    1.0000 </r>
       <r>    1.7753    1.0000 </r>
       <r>    2.0390    1.0000 </r>
       <r>    2.2078    1.0000 </r>
       <r>    2.4937    1.0000 </r>
       <r>    2.7542    1.0000 </r>
       <r>    2.8986    1.0000 </r>
       <r>    3.0656    1.0000 </r>
       <r>    3.3523    1.0000 </r>
       <r>    3.5536    1.0000 </r>
       <r>    3.6534    1.0000 </r>
       <r>    3.6768    1.0000 </r>
       <r>    3.9933    1.0000 </r>
       <r>    4.2189    1.0000 </r>
       <r>    4.3769    1.0000 </r>
       <r>    4.5145    1.0000 </r>
       <r>    4.7797    1.0000 </r>
       <r>    4.9331    1.0000 </r>
       <r>    5.0603    1.0000 </r>
       <r>    5.2641    1.0000 </r>
       <r>    6.1818    1.0000 </r>
       <r>    6.4601    1.0000 </r>
       <r>    6.6146    1.0000 </r>
       <r>    6.7969    1.0000 </r>
       <r>    7.0084    1.0000 </r>
       <r>    7.1017    1.0000 </r>
       <r>    7.3433    1.0005 </r>
       <r>    7.3921    1.0014 </r>
       <r>    7.6842    1.0240 </r>
       <r>    8.0226    0.0391 </r>
       <r>    8.0625   -0.0118 </r>
       <r>    8.1340   -0.0353 </r>
       <r>    8.3407   -0.0028 </r>
       <r>    8.4073   -0.0006 </r>
       <r>    8.6956   -0.0000 </r>
       <r>    8.9463   -0.0000 </r>
       <r>    9.0601   -0.0000 </r>
       <r>    9.1576   -0.0000 </r>
       <r>    9.2104   -0.0000 </r>
       <r>    9.4836   -0.0000 </r>
       <r>    9.6109   -0.0000 </r>
       <r>    9.9648   -0.0000 </r>
       <r>   10.0699   -0.0000 </r>
       <r>   10.1307   -0.0000 </r>
       <r>   10.1913   -0.0000 </r>
       <r>   10.5087   -0.0000 </r>
       <r>   10.6248   -0.0000 </r>
       <r>   10.8374   -0.0000 </r>
       <r>   10.8900   -0.0000 </r>
       <r>   11.1290   -0.0000 </r>
       <r>   11.3423   -0.0000 </r>
       <r>   11.4162   -0.0000 </r>
       <r>   11.6220   -0.0000 </r>
       <r>   11.7368   -0.0000 </r>
      </set>
      <set comment="kpoint 75">
       <r>   -2.5445    1.0000 </r>
       <r>   -2.3460    1.0000 </r>
       <r>   -1.8720    1.0000 </r>
       <r>   -1.5541    1.0000 </r>
       <r>   -0.7577    1.0000 </r>
       <r>   -0.3253    1.0000 </r>
       <r>    0.1855    1.0000 </r>
       <r>    0.5920    1.0000 </r>
       <r>    0.9320    1.0000 </r>
       <r>    1.3031    1.0000 </r>
       <r>    1.5284    1.0000 </r>
       <r>    1.8368    1.0000 </r>
       <r>    2.0118    1.0000 </r>
       <r>    2.2566    1.0000 </r>
       <r>    2.4074    1.0000 </r>
       <r>    2.7389    1.0000 </r>
       <r>    2.8579    1.0000 </r>
       <r>    3.0176    1.0000 </r>
       <r>    3.3173    1.0000 </r>
       <r>    3.4679    1.0000 </r>
       <r>    3.5956    1.0000 </r>
       <r>    3.8691    1.0000 </r>
       <r>    4.0676    1.0000 </r>
       <r>    4.3099    1.0000 </r>
       <r>    4.3714    1.0000 </r>
       <r>    4.5247    1.0000 </r>
       <r>    4.7384    1.0000 </r>
       <r>    4.8384    1.0000 </r>
       <r>    5.0617    1.0000 </r>
       <r>    5.2367    1.0000 </r>
       <r>    6.2097    1.0000 </r>
       <r>    6.4152    1.0000 </r>
       <r>    6.5724    1.0000 </r>
       <r>    6.8502    1.0000 </r>
       <r>    6.9689    1.0000 </r>
       <r>    7.1481    1.0000 </r>
       <r>    7.3529    1.0006 </r>
       <r>    7.4629    1.0058 </r>
       <r>    7.8092    0.7868 </r>
       <r>    7.9643    0.1825 </r>
       <r>    8.0909   -0.0291 </r>
       <r>    8.1977   -0.0241 </r>
       <r>    8.3712   -0.0015 </r>
       <r>    8.4293   -0.0004 </r>
       <r>    8.5346   -0.0000 </r>
       <r>    8.8185   -0.0000 </r>
       <r>    9.0558   -0.0000 </r>
       <r>    9.1462   -0.0000 </r>
       <r>    9.3060   -0.0000 </r>
       <r>    9.4533   -0.0000 </r>
       <r>    9.6861   -0.0000 </r>
       <r>    9.9323   -0.0000 </r>
       <r>   10.0497   -0.0000 </r>
       <r>   10.1615   -0.0000 </r>
       <r>   10.2119   -0.0000 </r>
       <r>   10.3819   -0.0000 </r>
       <r>   10.5109   -0.0000 </r>
       <r>   10.8303   -0.0000 </r>
       <r>   11.0070   -0.0000 </r>
       <r>   11.1081   -0.0000 </r>
       <r>   11.2336   -0.0000 </r>
       <r>   11.3583   -0.0000 </r>
       <r>   11.6172   -0.0000 </r>
       <r>   11.7867   -0.0000 </r>
      </set>
      <set comment="kpoint 76">
       <r>   -2.6160    1.0000 </r>
       <r>   -2.2058    1.0000 </r>
       <r>   -1.9193    1.0000 </r>
       <r>   -1.6050    1.0000 </r>
       <r>   -0.6999    1.0000 </r>
       <r>   -0.1339    1.0000 </r>
       <r>   -0.0240    1.0000 </r>
       <r>    0.5107    1.0000 </r>
       <r>    0.8745    1.0000 </r>
       <r>    1.2079    1.0000 </r>
       <r>    1.7022    1.0000 </r>
       <r>    1.8181    1.0000 </r>
       <r>    2.0353    1.0000 </r>
       <r>    2.2639    1.0000 </r>
       <r>    2.5581    1.0000 </r>
       <r>    2.7223    1.0000 </r>
       <r>    2.8287    1.0000 </r>
       <r>    3.0770    1.0000 </r>
       <r>    3.2757    1.0000 </r>
       <r>    3.4653    1.0000 </r>
       <r>    3.7188    1.0000 </r>
       <r>    3.8056    1.0000 </r>
       <r>    4.0091    1.0000 </r>
       <r>    4.1696    1.0000 </r>
       <r>    4.3882    1.0000 </r>
       <r>    4.5156    1.0000 </r>
       <r>    4.7821    1.0000 </r>
       <r>    4.8849    1.0000 </r>
       <r>    5.0232    1.0000 </r>
       <r>    5.2857    1.0000 </r>
       <r>    6.1960    1.0000 </r>
       <r>    6.4453    1.0000 </r>
       <r>    6.5960    1.0000 </r>
       <r>    6.8305    1.0000 </r>
       <r>    6.9047    1.0000 </r>
       <r>    7.0546    1.0000 </r>
       <r>    7.2285    1.0000 </r>
       <r>    7.5423    1.0186 </r>
       <r>    7.7112    1.0026 </r>
       <r>    7.8931    0.4531 </r>
       <r>    8.0701   -0.0178 </r>
       <r>    8.2331   -0.0162 </r>
       <r>    8.3835   -0.0011 </r>
       <r>    8.5174   -0.0000 </r>
       <r>    8.7037   -0.0000 </r>
       <r>    8.8381   -0.0000 </r>
       <r>    8.9779   -0.0000 </r>
       <r>    9.1935   -0.0000 </r>
       <r>    9.3309   -0.0000 </r>
       <r>    9.4220   -0.0000 </r>
       <r>    9.6518   -0.0000 </r>
       <r>    9.8985   -0.0000 </r>
       <r>   10.0511   -0.0000 </r>
       <r>   10.1770   -0.0000 </r>
       <r>   10.2276   -0.0000 </r>
       <r>   10.4239   -0.0000 </r>
       <r>   10.6795   -0.0000 </r>
       <r>   10.7745   -0.0000 </r>
       <r>   11.0259   -0.0000 </r>
       <r>   11.1544   -0.0000 </r>
       <r>   11.2193   -0.0000 </r>
       <r>   11.4612   -0.0000 </r>
       <r>   11.6568   -0.0000 </r>
       <r>   11.7591   -0.0000 </r>
      </set>
      <set comment="kpoint 77">
       <r>   -2.8596    1.0000 </r>
       <r>   -2.1935    1.0000 </r>
       <r>   -1.5598    1.0000 </r>
       <r>   -1.2908    1.0000 </r>
       <r>   -0.6095    1.0000 </r>
       <r>   -0.3250    1.0000 </r>
       <r>   -0.0451    1.0000 </r>
       <r>    0.3434    1.0000 </r>
       <r>    0.6390    1.0000 </r>
       <r>    0.9806    1.0000 </r>
       <r>    1.3009    1.0000 </r>
       <r>    1.6569    1.0000 </r>
       <r>    1.9400    1.0000 </r>
       <r>    2.1702    1.0000 </r>
       <r>    2.4611    1.0000 </r>
       <r>    2.6926    1.0000 </r>
       <r>    3.0528    1.0000 </r>
       <r>    3.2175    1.0000 </r>
       <r>    3.4748    1.0000 </r>
       <r>    3.6731    1.0000 </r>
       <r>    3.7239    1.0000 </r>
       <r>    4.1167    1.0000 </r>
       <r>    4.2160    1.0000 </r>
       <r>    4.3449    1.0000 </r>
       <r>    4.5687    1.0000 </r>
       <r>    4.8346    1.0000 </r>
       <r>    4.8974    1.0000 </r>
       <r>    5.1589    1.0000 </r>
       <r>    5.4189    1.0000 </r>
       <r>    5.6979    1.0000 </r>
       <r>    5.9682    1.0000 </r>
       <r>    6.0292    1.0000 </r>
       <r>    6.4639    1.0000 </r>
       <r>    6.5944    1.0000 </r>
       <r>    6.8537    1.0000 </r>
       <r>    6.9406    1.0000 </r>
       <r>    7.1102    1.0000 </r>
       <r>    7.2854    1.0001 </r>
       <r>    7.4614    1.0056 </r>
       <r>    7.6517    1.0345 </r>
       <r>    7.8814    0.5026 </r>
       <r>    8.0283    0.0296 </r>
       <r>    8.2279   -0.0173 </r>
       <r>    8.4181   -0.0005 </r>
       <r>    8.6730   -0.0000 </r>
       <r>    8.9986   -0.0000 </r>
       <r>    9.1025   -0.0000 </r>
       <r>    9.1996   -0.0000 </r>
       <r>    9.3440   -0.0000 </r>
       <r>    9.3731   -0.0000 </r>
       <r>    9.4566   -0.0000 </r>
       <r>    9.8174   -0.0000 </r>
       <r>    9.9669   -0.0000 </r>
       <r>   10.1478   -0.0000 </r>
       <r>   10.3451   -0.0000 </r>
       <r>   10.5301   -0.0000 </r>
       <r>   10.6923   -0.0000 </r>
       <r>   10.7881   -0.0000 </r>
       <r>   10.9281   -0.0000 </r>
       <r>   11.1472   -0.0000 </r>
       <r>   11.2302   -0.0000 </r>
       <r>   11.3666   -0.0000 </r>
       <r>   11.4954   -0.0000 </r>
       <r>   11.6194   -0.0000 </r>
      </set>
      <set comment="kpoint 78">
       <r>   -2.8834    1.0000 </r>
       <r>   -2.1044    1.0000 </r>
       <r>   -1.5835    1.0000 </r>
       <r>   -1.3211    1.0000 </r>
       <r>   -0.6924    1.0000 </r>
       <r>   -0.3672    1.0000 </r>
       <r>   -0.0136    1.0000 </r>
       <r>    0.3210    1.0000 </r>
       <r>    0.7552    1.0000 </r>
       <r>    0.9977    1.0000 </r>
       <r>    1.3220    1.0000 </r>
       <r>    1.7453    1.0000 </r>
       <r>    1.9728    1.0000 </r>
       <r>    2.1284    1.0000 </r>
       <r>    2.5293    1.0000 </r>
       <r>    2.6269    1.0000 </r>
       <r>    3.0172    1.0000 </r>
       <r>    3.1178    1.0000 </r>
       <r>    3.3784    1.0000 </r>
       <r>    3.6873    1.0000 </r>
       <r>    3.7492    1.0000 </r>
       <r>    4.0197    1.0000 </r>
       <r>    4.1149    1.0000 </r>
       <r>    4.3758    1.0000 </r>
       <r>    4.6285    1.0000 </r>
       <r>    4.8425    1.0000 </r>
       <r>    5.0222    1.0000 </r>
       <r>    5.2241    1.0000 </r>
       <r>    5.4007    1.0000 </r>
       <r>    5.7523    1.0000 </r>
       <r>    5.8733    1.0000 </r>
       <r>    5.9696    1.0000 </r>
       <r>    6.4785    1.0000 </r>
       <r>    6.7270    1.0000 </r>
       <r>    6.7987    1.0000 </r>
       <r>    6.9633    1.0000 </r>
       <r>    7.1119    1.0000 </r>
       <r>    7.3707    1.0009 </r>
       <r>    7.4475    1.0044 </r>
       <r>    7.6390    1.0354 </r>
       <r>    7.8339    0.6973 </r>
       <r>    7.9716    0.1600 </r>
       <r>    8.3423   -0.0027 </r>
       <r>    8.5053   -0.0000 </r>
       <r>    8.6796   -0.0000 </r>
       <r>    8.8264   -0.0000 </r>
       <r>    8.9906   -0.0000 </r>
       <r>    9.2116   -0.0000 </r>
       <r>    9.3261   -0.0000 </r>
       <r>    9.4573   -0.0000 </r>
       <r>    9.5009   -0.0000 </r>
       <r>    9.8381   -0.0000 </r>
       <r>   10.0359   -0.0000 </r>
       <r>   10.1332   -0.0000 </r>
       <r>   10.3580   -0.0000 </r>
       <r>   10.4993   -0.0000 </r>
       <r>   10.6051   -0.0000 </r>
       <r>   10.8276   -0.0000 </r>
       <r>   10.9609   -0.0000 </r>
       <r>   11.0759   -0.0000 </r>
       <r>   11.1981   -0.0000 </r>
       <r>   11.3906   -0.0000 </r>
       <r>   11.4676   -0.0000 </r>
       <r>   11.5658   -0.0000 </r>
      </set>
      <set comment="kpoint 79">
       <r>   -2.8732    1.0000 </r>
       <r>   -2.1484    1.0000 </r>
       <r>   -1.5236    1.0000 </r>
       <r>   -1.3566    1.0000 </r>
       <r>   -0.7375    1.0000 </r>
       <r>   -0.2414    1.0000 </r>
       <r>   -0.0454    1.0000 </r>
       <r>    0.4562    1.0000 </r>
       <r>    0.6702    1.0000 </r>
       <r>    0.8977    1.0000 </r>
       <r>    1.3285    1.0000 </r>
       <r>    1.6586    1.0000 </r>
       <r>    1.8289    1.0000 </r>
       <r>    2.2361    1.0000 </r>
       <r>    2.5109    1.0000 </r>
       <r>    2.7155    1.0000 </r>
       <r>    2.9818    1.0000 </r>
       <r>    3.2389    1.0000 </r>
       <r>    3.3481    1.0000 </r>
       <r>    3.6401    1.0000 </r>
       <r>    3.8644    1.0000 </r>
       <r>    4.1190    1.0000 </r>
       <r>    4.1833    1.0000 </r>
       <r>    4.3692    1.0000 </r>
       <r>    4.5460    1.0000 </r>
       <r>    4.7822    1.0000 </r>
       <r>    4.9318    1.0000 </r>
       <r>    5.2198    1.0000 </r>
       <r>    5.3190    1.0000 </r>
       <r>    5.7538    1.0000 </r>
       <r>    5.9509    1.0000 </r>
       <r>    6.0829    1.0000 </r>
       <r>    6.5252    1.0000 </r>
       <r>    6.6727    1.0000 </r>
       <r>    6.7357    1.0000 </r>
       <r>    6.9730    1.0000 </r>
       <r>    7.1134    1.0000 </r>
       <r>    7.2361    1.0000 </r>
       <r>    7.4428    1.0040 </r>
       <r>    7.6076    1.0327 </r>
       <r>    7.8890    0.4705 </r>
       <r>    7.9945    0.0975 </r>
       <r>    8.3776   -0.0013 </r>
       <r>    8.4865   -0.0001 </r>
       <r>    8.5963   -0.0000 </r>
       <r>    8.8191   -0.0000 </r>
       <r>    9.0282   -0.0000 </r>
       <r>    9.2326   -0.0000 </r>
       <r>    9.3617   -0.0000 </r>
       <r>    9.4356   -0.0000 </r>
       <r>    9.5043   -0.0000 </r>
       <r>    9.8275   -0.0000 </r>
       <r>   10.0443   -0.0000 </r>
       <r>   10.2449   -0.0000 </r>
       <r>   10.3108   -0.0000 </r>
       <r>   10.4778   -0.0000 </r>
       <r>   10.6030   -0.0000 </r>
       <r>   10.7655   -0.0000 </r>
       <r>   10.9737   -0.0000 </r>
       <r>   11.1636   -0.0000 </r>
       <r>   11.2371   -0.0000 </r>
       <r>   11.3214   -0.0000 </r>
       <r>   11.4396   -0.0000 </r>
       <r>   11.5735   -0.0000 </r>
      </set>
      <set comment="kpoint 80">
       <r>   -2.8626    1.0000 </r>
       <r>   -2.1638    1.0000 </r>
       <r>   -1.5869    1.0000 </r>
       <r>   -1.2739    1.0000 </r>
       <r>   -0.7681    1.0000 </r>
       <r>   -0.2712    1.0000 </r>
       <r>    0.0109    1.0000 </r>
       <r>    0.3829    1.0000 </r>
       <r>    0.7685    1.0000 </r>
       <r>    0.9450    1.0000 </r>
       <r>    1.3093    1.0000 </r>
       <r>    1.6294    1.0000 </r>
       <r>    1.8619    1.0000 </r>
       <r>    2.2234    1.0000 </r>
       <r>    2.3949    1.0000 </r>
       <r>    2.7803    1.0000 </r>
       <r>    3.0508    1.0000 </r>
       <r>    3.2172    1.0000 </r>
       <r>    3.2642    1.0000 </r>
       <r>    3.5710    1.0000 </r>
       <r>    3.8284    1.0000 </r>
       <r>    4.0808    1.0000 </r>
       <r>    4.2078    1.0000 </r>
       <r>    4.3926    1.0000 </r>
       <r>    4.6317    1.0000 </r>
       <r>    4.8579    1.0000 </r>
       <r>    4.8704    1.0000 </r>
       <r>    5.2420    1.0000 </r>
       <r>    5.3161    1.0000 </r>
       <r>    5.7573    1.0000 </r>
       <r>    6.0500    1.0000 </r>
       <r>    6.0612    1.0000 </r>
       <r>    6.5089    1.0000 </r>
       <r>    6.6721    1.0000 </r>
       <r>    6.7969    1.0000 </r>
       <r>    6.8876    1.0000 </r>
       <r>    7.0764    1.0000 </r>
       <r>    7.2379    1.0000 </r>
       <r>    7.4090    1.0021 </r>
       <r>    7.6309    1.0353 </r>
       <r>    7.9341    0.2877 </r>
       <r>    8.1112   -0.0344 </r>
       <r>    8.3131   -0.0047 </r>
       <r>    8.4486   -0.0002 </r>
       <r>    8.6220   -0.0000 </r>
       <r>    8.8711   -0.0000 </r>
       <r>    9.0061   -0.0000 </r>
       <r>    9.2160   -0.0000 </r>
       <r>    9.3144   -0.0000 </r>
       <r>    9.3921   -0.0000 </r>
       <r>    9.6104   -0.0000 </r>
       <r>    9.7718   -0.0000 </r>
       <r>   10.0610   -0.0000 </r>
       <r>   10.1562   -0.0000 </r>
       <r>   10.2315   -0.0000 </r>
       <r>   10.5283   -0.0000 </r>
       <r>   10.6470   -0.0000 </r>
       <r>   10.8248   -0.0000 </r>
       <r>   10.9203   -0.0000 </r>
       <r>   11.0598   -0.0000 </r>
       <r>   11.2227   -0.0000 </r>
       <r>   11.3682   -0.0000 </r>
       <r>   11.4690   -0.0000 </r>
       <r>   11.6465   -0.0000 </r>
      </set>
      <set comment="kpoint 81">
       <r>   -2.8559    1.0000 </r>
       <r>   -2.1941    1.0000 </r>
       <r>   -1.5942    1.0000 </r>
       <r>   -1.2513    1.0000 </r>
       <r>   -0.6513    1.0000 </r>
       <r>   -0.2972    1.0000 </r>
       <r>   -0.0563    1.0000 </r>
       <r>    0.4035    1.0000 </r>
       <r>    0.6367    1.0000 </r>
       <r>    0.9948    1.0000 </r>
       <r>    1.2191    1.0000 </r>
       <r>    1.6989    1.0000 </r>
       <r>    1.8975    1.0000 </r>
       <r>    2.2040    1.0000 </r>
       <r>    2.4278    1.0000 </r>
       <r>    2.7737    1.0000 </r>
       <r>    3.0500    1.0000 </r>
       <r>    3.1946    1.0000 </r>
       <r>    3.3932    1.0000 </r>
       <r>    3.6513    1.0000 </r>
       <r>    3.8088    1.0000 </r>
       <r>    4.0507    1.0000 </r>
       <r>    4.2564    1.0000 </r>
       <r>    4.3547    1.0000 </r>
       <r>    4.5394    1.0000 </r>
       <r>    4.8169    1.0000 </r>
       <r>    4.8810    1.0000 </r>
       <r>    5.1581    1.0000 </r>
       <r>    5.4915    1.0000 </r>
       <r>    5.6866    1.0000 </r>
       <r>    5.9614    1.0000 </r>
       <r>    6.0480    1.0000 </r>
       <r>    6.4848    1.0000 </r>
       <r>    6.6309    1.0000 </r>
       <r>    6.7989    1.0000 </r>
       <r>    6.9691    1.0000 </r>
       <r>    7.0767    1.0000 </r>
       <r>    7.3563    1.0006 </r>
       <r>    7.4691    1.0064 </r>
       <r>    7.5912    1.0296 </r>
       <r>    7.8907    0.4633 </r>
       <r>    8.0297    0.0274 </r>
       <r>    8.2969   -0.0062 </r>
       <r>    8.5210   -0.0000 </r>
       <r>    8.6428   -0.0000 </r>
       <r>    8.7819   -0.0000 </r>
       <r>    9.0003   -0.0000 </r>
       <r>    9.2000   -0.0000 </r>
       <r>    9.2743   -0.0000 </r>
       <r>    9.4610   -0.0000 </r>
       <r>    9.5462   -0.0000 </r>
       <r>    9.7993   -0.0000 </r>
       <r>   10.0238   -0.0000 </r>
       <r>   10.2316   -0.0000 </r>
       <r>   10.3000   -0.0000 </r>
       <r>   10.5526   -0.0000 </r>
       <r>   10.5699   -0.0000 </r>
       <r>   10.8276   -0.0000 </r>
       <r>   10.9495   -0.0000 </r>
       <r>   11.0667   -0.0000 </r>
       <r>   11.2616   -0.0000 </r>
       <r>   11.3996   -0.0000 </r>
       <r>   11.5228   -0.0000 </r>
       <r>   11.6660   -0.0000 </r>
      </set>
      <set comment="kpoint 82">
       <r>   -2.8839    1.0000 </r>
       <r>   -2.1064    1.0000 </r>
       <r>   -1.5973    1.0000 </r>
       <r>   -1.3007    1.0000 </r>
       <r>   -0.6709    1.0000 </r>
       <r>   -0.3579    1.0000 </r>
       <r>   -0.0252    1.0000 </r>
       <r>    0.3145    1.0000 </r>
       <r>    0.6429    1.0000 </r>
       <r>    1.0279    1.0000 </r>
       <r>    1.4169    1.0000 </r>
       <r>    1.6837    1.0000 </r>
       <r>    1.9753    1.0000 </r>
       <r>    2.1710    1.0000 </r>
       <r>    2.4775    1.0000 </r>
       <r>    2.6789    1.0000 </r>
       <r>    3.0196    1.0000 </r>
       <r>    3.1144    1.0000 </r>
       <r>    3.4178    1.0000 </r>
       <r>    3.6497    1.0000 </r>
       <r>    3.7958    1.0000 </r>
       <r>    3.9951    1.0000 </r>
       <r>    4.1269    1.0000 </r>
       <r>    4.3269    1.0000 </r>
       <r>    4.6078    1.0000 </r>
       <r>    4.8157    1.0000 </r>
       <r>    5.0613    1.0000 </r>
       <r>    5.2165    1.0000 </r>
       <r>    5.4059    1.0000 </r>
       <r>    5.7061    1.0000 </r>
       <r>    5.8925    1.0000 </r>
       <r>    6.0849    1.0000 </r>
       <r>    6.5244    1.0000 </r>
       <r>    6.6532    1.0000 </r>
       <r>    6.8204    1.0000 </r>
       <r>    6.8789    1.0000 </r>
       <r>    7.0408    1.0000 </r>
       <r>    7.3465    1.0005 </r>
       <r>    7.4463    1.0043 </r>
       <r>    7.6869    1.0224 </r>
       <r>    7.8707    0.5479 </r>
       <r>    8.0341    0.0208 </r>
       <r>    8.2928   -0.0067 </r>
       <r>    8.5822   -0.0000 </r>
       <r>    8.6428   -0.0000 </r>
       <r>    8.8185   -0.0000 </r>
       <r>    8.9623   -0.0000 </r>
       <r>    9.2553   -0.0000 </r>
       <r>    9.3128   -0.0000 </r>
       <r>    9.4333   -0.0000 </r>
       <r>    9.5071   -0.0000 </r>
       <r>    9.6727   -0.0000 </r>
       <r>   10.0478   -0.0000 </r>
       <r>   10.1791   -0.0000 </r>
       <r>   10.3325   -0.0000 </r>
       <r>   10.5293   -0.0000 </r>
       <r>   10.6973   -0.0000 </r>
       <r>   10.8381   -0.0000 </r>
       <r>   10.9528   -0.0000 </r>
       <r>   11.1262   -0.0000 </r>
       <r>   11.2024   -0.0000 </r>
       <r>   11.4075   -0.0000 </r>
       <r>   11.4540   -0.0000 </r>
       <r>   11.5984   -0.0000 </r>
      </set>
      <set comment="kpoint 83">
       <r>   -2.8634    1.0000 </r>
       <r>   -2.1705    1.0000 </r>
       <r>   -1.6229    1.0000 </r>
       <r>   -1.2542    1.0000 </r>
       <r>   -0.5586    1.0000 </r>
       <r>   -0.3532    1.0000 </r>
       <r>   -0.0460    1.0000 </r>
       <r>    0.3044    1.0000 </r>
       <r>    0.7223    1.0000 </r>
       <r>    0.9118    1.0000 </r>
       <r>    1.3795    1.0000 </r>
       <r>    1.5856    1.0000 </r>
       <r>    1.7771    1.0000 </r>
       <r>    2.2814    1.0000 </r>
       <r>    2.5558    1.0000 </r>
       <r>    2.7867    1.0000 </r>
       <r>    2.9140    1.0000 </r>
       <r>    3.1420    1.0000 </r>
       <r>    3.5081    1.0000 </r>
       <r>    3.6890    1.0000 </r>
       <r>    3.8711    1.0000 </r>
       <r>    4.0023    1.0000 </r>
       <r>    4.1797    1.0000 </r>
       <r>    4.3368    1.0000 </r>
       <r>    4.6430    1.0000 </r>
       <r>    4.7400    1.0000 </r>
       <r>    5.0101    1.0000 </r>
       <r>    5.2696    1.0000 </r>
       <r>    5.4048    1.0000 </r>
       <r>    5.6011    1.0000 </r>
       <r>    5.9430    1.0000 </r>
       <r>    5.9695    1.0000 </r>
       <r>    6.5169    1.0000 </r>
       <r>    6.6301    1.0000 </r>
       <r>    6.8472    1.0000 </r>
       <r>    6.8819    1.0000 </r>
       <r>    7.1040    1.0000 </r>
       <r>    7.2841    1.0001 </r>
       <r>    7.4661    1.0061 </r>
       <r>    7.6179    1.0342 </r>
       <r>    7.7661    0.9106 </r>
       <r>    8.0328    0.0227 </r>
       <r>    8.3325   -0.0033 </r>
       <r>    8.4816   -0.0001 </r>
       <r>    8.6426   -0.0000 </r>
       <r>    8.9315   -0.0000 </r>
       <r>    9.1038   -0.0000 </r>
       <r>    9.2428   -0.0000 </r>
       <r>    9.3172   -0.0000 </r>
       <r>    9.3827   -0.0000 </r>
       <r>    9.5021   -0.0000 </r>
       <r>    9.7928   -0.0000 </r>
       <r>   10.0335   -0.0000 </r>
       <r>   10.1902   -0.0000 </r>
       <r>   10.3302   -0.0000 </r>
       <r>   10.5802   -0.0000 </r>
       <r>   10.6637   -0.0000 </r>
       <r>   10.8390   -0.0000 </r>
       <r>   10.9464   -0.0000 </r>
       <r>   11.0883   -0.0000 </r>
       <r>   11.2161   -0.0000 </r>
       <r>   11.2885   -0.0000 </r>
       <r>   11.4189   -0.0000 </r>
       <r>   11.5338   -0.0000 </r>
      </set>
      <set comment="kpoint 84">
       <r>   -2.8535    1.0000 </r>
       <r>   -2.1830    1.0000 </r>
       <r>   -1.6391    1.0000 </r>
       <r>   -1.2204    1.0000 </r>
       <r>   -0.6723    1.0000 </r>
       <r>   -0.3236    1.0000 </r>
       <r>    0.0021    1.0000 </r>
       <r>    0.3393    1.0000 </r>
       <r>    0.8075    1.0000 </r>
       <r>    0.8923    1.0000 </r>
       <r>    1.3204    1.0000 </r>
       <r>    1.6392    1.0000 </r>
       <r>    1.8784    1.0000 </r>
       <r>    2.1852    1.0000 </r>
       <r>    2.4688    1.0000 </r>
       <r>    2.7127    1.0000 </r>
       <r>    2.9136    1.0000 </r>
       <r>    3.1626    1.0000 </r>
       <r>    3.4847    1.0000 </r>
       <r>    3.5946    1.0000 </r>
       <r>    3.8507    1.0000 </r>
       <r>    4.0420    1.0000 </r>
       <r>    4.2682    1.0000 </r>
       <r>    4.3525    1.0000 </r>
       <r>    4.6215    1.0000 </r>
       <r>    4.7885    1.0000 </r>
       <r>    4.9920    1.0000 </r>
       <r>    5.2318    1.0000 </r>
       <r>    5.3905    1.0000 </r>
       <r>    5.7013    1.0000 </r>
       <r>    5.9720    1.0000 </r>
       <r>    6.0792    1.0000 </r>
       <r>    6.4681    1.0000 </r>
       <r>    6.5859    1.0000 </r>
       <r>    6.8482    1.0000 </r>
       <r>    6.8996    1.0000 </r>
       <r>    7.0507    1.0000 </r>
       <r>    7.3012    1.0002 </r>
       <r>    7.4666    1.0062 </r>
       <r>    7.6643    1.0320 </r>
       <r>    7.8520    0.6253 </r>
       <r>    8.0697   -0.0175 </r>
       <r>    8.2199   -0.0190 </r>
       <r>    8.5129   -0.0000 </r>
       <r>    8.6376   -0.0000 </r>
       <r>    8.8069   -0.0000 </r>
       <r>    9.1284   -0.0000 </r>
       <r>    9.2214   -0.0000 </r>
       <r>    9.2813   -0.0000 </r>
       <r>    9.4462   -0.0000 </r>
       <r>    9.5555   -0.0000 </r>
       <r>    9.7734   -0.0000 </r>
       <r>    9.9759   -0.0000 </r>
       <r>   10.1203   -0.0000 </r>
       <r>   10.3362   -0.0000 </r>
       <r>   10.5895   -0.0000 </r>
       <r>   10.6203   -0.0000 </r>
       <r>   10.8352   -0.0000 </r>
       <r>   10.9021   -0.0000 </r>
       <r>   11.0079   -0.0000 </r>
       <r>   11.2303   -0.0000 </r>
       <r>   11.3994   -0.0000 </r>
       <r>   11.5112   -0.0000 </r>
       <r>   11.6668   -0.0000 </r>
      </set>
      <set comment="kpoint 85">
       <r>   -2.8561    1.0000 </r>
       <r>   -2.1897    1.0000 </r>
       <r>   -1.6055    1.0000 </r>
       <r>   -1.2150    1.0000 </r>
       <r>   -0.6726    1.0000 </r>
       <r>   -0.4301    1.0000 </r>
       <r>    0.0550    1.0000 </r>
       <r>    0.3663    1.0000 </r>
       <r>    0.7349    1.0000 </r>
       <r>    1.0301    1.0000 </r>
       <r>    1.2023    1.0000 </r>
       <r>    1.6699    1.0000 </r>
       <r>    1.8977    1.0000 </r>
       <r>    2.1460    1.0000 </r>
       <r>    2.4649    1.0000 </r>
       <r>    2.8576    1.0000 </r>
       <r>    3.0437    1.0000 </r>
       <r>    3.1077    1.0000 </r>
       <r>    3.3683    1.0000 </r>
       <r>    3.6429    1.0000 </r>
       <r>    3.7441    1.0000 </r>
       <r>    4.0560    1.0000 </r>
       <r>    4.1781    1.0000 </r>
       <r>    4.3637    1.0000 </r>
       <r>    4.5796    1.0000 </r>
       <r>    4.8052    1.0000 </r>
       <r>    5.0298    1.0000 </r>
       <r>    5.1974    1.0000 </r>
       <r>    5.4650    1.0000 </r>
       <r>    5.6243    1.0000 </r>
       <r>    5.9781    1.0000 </r>
       <r>    6.0513    1.0000 </r>
       <r>    6.4531    1.0000 </r>
       <r>    6.6431    1.0000 </r>
       <r>    6.8659    1.0000 </r>
       <r>    6.9863    1.0000 </r>
       <r>    7.1367    1.0000 </r>
       <r>    7.3306    1.0003 </r>
       <r>    7.4326    1.0033 </r>
       <r>    7.6327    1.0354 </r>
       <r>    7.8278    0.7205 </r>
       <r>    8.0343    0.0205 </r>
       <r>    8.2788   -0.0084 </r>
       <r>    8.5065   -0.0000 </r>
       <r>    8.7060   -0.0000 </r>
       <r>    8.8098   -0.0000 </r>
       <r>    9.0542   -0.0000 </r>
       <r>    9.1545   -0.0000 </r>
       <r>    9.2559   -0.0000 </r>
       <r>    9.4297   -0.0000 </r>
       <r>    9.4772   -0.0000 </r>
       <r>    9.8428   -0.0000 </r>
       <r>    9.9560   -0.0000 </r>
       <r>   10.1945   -0.0000 </r>
       <r>   10.2863   -0.0000 </r>
       <r>   10.5550   -0.0000 </r>
       <r>   10.6279   -0.0000 </r>
       <r>   10.8539   -0.0000 </r>
       <r>   11.0204   -0.0000 </r>
       <r>   11.0962   -0.0000 </r>
       <r>   11.1925   -0.0000 </r>
       <r>   11.3334   -0.0000 </r>
       <r>   11.4516   -0.0000 </r>
       <r>   11.4982   -0.0000 </r>
      </set>
      <set comment="kpoint 86">
       <r>   -2.8818    1.0000 </r>
       <r>   -2.0955    1.0000 </r>
       <r>   -1.6277    1.0000 </r>
       <r>   -1.2751    1.0000 </r>
       <r>   -0.7326    1.0000 </r>
       <r>   -0.4031    1.0000 </r>
       <r>    0.0670    1.0000 </r>
       <r>    0.4066    1.0000 </r>
       <r>    0.6661    1.0000 </r>
       <r>    1.0885    1.0000 </r>
       <r>    1.2268    1.0000 </r>
       <r>    1.6718    1.0000 </r>
       <r>    2.0071    1.0000 </r>
       <r>    2.1459    1.0000 </r>
       <r>    2.3539    1.0000 </r>
       <r>    2.8547    1.0000 </r>
       <r>    3.0703    1.0000 </r>
       <r>    3.1387    1.0000 </r>
       <r>    3.2883    1.0000 </r>
       <r>    3.6323    1.0000 </r>
       <r>    3.7840    1.0000 </r>
       <r>    3.9727    1.0000 </r>
       <r>    4.1644    1.0000 </r>
       <r>    4.3544    1.0000 </r>
       <r>    4.6044    1.0000 </r>
       <r>    4.8580    1.0000 </r>
       <r>    5.0904    1.0000 </r>
       <r>    5.1791    1.0000 </r>
       <r>    5.3967    1.0000 </r>
       <r>    5.6635    1.0000 </r>
       <r>    5.9574    1.0000 </r>
       <r>    6.0338    1.0000 </r>
       <r>    6.4835    1.0000 </r>
       <r>    6.6271    1.0000 </r>
       <r>    6.7668    1.0000 </r>
       <r>    7.0497    1.0000 </r>
       <r>    7.1327    1.0000 </r>
       <r>    7.3255    1.0003 </r>
       <r>    7.4547    1.0050 </r>
       <r>    7.6800    1.0261 </r>
       <r>    7.7743    0.8906 </r>
       <r>    8.0219    0.0403 </r>
       <r>    8.3377   -0.0029 </r>
       <r>    8.5218   -0.0000 </r>
       <r>    8.6960   -0.0000 </r>
       <r>    8.8451   -0.0000 </r>
       <r>    9.0122   -0.0000 </r>
       <r>    9.2223   -0.0000 </r>
       <r>    9.2933   -0.0000 </r>
       <r>    9.3879   -0.0000 </r>
       <r>    9.4979   -0.0000 </r>
       <r>    9.7574   -0.0000 </r>
       <r>   10.0100   -0.0000 </r>
       <r>   10.1323   -0.0000 </r>
       <r>   10.2790   -0.0000 </r>
       <r>   10.5250   -0.0000 </r>
       <r>   10.7269   -0.0000 </r>
       <r>   10.8080   -0.0000 </r>
       <r>   10.9925   -0.0000 </r>
       <r>   11.1400   -0.0000 </r>
       <r>   11.2108   -0.0000 </r>
       <r>   11.4103   -0.0000 </r>
       <r>   11.4766   -0.0000 </r>
       <r>   11.5801   -0.0000 </r>
      </set>
      <set comment="kpoint 87">
       <r>   -2.8742    1.0000 </r>
       <r>   -2.1398    1.0000 </r>
       <r>   -1.5740    1.0000 </r>
       <r>   -1.3434    1.0000 </r>
       <r>   -0.6258    1.0000 </r>
       <r>   -0.3014    1.0000 </r>
       <r>    0.0053    1.0000 </r>
       <r>    0.3736    1.0000 </r>
       <r>    0.6289    1.0000 </r>
       <r>    0.8938    1.0000 </r>
       <r>    1.3131    1.0000 </r>
       <r>    1.6819    1.0000 </r>
       <r>    1.8302    1.0000 </r>
       <r>    2.2838    1.0000 </r>
       <r>    2.4848    1.0000 </r>
       <r>    2.7677    1.0000 </r>
       <r>    2.9744    1.0000 </r>
       <r>    3.1709    1.0000 </r>
       <r>    3.4131    1.0000 </r>
       <r>    3.6511    1.0000 </r>
       <r>    3.9155    1.0000 </r>
       <r>    4.0959    1.0000 </r>
       <r>    4.2281    1.0000 </r>
       <r>    4.2826    1.0000 </r>
       <r>    4.5493    1.0000 </r>
       <r>    4.8582    1.0000 </r>
       <r>    4.9383    1.0000 </r>
       <r>    5.1862    1.0000 </r>
       <r>    5.3707    1.0000 </r>
       <r>    5.6594    1.0000 </r>
       <r>    5.8848    1.0000 </r>
       <r>    6.0480    1.0000 </r>
       <r>    6.4781    1.0000 </r>
       <r>    6.6883    1.0000 </r>
       <r>    6.8823    1.0000 </r>
       <r>    6.9199    1.0000 </r>
       <r>    7.1283    1.0000 </r>
       <r>    7.2159    1.0000 </r>
       <r>    7.4148    1.0023 </r>
       <r>    7.5868    1.0287 </r>
       <r>    7.8420    0.6657 </r>
       <r>    8.0254    0.0343 </r>
       <r>    8.4139   -0.0006 </r>
       <r>    8.5067   -0.0000 </r>
       <r>    8.6704   -0.0000 </r>
       <r>    8.8426   -0.0000 </r>
       <r>    8.8834   -0.0000 </r>
       <r>    9.2340   -0.0000 </r>
       <r>    9.4225   -0.0000 </r>
       <r>    9.4514   -0.0000 </r>
       <r>    9.5676   -0.0000 </r>
       <r>    9.6786   -0.0000 </r>
       <r>   10.0916   -0.0000 </r>
       <r>   10.2454   -0.0000 </r>
       <r>   10.3280   -0.0000 </r>
       <r>   10.4629   -0.0000 </r>
       <r>   10.6051   -0.0000 </r>
       <r>   10.9070   -0.0000 </r>
       <r>   10.9901   -0.0000 </r>
       <r>   11.1349   -0.0000 </r>
       <r>   11.2287   -0.0000 </r>
       <r>   11.3221   -0.0000 </r>
       <r>   11.4068   -0.0000 </r>
       <r>   11.6020   -0.0000 </r>
      </set>
      <set comment="kpoint 88">
       <r>   -2.8526    1.0000 </r>
       <r>   -2.2005    1.0000 </r>
       <r>   -1.5864    1.0000 </r>
       <r>   -1.2633    1.0000 </r>
       <r>   -0.6761    1.0000 </r>
       <r>   -0.2668    1.0000 </r>
       <r>   -0.0313    1.0000 </r>
       <r>    0.3646    1.0000 </r>
       <r>    0.6661    1.0000 </r>
       <r>    0.9726    1.0000 </r>
       <r>    1.3214    1.0000 </r>
       <r>    1.6312    1.0000 </r>
       <r>    1.9050    1.0000 </r>
       <r>    2.1458    1.0000 </r>
       <r>    2.4927    1.0000 </r>
       <r>    2.6957    1.0000 </r>
       <r>    3.0226    1.0000 </r>
       <r>    3.1586    1.0000 </r>
       <r>    3.4394    1.0000 </r>
       <r>    3.6129    1.0000 </r>
       <r>    3.7310    1.0000 </r>
       <r>    4.1398    1.0000 </r>
       <r>    4.2833    1.0000 </r>
       <r>    4.4452    1.0000 </r>
       <r>    4.5903    1.0000 </r>
       <r>    4.7964    1.0000 </r>
       <r>    4.8840    1.0000 </r>
       <r>    5.2634    1.0000 </r>
       <r>    5.3959    1.0000 </r>
       <r>    5.6014    1.0000 </r>
       <r>    5.9648    1.0000 </r>
       <r>    6.0562    1.0000 </r>
       <r>    6.5239    1.0000 </r>
       <r>    6.6563    1.0000 </r>
       <r>    6.7827    1.0000 </r>
       <r>    6.9717    1.0000 </r>
       <r>    7.0055    1.0000 </r>
       <r>    7.3868    1.0013 </r>
       <r>    7.4882    1.0088 </r>
       <r>    7.5874    1.0288 </r>
       <r>    7.8283    0.7186 </r>
       <r>    8.0607   -0.0103 </r>
       <r>    8.2532   -0.0124 </r>
       <r>    8.4517   -0.0002 </r>
       <r>    8.6480   -0.0000 </r>
       <r>    8.7630   -0.0000 </r>
       <r>    9.1398   -0.0000 </r>
       <r>    9.2474   -0.0000 </r>
       <r>    9.3419   -0.0000 </r>
       <r>    9.4575   -0.0000 </r>
       <r>    9.5519   -0.0000 </r>
       <r>    9.7299   -0.0000 </r>
       <r>   10.0320   -0.0000 </r>
       <r>   10.1076   -0.0000 </r>
       <r>   10.2629   -0.0000 </r>
       <r>   10.4985   -0.0000 </r>
       <r>   10.5885   -0.0000 </r>
       <r>   10.8296   -0.0000 </r>
       <r>   10.9939   -0.0000 </r>
       <r>   11.1061   -0.0000 </r>
       <r>   11.2575   -0.0000 </r>
       <r>   11.3172   -0.0000 </r>
       <r>   11.5523   -0.0000 </r>
       <r>   11.6032   -0.0000 </r>
      </set>
      <set comment="kpoint 89">
       <r>   -2.8685    1.0000 </r>
       <r>   -2.1594    1.0000 </r>
       <r>   -1.5602    1.0000 </r>
       <r>   -1.3046    1.0000 </r>
       <r>   -0.6642    1.0000 </r>
       <r>   -0.3725    1.0000 </r>
       <r>   -0.0191    1.0000 </r>
       <r>    0.3907    1.0000 </r>
       <r>    0.6053    1.0000 </r>
       <r>    1.0856    1.0000 </r>
       <r>    1.3063    1.0000 </r>
       <r>    1.7012    1.0000 </r>
       <r>    1.9867    1.0000 </r>
       <r>    2.1263    1.0000 </r>
       <r>    2.4820    1.0000 </r>
       <r>    2.6962    1.0000 </r>
       <r>    3.0497    1.0000 </r>
       <r>    3.1111    1.0000 </r>
       <r>    3.3171    1.0000 </r>
       <r>    3.6547    1.0000 </r>
       <r>    3.7564    1.0000 </r>
       <r>    4.0970    1.0000 </r>
       <r>    4.2073    1.0000 </r>
       <r>    4.3095    1.0000 </r>
       <r>    4.5369    1.0000 </r>
       <r>    4.8169    1.0000 </r>
       <r>    5.0311    1.0000 </r>
       <r>    5.2650    1.0000 </r>
       <r>    5.5128    1.0000 </r>
       <r>    5.6710    1.0000 </r>
       <r>    5.8963    1.0000 </r>
       <r>    6.0126    1.0000 </r>
       <r>    6.5098    1.0000 </r>
       <r>    6.7092    1.0000 </r>
       <r>    6.8022    1.0000 </r>
       <r>    6.9068    1.0000 </r>
       <r>    7.1300    1.0000 </r>
       <r>    7.2469    1.0000 </r>
       <r>    7.4520    1.0048 </r>
       <r>    7.6223    1.0347 </r>
       <r>    7.9001    0.4239 </r>
       <r>    8.0161    0.0509 </r>
       <r>    8.2648   -0.0105 </r>
       <r>    8.5570   -0.0000 </r>
       <r>    8.7391   -0.0000 </r>
       <r>    8.8379   -0.0000 </r>
       <r>    8.9455   -0.0000 </r>
       <r>    9.2191   -0.0000 </r>
       <r>    9.3461   -0.0000 </r>
       <r>    9.4330   -0.0000 </r>
       <r>    9.5574   -0.0000 </r>
       <r>    9.6759   -0.0000 </r>
       <r>   10.0371   -0.0000 </r>
       <r>   10.2074   -0.0000 </r>
       <r>   10.2824   -0.0000 </r>
       <r>   10.5534   -0.0000 </r>
       <r>   10.6376   -0.0000 </r>
       <r>   10.7834   -0.0000 </r>
       <r>   10.9702   -0.0000 </r>
       <r>   11.0647   -0.0000 </r>
       <r>   11.2260   -0.0000 </r>
       <r>   11.3668   -0.0000 </r>
       <r>   11.4153   -0.0000 </r>
       <r>   11.6386   -0.0000 </r>
      </set>
      <set comment="kpoint 90">
       <r>   -2.8513    1.0000 </r>
       <r>   -2.2039    1.0000 </r>
       <r>   -1.5746    1.0000 </r>
       <r>   -1.2432    1.0000 </r>
       <r>   -0.7746    1.0000 </r>
       <r>   -0.2252    1.0000 </r>
       <r>   -0.0268    1.0000 </r>
       <r>    0.4005    1.0000 </r>
       <r>    0.6855    1.0000 </r>
       <r>    1.0359    1.0000 </r>
       <r>    1.2718    1.0000 </r>
       <r>    1.6136    1.0000 </r>
       <r>    1.7899    1.0000 </r>
       <r>    2.2200    1.0000 </r>
       <r>    2.4390    1.0000 </r>
       <r>    2.7991    1.0000 </r>
       <r>    3.0616    1.0000 </r>
       <r>    3.1976    1.0000 </r>
       <r>    3.3437    1.0000 </r>
       <r>    3.6196    1.0000 </r>
       <r>    3.7733    1.0000 </r>
       <r>    4.1242    1.0000 </r>
       <r>    4.2371    1.0000 </r>
       <r>    4.3252    1.0000 </r>
       <r>    4.6154    1.0000 </r>
       <r>    4.7454    1.0000 </r>
       <r>    4.9137    1.0000 </r>
       <r>    5.2431    1.0000 </r>
       <r>    5.3359    1.0000 </r>
       <r>    5.7475    1.0000 </r>
       <r>    6.0479    1.0000 </r>
       <r>    6.0973    1.0000 </r>
       <r>    6.5345    1.0000 </r>
       <r>    6.5933    1.0000 </r>
       <r>    6.8110    1.0000 </r>
       <r>    6.9697    1.0000 </r>
       <r>    7.0389    1.0000 </r>
       <r>    7.3241    1.0003 </r>
       <r>    7.4524    1.0048 </r>
       <r>    7.5607    1.0228 </r>
       <r>    7.9541    0.2157 </r>
       <r>    8.0205    0.0429 </r>
       <r>    8.2841   -0.0077 </r>
       <r>    8.4771   -0.0001 </r>
       <r>    8.6323   -0.0000 </r>
       <r>    8.8383   -0.0000 </r>
       <r>    8.9879   -0.0000 </r>
       <r>    9.1386   -0.0000 </r>
       <r>    9.3087   -0.0000 </r>
       <r>    9.4195   -0.0000 </r>
       <r>    9.5941   -0.0000 </r>
       <r>    9.8985   -0.0000 </r>
       <r>    9.9636   -0.0000 </r>
       <r>   10.1927   -0.0000 </r>
       <r>   10.2690   -0.0000 </r>
       <r>   10.5583   -0.0000 </r>
       <r>   10.6431   -0.0000 </r>
       <r>   10.7886   -0.0000 </r>
       <r>   10.9614   -0.0000 </r>
       <r>   11.1194   -0.0000 </r>
       <r>   11.2015   -0.0000 </r>
       <r>   11.3135   -0.0000 </r>
       <r>   11.4545   -0.0000 </r>
       <r>   11.5503   -0.0000 </r>
      </set>
      <set comment="kpoint 91">
       <r>   -2.8825    1.0000 </r>
       <r>   -2.0991    1.0000 </r>
       <r>   -1.6337    1.0000 </r>
       <r>   -1.3005    1.0000 </r>
       <r>   -0.6073    1.0000 </r>
       <r>   -0.3695    1.0000 </r>
       <r>    0.0430    1.0000 </r>
       <r>    0.2033    1.0000 </r>
       <r>    0.7199    1.0000 </r>
       <r>    1.0719    1.0000 </r>
       <r>    1.2412    1.0000 </r>
       <r>    1.6738    1.0000 </r>
       <r>    1.9982    1.0000 </r>
       <r>    2.1178    1.0000 </r>
       <r>    2.4397    1.0000 </r>
       <r>    2.8032    1.0000 </r>
       <r>    3.0550    1.0000 </r>
       <r>    3.1366    1.0000 </r>
       <r>    3.4142    1.0000 </r>
       <r>    3.7061    1.0000 </r>
       <r>    3.7748    1.0000 </r>
       <r>    4.0740    1.0000 </r>
       <r>    4.1380    1.0000 </r>
       <r>    4.2878    1.0000 </r>
       <r>    4.6093    1.0000 </r>
       <r>    4.8087    1.0000 </r>
       <r>    4.9331    1.0000 </r>
       <r>    5.1988    1.0000 </r>
       <r>    5.4009    1.0000 </r>
       <r>    5.7176    1.0000 </r>
       <r>    5.9684    1.0000 </r>
       <r>    6.0388    1.0000 </r>
       <r>    6.4385    1.0000 </r>
       <r>    6.6818    1.0000 </r>
       <r>    6.8298    1.0000 </r>
       <r>    6.8828    1.0000 </r>
       <r>    7.0855    1.0000 </r>
       <r>    7.3560    1.0006 </r>
       <r>    7.4723    1.0068 </r>
       <r>    7.6417    1.0354 </r>
       <r>    7.8667    0.5645 </r>
       <r>    7.9958    0.0945 </r>
       <r>    8.3781   -0.0013 </r>
       <r>    8.4069   -0.0007 </r>
       <r>    8.7199   -0.0000 </r>
       <r>    8.7662   -0.0000 </r>
       <r>    9.1418   -0.0000 </r>
       <r>    9.2161   -0.0000 </r>
       <r>    9.2901   -0.0000 </r>
       <r>    9.3913   -0.0000 </r>
       <r>    9.4501   -0.0000 </r>
       <r>    9.8584   -0.0000 </r>
       <r>    9.9250   -0.0000 </r>
       <r>   10.2102   -0.0000 </r>
       <r>   10.3774   -0.0000 </r>
       <r>   10.5164   -0.0000 </r>
       <r>   10.6744   -0.0000 </r>
       <r>   10.7728   -0.0000 </r>
       <r>   11.0003   -0.0000 </r>
       <r>   11.0988   -0.0000 </r>
       <r>   11.2949   -0.0000 </r>
       <r>   11.3470   -0.0000 </r>
       <r>   11.5126   -0.0000 </r>
       <r>   11.6502   -0.0000 </r>
      </set>
      <set comment="kpoint 92">
       <r>   -2.8601    1.0000 </r>
       <r>   -2.1758    1.0000 </r>
       <r>   -1.6283    1.0000 </r>
       <r>   -1.2279    1.0000 </r>
       <r>   -0.6630    1.0000 </r>
       <r>   -0.2638    1.0000 </r>
       <r>   -0.0569    1.0000 </r>
       <r>    0.2918    1.0000 </r>
       <r>    0.7755    1.0000 </r>
       <r>    0.9438    1.0000 </r>
       <r>    1.3221    1.0000 </r>
       <r>    1.4956    1.0000 </r>
       <r>    2.0497    1.0000 </r>
       <r>    2.2093    1.0000 </r>
       <r>    2.4289    1.0000 </r>
       <r>    2.7653    1.0000 </r>
       <r>    2.9413    1.0000 </r>
       <r>    3.1097    1.0000 </r>
       <r>    3.3835    1.0000 </r>
       <r>    3.6626    1.0000 </r>
       <r>    3.9489    1.0000 </r>
       <r>    4.0313    1.0000 </r>
       <r>    4.2113    1.0000 </r>
       <r>    4.3644    1.0000 </r>
       <r>    4.7177    1.0000 </r>
       <r>    4.7972    1.0000 </r>
       <r>    4.9346    1.0000 </r>
       <r>    5.1872    1.0000 </r>
       <r>    5.3962    1.0000 </r>
       <r>    5.6286    1.0000 </r>
       <r>    5.9541    1.0000 </r>
       <r>    6.0472    1.0000 </r>
       <r>    6.4657    1.0000 </r>
       <r>    6.5719    1.0000 </r>
       <r>    6.8513    1.0000 </r>
       <r>    6.9809    1.0000 </r>
       <r>    7.0817    1.0000 </r>
       <r>    7.2810    1.0001 </r>
       <r>    7.4879    1.0088 </r>
       <r>    7.6112    1.0333 </r>
       <r>    7.8699    0.5510 </r>
       <r>    7.9992    0.0863 </r>
       <r>    8.2805   -0.0082 </r>
       <r>    8.5264   -0.0000 </r>
       <r>    8.5989   -0.0000 </r>
       <r>    8.7944   -0.0000 </r>
       <r>    9.1630   -0.0000 </r>
       <r>    9.2575   -0.0000 </r>
       <r>    9.3129   -0.0000 </r>
       <r>    9.3959   -0.0000 </r>
       <r>    9.5438   -0.0000 </r>
       <r>    9.7112   -0.0000 </r>
       <r>   10.0182   -0.0000 </r>
       <r>   10.1722   -0.0000 </r>
       <r>   10.2336   -0.0000 </r>
       <r>   10.5470   -0.0000 </r>
       <r>   10.6552   -0.0000 </r>
       <r>   10.8613   -0.0000 </r>
       <r>   10.9642   -0.0000 </r>
       <r>   11.1249   -0.0000 </r>
       <r>   11.1794   -0.0000 </r>
       <r>   11.4016   -0.0000 </r>
       <r>   11.5647   -0.0000 </r>
       <r>   11.6347   -0.0000 </r>
      </set>
      <set comment="kpoint 93">
       <r>   -2.8603    1.0000 </r>
       <r>   -2.1764    1.0000 </r>
       <r>   -1.6072    1.0000 </r>
       <r>   -1.2281    1.0000 </r>
       <r>   -0.6810    1.0000 </r>
       <r>   -0.4086    1.0000 </r>
       <r>    0.0531    1.0000 </r>
       <r>    0.3303    1.0000 </r>
       <r>    0.7670    1.0000 </r>
       <r>    1.0062    1.0000 </r>
       <r>    1.2365    1.0000 </r>
       <r>    1.6260    1.0000 </r>
       <r>    1.9889    1.0000 </r>
       <r>    2.1420    1.0000 </r>
       <r>    2.4559    1.0000 </r>
       <r>    2.7870    1.0000 </r>
       <r>    3.0309    1.0000 </r>
       <r>    3.1234    1.0000 </r>
       <r>    3.3742    1.0000 </r>
       <r>    3.5422    1.0000 </r>
       <r>    3.8720    1.0000 </r>
       <r>    4.0085    1.0000 </r>
       <r>    4.2111    1.0000 </r>
       <r>    4.3364    1.0000 </r>
       <r>    4.5999    1.0000 </r>
       <r>    4.8475    1.0000 </r>
       <r>    5.0376    1.0000 </r>
       <r>    5.1950    1.0000 </r>
       <r>    5.4790    1.0000 </r>
       <r>    5.6253    1.0000 </r>
       <r>    5.9531    1.0000 </r>
       <r>    6.0418    1.0000 </r>
       <r>    6.4993    1.0000 </r>
       <r>    6.6591    1.0000 </r>
       <r>    6.7331    1.0000 </r>
       <r>    6.9476    1.0000 </r>
       <r>    7.1429    1.0000 </r>
       <r>    7.3064    1.0002 </r>
       <r>    7.4749    1.0071 </r>
       <r>    7.6839    1.0241 </r>
       <r>    7.7603    0.9238 </r>
       <r>    8.0888   -0.0283 </r>
       <r>    8.3345   -0.0031 </r>
       <r>    8.4795   -0.0001 </r>
       <r>    8.5943   -0.0000 </r>
       <r>    8.9105   -0.0000 </r>
       <r>    9.0595   -0.0000 </r>
       <r>    9.2267   -0.0000 </r>
       <r>    9.3434   -0.0000 </r>
       <r>    9.4111   -0.0000 </r>
       <r>    9.4682   -0.0000 </r>
       <r>    9.7854   -0.0000 </r>
       <r>    9.9699   -0.0000 </r>
       <r>   10.0649   -0.0000 </r>
       <r>   10.2741   -0.0000 </r>
       <r>   10.6101   -0.0000 </r>
       <r>   10.6397   -0.0000 </r>
       <r>   10.8629   -0.0000 </r>
       <r>   11.0253   -0.0000 </r>
       <r>   11.0938   -0.0000 </r>
       <r>   11.1529   -0.0000 </r>
       <r>   11.3414   -0.0000 </r>
       <r>   11.4717   -0.0000 </r>
       <r>   11.5496   -0.0000 </r>
      </set>
      <set comment="kpoint 94">
       <r>   -2.8527    1.0000 </r>
       <r>   -2.1914    1.0000 </r>
       <r>   -1.6282    1.0000 </r>
       <r>   -1.2438    1.0000 </r>
       <r>   -0.5712    1.0000 </r>
       <r>   -0.3579    1.0000 </r>
       <r>   -0.0544    1.0000 </r>
       <r>    0.3484    1.0000 </r>
       <r>    0.7883    1.0000 </r>
       <r>    0.9198    1.0000 </r>
       <r>    1.3104    1.0000 </r>
       <r>    1.6046    1.0000 </r>
       <r>    1.7594    1.0000 </r>
       <r>    2.2804    1.0000 </r>
       <r>    2.4441    1.0000 </r>
       <r>    2.8034    1.0000 </r>
       <r>    3.0140    1.0000 </r>
       <r>    3.2091    1.0000 </r>
       <r>    3.3932    1.0000 </r>
       <r>    3.6125    1.0000 </r>
       <r>    3.8463    1.0000 </r>
       <r>    4.0758    1.0000 </r>
       <r>    4.2008    1.0000 </r>
       <r>    4.3808    1.0000 </r>
       <r>    4.6037    1.0000 </r>
       <r>    4.8052    1.0000 </r>
       <r>    4.9967    1.0000 </r>
       <r>    5.1135    1.0000 </r>
       <r>    5.4331    1.0000 </r>
       <r>    5.6131    1.0000 </r>
       <r>    5.9612    1.0000 </r>
       <r>    6.0386    1.0000 </r>
       <r>    6.5074    1.0000 </r>
       <r>    6.6354    1.0000 </r>
       <r>    6.8650    1.0000 </r>
       <r>    6.9447    1.0000 </r>
       <r>    7.1254    1.0000 </r>
       <r>    7.3107    1.0002 </r>
       <r>    7.4295    1.0031 </r>
       <r>    7.6255    1.0350 </r>
       <r>    7.8168    0.7605 </r>
       <r>    8.0549   -0.0048 </r>
       <r>    8.3082   -0.0051 </r>
       <r>    8.4698   -0.0001 </r>
       <r>    8.6577   -0.0000 </r>
       <r>    8.7739   -0.0000 </r>
       <r>    9.0463   -0.0000 </r>
       <r>    9.1807   -0.0000 </r>
       <r>    9.3169   -0.0000 </r>
       <r>    9.4870   -0.0000 </r>
       <r>    9.5036   -0.0000 </r>
       <r>    9.7801   -0.0000 </r>
       <r>   10.0079   -0.0000 </r>
       <r>   10.2233   -0.0000 </r>
       <r>   10.3595   -0.0000 </r>
       <r>   10.4885   -0.0000 </r>
       <r>   10.6984   -0.0000 </r>
       <r>   10.8382   -0.0000 </r>
       <r>   11.0477   -0.0000 </r>
       <r>   11.1361   -0.0000 </r>
       <r>   11.1747   -0.0000 </r>
       <r>   11.2733   -0.0000 </r>
       <r>   11.4110   -0.0000 </r>
       <r>   11.6204   -0.0000 </r>
      </set>
      <set comment="kpoint 95">
       <r>   -2.8863    1.0000 </r>
       <r>   -2.0899    1.0000 </r>
       <r>   -1.6071    1.0000 </r>
       <r>   -1.3060    1.0000 </r>
       <r>   -0.7180    1.0000 </r>
       <r>   -0.3751    1.0000 </r>
       <r>    0.0684    1.0000 </r>
       <r>    0.3397    1.0000 </r>
       <r>    0.6998    1.0000 </r>
       <r>    1.0080    1.0000 </r>
       <r>    1.2369    1.0000 </r>
       <r>    1.7687    1.0000 </r>
       <r>    1.9356    1.0000 </r>
       <r>    2.1786    1.0000 </r>
       <r>    2.3777    1.0000 </r>
       <r>    2.8312    1.0000 </r>
       <r>    3.0303    1.0000 </r>
       <r>    3.1487    1.0000 </r>
       <r>    3.3811    1.0000 </r>
       <r>    3.6250    1.0000 </r>
       <r>    3.7630    1.0000 </r>
       <r>    4.0104    1.0000 </r>
       <r>    4.2221    1.0000 </r>
       <r>    4.3560    1.0000 </r>
       <r>    4.4952    1.0000 </r>
       <r>    4.8958    1.0000 </r>
       <r>    5.0735    1.0000 </r>
       <r>    5.1317    1.0000 </r>
       <r>    5.4141    1.0000 </r>
       <r>    5.6214    1.0000 </r>
       <r>    5.9166    1.0000 </r>
       <r>    6.0929    1.0000 </r>
       <r>    6.4496    1.0000 </r>
       <r>    6.6429    1.0000 </r>
       <r>    6.7797    1.0000 </r>
       <r>    7.0769    1.0000 </r>
       <r>    7.2050    1.0000 </r>
       <r>    7.2928    1.0001 </r>
       <r>    7.4851    1.0084 </r>
       <r>    7.6136    1.0337 </r>
       <r>    7.7959    0.8295 </r>
       <r>    7.9758    0.1475 </r>
       <r>    8.2978   -0.0061 </r>
       <r>    8.5252   -0.0000 </r>
       <r>    8.6203   -0.0000 </r>
       <r>    8.8593   -0.0000 </r>
       <r>    9.0253   -0.0000 </r>
       <r>    9.1870   -0.0000 </r>
       <r>    9.3429   -0.0000 </r>
       <r>    9.4122   -0.0000 </r>
       <r>    9.4825   -0.0000 </r>
       <r>    9.8231   -0.0000 </r>
       <r>   10.0123   -0.0000 </r>
       <r>   10.2360   -0.0000 </r>
       <r>   10.3086   -0.0000 </r>
       <r>   10.5032   -0.0000 </r>
       <r>   10.6127   -0.0000 </r>
       <r>   10.8190   -0.0000 </r>
       <r>   11.0463   -0.0000 </r>
       <r>   11.1083   -0.0000 </r>
       <r>   11.2187   -0.0000 </r>
       <r>   11.3385   -0.0000 </r>
       <r>   11.4664   -0.0000 </r>
       <r>   11.6153   -0.0000 </r>
      </set>
      <set comment="kpoint 96">
       <r>   -2.8632    1.0000 </r>
       <r>   -2.1686    1.0000 </r>
       <r>   -1.5797    1.0000 </r>
       <r>   -1.3258    1.0000 </r>
       <r>   -0.5075    1.0000 </r>
       <r>   -0.4417    1.0000 </r>
       <r>    0.0038    1.0000 </r>
       <r>    0.3659    1.0000 </r>
       <r>    0.6348    1.0000 </r>
       <r>    1.0135    1.0000 </r>
       <r>    1.3149    1.0000 </r>
       <r>    1.6277    1.0000 </r>
       <r>    1.8154    1.0000 </r>
       <r>    2.2471    1.0000 </r>
       <r>    2.4437    1.0000 </r>
       <r>    2.7643    1.0000 </r>
       <r>    3.0028    1.0000 </r>
       <r>    3.2249    1.0000 </r>
       <r>    3.3996    1.0000 </r>
       <r>    3.6674    1.0000 </r>
       <r>    3.8707    1.0000 </r>
       <r>    4.0725    1.0000 </r>
       <r>    4.2015    1.0000 </r>
       <r>    4.3121    1.0000 </r>
       <r>    4.5380    1.0000 </r>
       <r>    4.7678    1.0000 </r>
       <r>    4.9927    1.0000 </r>
       <r>    5.2574    1.0000 </r>
       <r>    5.4153    1.0000 </r>
       <r>    5.5780    1.0000 </r>
       <r>    5.9893    1.0000 </r>
       <r>    6.0507    1.0000 </r>
       <r>    6.5238    1.0000 </r>
       <r>    6.6621    1.0000 </r>
       <r>    6.7915    1.0000 </r>
       <r>    6.9442    1.0000 </r>
       <r>    7.1089    1.0000 </r>
       <r>    7.2202    1.0000 </r>
       <r>    7.3747    1.0010 </r>
       <r>    7.6966    1.0158 </r>
       <r>    7.8515    0.6276 </r>
       <r>    8.0979   -0.0315 </r>
       <r>    8.2981   -0.0061 </r>
       <r>    8.4543   -0.0002 </r>
       <r>    8.7005   -0.0000 </r>
       <r>    8.8581   -0.0000 </r>
       <r>    9.0483   -0.0000 </r>
       <r>    9.1699   -0.0000 </r>
       <r>    9.2698   -0.0000 </r>
       <r>    9.4116   -0.0000 </r>
       <r>    9.6079   -0.0000 </r>
       <r>    9.8238   -0.0000 </r>
       <r>    9.9965   -0.0000 </r>
       <r>   10.1531   -0.0000 </r>
       <r>   10.3474   -0.0000 </r>
       <r>   10.5368   -0.0000 </r>
       <r>   10.5906   -0.0000 </r>
       <r>   10.7293   -0.0000 </r>
       <r>   11.0083   -0.0000 </r>
       <r>   11.1145   -0.0000 </r>
       <r>   11.2072   -0.0000 </r>
       <r>   11.3245   -0.0000 </r>
       <r>   11.5309   -0.0000 </r>
       <r>   11.6790   -0.0000 </r>
      </set>
      <set comment="kpoint 97">
       <r>   -2.8594    1.0000 </r>
       <r>   -2.1775    1.0000 </r>
       <r>   -1.6031    1.0000 </r>
       <r>   -1.2507    1.0000 </r>
       <r>   -0.7345    1.0000 </r>
       <r>   -0.2431    1.0000 </r>
       <r>    0.0186    1.0000 </r>
       <r>    0.3294    1.0000 </r>
       <r>    0.7263    1.0000 </r>
       <r>    0.9395    1.0000 </r>
       <r>    1.2930    1.0000 </r>
       <r>    1.5510    1.0000 </r>
       <r>    2.0260    1.0000 </r>
       <r>    2.1381    1.0000 </r>
       <r>    2.5175    1.0000 </r>
       <r>    2.6683    1.0000 </r>
       <r>    2.9871    1.0000 </r>
       <r>    3.1852    1.0000 </r>
       <r>    3.3895    1.0000 </r>
       <r>    3.6357    1.0000 </r>
       <r>    3.8924    1.0000 </r>
       <r>    3.9996    1.0000 </r>
       <r>    4.2139    1.0000 </r>
       <r>    4.3588    1.0000 </r>
       <r>    4.6687    1.0000 </r>
       <r>    4.8431    1.0000 </r>
       <r>    4.9750    1.0000 </r>
       <r>    5.1881    1.0000 </r>
       <r>    5.3785    1.0000 </r>
       <r>    5.6633    1.0000 </r>
       <r>    6.0024    1.0000 </r>
       <r>    6.0191    1.0000 </r>
       <r>    6.4862    1.0000 </r>
       <r>    6.6231    1.0000 </r>
       <r>    6.7881    1.0000 </r>
       <r>    6.9917    1.0000 </r>
       <r>    7.0800    1.0000 </r>
       <r>    7.2596    1.0000 </r>
       <r>    7.4455    1.0042 </r>
       <r>    7.6184    1.0343 </r>
       <r>    7.8996    0.4260 </r>
       <r>    8.0339    0.0211 </r>
       <r>    8.2825   -0.0079 </r>
       <r>    8.4298   -0.0004 </r>
       <r>    8.6257   -0.0000 </r>
       <r>    8.8295   -0.0000 </r>
       <r>    9.1044   -0.0000 </r>
       <r>    9.2560   -0.0000 </r>
       <r>    9.3269   -0.0000 </r>
       <r>    9.4460   -0.0000 </r>
       <r>    9.5030   -0.0000 </r>
       <r>    9.8277   -0.0000 </r>
       <r>   10.0157   -0.0000 </r>
       <r>   10.1359   -0.0000 </r>
       <r>   10.2480   -0.0000 </r>
       <r>   10.5751   -0.0000 </r>
       <r>   10.6599   -0.0000 </r>
       <r>   10.8156   -0.0000 </r>
       <r>   10.9547   -0.0000 </r>
       <r>   11.0528   -0.0000 </r>
       <r>   11.2046   -0.0000 </r>
       <r>   11.4151   -0.0000 </r>
       <r>   11.4964   -0.0000 </r>
       <r>   11.5917   -0.0000 </r>
      </set>
      <set comment="kpoint 98">
       <r>   -2.8865    1.0000 </r>
       <r>   -2.0915    1.0000 </r>
       <r>   -1.6039    1.0000 </r>
       <r>   -1.3373    1.0000 </r>
       <r>   -0.6471    1.0000 </r>
       <r>   -0.3400    1.0000 </r>
       <r>    0.0634    1.0000 </r>
       <r>    0.2565    1.0000 </r>
       <r>    0.6531    1.0000 </r>
       <r>    1.0035    1.0000 </r>
       <r>    1.2786    1.0000 </r>
       <r>    1.7702    1.0000 </r>
       <r>    1.9498    1.0000 </r>
       <r>    2.1183    1.0000 </r>
       <r>    2.4263    1.0000 </r>
       <r>    2.7537    1.0000 </r>
       <r>    3.0973    1.0000 </r>
       <r>    3.1852    1.0000 </r>
       <r>    3.3667    1.0000 </r>
       <r>    3.6456    1.0000 </r>
       <r>    3.7782    1.0000 </r>
       <r>    4.1061    1.0000 </r>
       <r>    4.2424    1.0000 </r>
       <r>    4.3860    1.0000 </r>
       <r>    4.4843    1.0000 </r>
       <r>    4.8493    1.0000 </r>
       <r>    4.9182    1.0000 </r>
       <r>    5.1685    1.0000 </r>
       <r>    5.3926    1.0000 </r>
       <r>    5.6813    1.0000 </r>
       <r>    5.8936    1.0000 </r>
       <r>    6.0150    1.0000 </r>
       <r>    6.4102    1.0000 </r>
       <r>    6.7364    1.0000 </r>
       <r>    6.8239    1.0000 </r>
       <r>    7.0323    1.0000 </r>
       <r>    7.1041    1.0000 </r>
       <r>    7.3016    1.0002 </r>
       <r>    7.4646    1.0060 </r>
       <r>    7.6581    1.0335 </r>
       <r>    7.8682    0.5584 </r>
       <r>    8.0248    0.0354 </r>
       <r>    8.2398   -0.0149 </r>
       <r>    8.4168   -0.0005 </r>
       <r>    8.6622   -0.0000 </r>
       <r>    8.8792   -0.0000 </r>
       <r>    9.0276   -0.0000 </r>
       <r>    9.2308   -0.0000 </r>
       <r>    9.3495   -0.0000 </r>
       <r>    9.3987   -0.0000 </r>
       <r>    9.4600   -0.0000 </r>
       <r>    9.8258   -0.0000 </r>
       <r>   10.0462   -0.0000 </r>
       <r>   10.2483   -0.0000 </r>
       <r>   10.3681   -0.0000 </r>
       <r>   10.4542   -0.0000 </r>
       <r>   10.6242   -0.0000 </r>
       <r>   10.8298   -0.0000 </r>
       <r>   11.0400   -0.0000 </r>
       <r>   11.1295   -0.0000 </r>
       <r>   11.1964   -0.0000 </r>
       <r>   11.4006   -0.0000 </r>
       <r>   11.4760   -0.0000 </r>
       <r>   11.5834   -0.0000 </r>
      </set>
      <set comment="kpoint 99">
       <r>   -2.8617    1.0000 </r>
       <r>   -2.1807    1.0000 </r>
       <r>   -1.5499    1.0000 </r>
       <r>   -1.2902    1.0000 </r>
       <r>   -0.7610    1.0000 </r>
       <r>   -0.2584    1.0000 </r>
       <r>   -0.0117    1.0000 </r>
       <r>    0.4443    1.0000 </r>
       <r>    0.6716    1.0000 </r>
       <r>    0.9752    1.0000 </r>
       <r>    1.2826    1.0000 </r>
       <r>    1.5800    1.0000 </r>
       <r>    1.8707    1.0000 </r>
       <r>    2.1919    1.0000 </r>
       <r>    2.5405    1.0000 </r>
       <r>    2.7131    1.0000 </r>
       <r>    3.0505    1.0000 </r>
       <r>    3.2124    1.0000 </r>
       <r>    3.3384    1.0000 </r>
       <r>    3.6386    1.0000 </r>
       <r>    3.7757    1.0000 </r>
       <r>    4.0692    1.0000 </r>
       <r>    4.1568    1.0000 </r>
       <r>    4.4454    1.0000 </r>
       <r>    4.6781    1.0000 </r>
       <r>    4.7891    1.0000 </r>
       <r>    4.9165    1.0000 </r>
       <r>    5.2028    1.0000 </r>
       <r>    5.2777    1.0000 </r>
       <r>    5.7952    1.0000 </r>
       <r>    5.9860    1.0000 </r>
       <r>    6.0455    1.0000 </r>
       <r>    6.5318    1.0000 </r>
       <r>    6.6914    1.0000 </r>
       <r>    6.8399    1.0000 </r>
       <r>    6.9545    1.0000 </r>
       <r>    7.0241    1.0000 </r>
       <r>    7.1464    1.0000 </r>
       <r>    7.4218    1.0027 </r>
       <r>    7.5870    1.0287 </r>
       <r>    7.8993    0.4273 </r>
       <r>    8.0666   -0.0151 </r>
       <r>    8.3928   -0.0009 </r>
       <r>    8.5134   -0.0000 </r>
       <r>    8.5980   -0.0000 </r>
       <r>    8.8418   -0.0000 </r>
       <r>    9.0695   -0.0000 </r>
       <r>    9.2151   -0.0000 </r>
       <r>    9.2976   -0.0000 </r>
       <r>    9.4289   -0.0000 </r>
       <r>    9.6285   -0.0000 </r>
       <r>    9.7808   -0.0000 </r>
       <r>    9.9629   -0.0000 </r>
       <r>   10.1521   -0.0000 </r>
       <r>   10.2334   -0.0000 </r>
       <r>   10.5096   -0.0000 </r>
       <r>   10.7609   -0.0000 </r>
       <r>   10.7964   -0.0000 </r>
       <r>   10.9212   -0.0000 </r>
       <r>   11.0929   -0.0000 </r>
       <r>   11.1912   -0.0000 </r>
       <r>   11.3499   -0.0000 </r>
       <r>   11.5495   -0.0000 </r>
       <r>   11.5955   -0.0000 </r>
      </set>
      <set comment="kpoint 100">
       <r>   -2.8680    1.0000 </r>
       <r>   -2.1723    1.0000 </r>
       <r>   -1.5065    1.0000 </r>
       <r>   -1.3520    1.0000 </r>
       <r>   -0.6168    1.0000 </r>
       <r>   -0.3884    1.0000 </r>
       <r>   -0.0464    1.0000 </r>
       <r>    0.3340    1.0000 </r>
       <r>    0.7020    1.0000 </r>
       <r>    1.0493    1.0000 </r>
       <r>    1.2354    1.0000 </r>
       <r>    1.7596    1.0000 </r>
       <r>    1.9914    1.0000 </r>
       <r>    2.1610    1.0000 </r>
       <r>    2.4278    1.0000 </r>
       <r>    2.6795    1.0000 </r>
       <r>    3.0392    1.0000 </r>
       <r>    3.1801    1.0000 </r>
       <r>    3.3341    1.0000 </r>
       <r>    3.6880    1.0000 </r>
       <r>    3.7571    1.0000 </r>
       <r>    4.0463    1.0000 </r>
       <r>    4.1426    1.0000 </r>
       <r>    4.3681    1.0000 </r>
       <r>    4.6506    1.0000 </r>
       <r>    4.8603    1.0000 </r>
       <r>    4.9049    1.0000 </r>
       <r>    5.2312    1.0000 </r>
       <r>    5.3956    1.0000 </r>
       <r>    5.7186    1.0000 </r>
       <r>    5.9597    1.0000 </r>
       <r>    5.9938    1.0000 </r>
       <r>    6.5339    1.0000 </r>
       <r>    6.5972    1.0000 </r>
       <r>    6.8982    1.0000 </r>
       <r>    6.9426    1.0000 </r>
       <r>    7.0554    1.0000 </r>
       <r>    7.2863    1.0001 </r>
       <r>    7.4753    1.0072 </r>
       <r>    7.6332    1.0354 </r>
       <r>    7.8906    0.4637 </r>
       <r>    8.0033    0.0772 </r>
       <r>    8.3354   -0.0031 </r>
       <r>    8.4992   -0.0001 </r>
       <r>    8.7078   -0.0000 </r>
       <r>    8.7951   -0.0000 </r>
       <r>    8.9494   -0.0000 </r>
       <r>    9.2251   -0.0000 </r>
       <r>    9.3779   -0.0000 </r>
       <r>    9.4569   -0.0000 </r>
       <r>    9.5107   -0.0000 </r>
       <r>    9.7511   -0.0000 </r>
       <r>    9.9433   -0.0000 </r>
       <r>   10.1852   -0.0000 </r>
       <r>   10.3378   -0.0000 </r>
       <r>   10.4647   -0.0000 </r>
       <r>   10.6679   -0.0000 </r>
       <r>   10.8335   -0.0000 </r>
       <r>   10.9511   -0.0000 </r>
       <r>   11.0971   -0.0000 </r>
       <r>   11.2816   -0.0000 </r>
       <r>   11.3248   -0.0000 </r>
       <r>   11.4656   -0.0000 </r>
       <r>   11.6238   -0.0000 </r>
      </set>
      <set comment="kpoint 101">
       <r>   -2.6772    1.0000 </r>
       <r>   -2.1106    1.0000 </r>
       <r>   -1.8650    1.0000 </r>
       <r>   -1.3199    1.0000 </r>
       <r>   -1.2446    1.0000 </r>
       <r>   -0.6783    1.0000 </r>
       <r>    0.6867    1.0000 </r>
       <r>    0.8376    1.0000 </r>
       <r>    1.2413    1.0000 </r>
       <r>    1.3318    1.0000 </r>
       <r>    1.7238    1.0000 </r>
       <r>    1.8281    1.0000 </r>
       <r>    1.9297    1.0000 </r>
       <r>    2.1462    1.0000 </r>
       <r>    2.3293    1.0000 </r>
       <r>    2.4390    1.0000 </r>
       <r>    2.5354    1.0000 </r>
       <r>    2.7610    1.0000 </r>
       <r>    2.8415    1.0000 </r>
       <r>    3.1749    1.0000 </r>
       <r>    3.3784    1.0000 </r>
       <r>    3.8354    1.0000 </r>
       <r>    4.2403    1.0000 </r>
       <r>    4.6867    1.0000 </r>
       <r>    4.8260    1.0000 </r>
       <r>    5.0318    1.0000 </r>
       <r>    5.1526    1.0000 </r>
       <r>    5.3324    1.0000 </r>
       <r>    5.5443    1.0000 </r>
       <r>    5.8000    1.0000 </r>
       <r>    5.9428    1.0000 </r>
       <r>    6.0170    1.0000 </r>
       <r>    6.1162    1.0000 </r>
       <r>    6.3306    1.0000 </r>
       <r>    6.4682    1.0000 </r>
       <r>    6.8205    1.0000 </r>
       <r>    7.1757    1.0000 </r>
       <r>    7.3024    1.0002 </r>
       <r>    7.6126    1.0335 </r>
       <r>    7.7199    0.9927 </r>
       <r>    7.9422    0.2579 </r>
       <r>    8.0596   -0.0093 </r>
       <r>    8.4637   -0.0002 </r>
       <r>    8.7340   -0.0000 </r>
       <r>    8.8670   -0.0000 </r>
       <r>    9.0096   -0.0000 </r>
       <r>    9.1257   -0.0000 </r>
       <r>    9.2755   -0.0000 </r>
       <r>    9.5189   -0.0000 </r>
       <r>    9.5449   -0.0000 </r>
       <r>    9.7894   -0.0000 </r>
       <r>    9.8905   -0.0000 </r>
       <r>   10.0705   -0.0000 </r>
       <r>   10.2197   -0.0000 </r>
       <r>   10.5126   -0.0000 </r>
       <r>   10.5575   -0.0000 </r>
       <r>   10.7858   -0.0000 </r>
       <r>   10.8488   -0.0000 </r>
       <r>   10.9085   -0.0000 </r>
       <r>   11.1408   -0.0000 </r>
       <r>   11.2198   -0.0000 </r>
       <r>   11.3492   -0.0000 </r>
       <r>   11.4949   -0.0000 </r>
       <r>   11.6979   -0.0000 </r>
      </set>
      <set comment="kpoint 102">
       <r>   -2.6691    1.0000 </r>
       <r>   -2.1199    1.0000 </r>
       <r>   -1.8867    1.0000 </r>
       <r>   -1.4715    1.0000 </r>
       <r>   -1.0184    1.0000 </r>
       <r>   -0.6311    1.0000 </r>
       <r>    0.5267    1.0000 </r>
       <r>    0.8984    1.0000 </r>
       <r>    1.1345    1.0000 </r>
       <r>    1.4215    1.0000 </r>
       <r>    1.5417    1.0000 </r>
       <r>    1.7154    1.0000 </r>
       <r>    1.9937    1.0000 </r>
       <r>    2.1721    1.0000 </r>
       <r>    2.3004    1.0000 </r>
       <r>    2.4913    1.0000 </r>
       <r>    2.6869    1.0000 </r>
       <r>    2.8186    1.0000 </r>
       <r>    2.8855    1.0000 </r>
       <r>    3.2681    1.0000 </r>
       <r>    3.3873    1.0000 </r>
       <r>    3.8218    1.0000 </r>
       <r>    4.2556    1.0000 </r>
       <r>    4.6568    1.0000 </r>
       <r>    4.8226    1.0000 </r>
       <r>    5.0388    1.0000 </r>
       <r>    5.2350    1.0000 </r>
       <r>    5.3093    1.0000 </r>
       <r>    5.4714    1.0000 </r>
       <r>    5.7373    1.0000 </r>
       <r>    5.8571    1.0000 </r>
       <r>    5.9507    1.0000 </r>
       <r>    6.1246    1.0000 </r>
       <r>    6.2553    1.0000 </r>
       <r>    6.5729    1.0000 </r>
       <r>    6.8472    1.0000 </r>
       <r>    7.0430    1.0000 </r>
       <r>    7.3402    1.0004 </r>
       <r>    7.5114    1.0125 </r>
       <r>    7.8274    0.7219 </r>
       <r>    7.9243    0.3255 </r>
       <r>    8.1136   -0.0347 </r>
       <r>    8.5159   -0.0000 </r>
       <r>    8.6504   -0.0000 </r>
       <r>    8.7982   -0.0000 </r>
       <r>    8.9848   -0.0000 </r>
       <r>    9.1750   -0.0000 </r>
       <r>    9.3219   -0.0000 </r>
       <r>    9.5381   -0.0000 </r>
       <r>    9.5974   -0.0000 </r>
       <r>    9.7574   -0.0000 </r>
       <r>    9.9586   -0.0000 </r>
       <r>   10.1960   -0.0000 </r>
       <r>   10.2381   -0.0000 </r>
       <r>   10.3900   -0.0000 </r>
       <r>   10.5983   -0.0000 </r>
       <r>   10.7342   -0.0000 </r>
       <r>   10.8814   -0.0000 </r>
       <r>   11.0021   -0.0000 </r>
       <r>   11.0757   -0.0000 </r>
       <r>   11.1855   -0.0000 </r>
       <r>   11.3345   -0.0000 </r>
       <r>   11.5084   -0.0000 </r>
       <r>   11.8187   -0.0000 </r>
      </set>
      <set comment="kpoint 103">
       <r>   -2.6654    1.0000 </r>
       <r>   -2.1070    1.0000 </r>
       <r>   -1.8978    1.0000 </r>
       <r>   -1.3276    1.0000 </r>
       <r>   -1.2346    1.0000 </r>
       <r>   -0.6788    1.0000 </r>
       <r>    0.7410    1.0000 </r>
       <r>    0.8565    1.0000 </r>
       <r>    1.2521    1.0000 </r>
       <r>    1.4157    1.0000 </r>
       <r>    1.5788    1.0000 </r>
       <r>    1.8329    1.0000 </r>
       <r>    1.9273    1.0000 </r>
       <r>    2.1925    1.0000 </r>
       <r>    2.2714    1.0000 </r>
       <r>    2.3919    1.0000 </r>
       <r>    2.5983    1.0000 </r>
       <r>    2.7163    1.0000 </r>
       <r>    2.8960    1.0000 </r>
       <r>    3.1682    1.0000 </r>
       <r>    3.2823    1.0000 </r>
       <r>    3.8419    1.0000 </r>
       <r>    4.2572    1.0000 </r>
       <r>    4.5759    1.0000 </r>
       <r>    4.8526    1.0000 </r>
       <r>    5.1363    1.0000 </r>
       <r>    5.2485    1.0000 </r>
       <r>    5.3063    1.0000 </r>
       <r>    5.5381    1.0000 </r>
       <r>    5.8039    1.0000 </r>
       <r>    5.8956    1.0000 </r>
       <r>    6.0632    1.0000 </r>
       <r>    6.1278    1.0000 </r>
       <r>    6.2852    1.0000 </r>
       <r>    6.5676    1.0000 </r>
       <r>    6.7866    1.0000 </r>
       <r>    7.1678    1.0000 </r>
       <r>    7.2960    1.0001 </r>
       <r>    7.5838    1.0281 </r>
       <r>    7.8240    0.7343 </r>
       <r>    7.9231    0.3301 </r>
       <r>    8.0239    0.0369 </r>
       <r>    8.4600   -0.0002 </r>
       <r>    8.6324   -0.0000 </r>
       <r>    8.8402   -0.0000 </r>
       <r>    8.9023   -0.0000 </r>
       <r>    9.2379   -0.0000 </r>
       <r>    9.3420   -0.0000 </r>
       <r>    9.4625   -0.0000 </r>
       <r>    9.6045   -0.0000 </r>
       <r>    9.8534   -0.0000 </r>
       <r>    9.9454   -0.0000 </r>
       <r>   10.1766   -0.0000 </r>
       <r>   10.2645   -0.0000 </r>
       <r>   10.3797   -0.0000 </r>
       <r>   10.4638   -0.0000 </r>
       <r>   10.7326   -0.0000 </r>
       <r>   10.8694   -0.0000 </r>
       <r>   10.9573   -0.0000 </r>
       <r>   11.1197   -0.0000 </r>
       <r>   11.1479   -0.0000 </r>
       <r>   11.2664   -0.0000 </r>
       <r>   11.4969   -0.0000 </r>
       <r>   11.7365   -0.0000 </r>
      </set>
      <set comment="kpoint 104">
       <r>   -2.6604    1.0000 </r>
       <r>   -2.1764    1.0000 </r>
       <r>   -1.8190    1.0000 </r>
       <r>   -1.3409    1.0000 </r>
       <r>   -1.1966    1.0000 </r>
       <r>   -0.7069    1.0000 </r>
       <r>    0.7250    1.0000 </r>
       <r>    0.8022    1.0000 </r>
       <r>    1.2963    1.0000 </r>
       <r>    1.4636    1.0000 </r>
       <r>    1.5390    1.0000 </r>
       <r>    1.7299    1.0000 </r>
       <r>    1.8842    1.0000 </r>
       <r>    2.2560    1.0000 </r>
       <r>    2.3458    1.0000 </r>
       <r>    2.4531    1.0000 </r>
       <r>    2.5977    1.0000 </r>
       <r>    2.6886    1.0000 </r>
       <r>    2.8219    1.0000 </r>
       <r>    3.2042    1.0000 </r>
       <r>    3.3967    1.0000 </r>
       <r>    3.8148    1.0000 </r>
       <r>    4.2373    1.0000 </r>
       <r>    4.6769    1.0000 </r>
       <r>    4.8437    1.0000 </r>
       <r>    5.1014    1.0000 </r>
       <r>    5.1928    1.0000 </r>
       <r>    5.3599    1.0000 </r>
       <r>    5.4653    1.0000 </r>
       <r>    5.6938    1.0000 </r>
       <r>    5.8254    1.0000 </r>
       <r>    6.0726    1.0000 </r>
       <r>    6.1761    1.0000 </r>
       <r>    6.3350    1.0000 </r>
       <r>    6.5088    1.0000 </r>
       <r>    6.8586    1.0000 </r>
       <r>    7.1688    1.0000 </r>
       <r>    7.2925    1.0001 </r>
       <r>    7.6123    1.0335 </r>
       <r>    7.7920    0.8416 </r>
       <r>    7.9020    0.4159 </r>
       <r>    8.0378    0.0155 </r>
       <r>    8.4607   -0.0002 </r>
       <r>    8.6871   -0.0000 </r>
       <r>    8.7922   -0.0000 </r>
       <r>    9.0508   -0.0000 </r>
       <r>    9.2229   -0.0000 </r>
       <r>    9.2858   -0.0000 </r>
       <r>    9.4201   -0.0000 </r>
       <r>    9.5567   -0.0000 </r>
       <r>    9.8417   -0.0000 </r>
       <r>    9.9356   -0.0000 </r>
       <r>   10.0620   -0.0000 </r>
       <r>   10.2547   -0.0000 </r>
       <r>   10.4023   -0.0000 </r>
       <r>   10.5852   -0.0000 </r>
       <r>   10.7223   -0.0000 </r>
       <r>   10.8721   -0.0000 </r>
       <r>   10.9890   -0.0000 </r>
       <r>   11.0630   -0.0000 </r>
       <r>   11.1883   -0.0000 </r>
       <r>   11.3474   -0.0000 </r>
       <r>   11.4121   -0.0000 </r>
       <r>   11.8336   -0.0000 </r>
      </set>
      <set comment="kpoint 105">
       <r>   -2.6785    1.0000 </r>
       <r>   -2.0697    1.0000 </r>
       <r>   -1.8885    1.0000 </r>
       <r>   -1.3883    1.0000 </r>
       <r>   -1.2280    1.0000 </r>
       <r>   -0.6620    1.0000 </r>
       <r>    0.7301    1.0000 </r>
       <r>    0.8718    1.0000 </r>
       <r>    1.2327    1.0000 </r>
       <r>    1.4127    1.0000 </r>
       <r>    1.6138    1.0000 </r>
       <r>    1.8456    1.0000 </r>
       <r>    1.9511    1.0000 </r>
       <r>    2.1384    1.0000 </r>
       <r>    2.3320    1.0000 </r>
       <r>    2.3822    1.0000 </r>
       <r>    2.5136    1.0000 </r>
       <r>    2.7193    1.0000 </r>
       <r>    2.9015    1.0000 </r>
       <r>    3.1839    1.0000 </r>
       <r>    3.3065    1.0000 </r>
       <r>    3.8285    1.0000 </r>
       <r>    4.2716    1.0000 </r>
       <r>    4.6646    1.0000 </r>
       <r>    4.8546    1.0000 </r>
       <r>    5.0120    1.0000 </r>
       <r>    5.1702    1.0000 </r>
       <r>    5.3967    1.0000 </r>
       <r>    5.5599    1.0000 </r>
       <r>    5.7574    1.0000 </r>
       <r>    5.8895    1.0000 </r>
       <r>    5.9942    1.0000 </r>
       <r>    6.1909    1.0000 </r>
       <r>    6.3033    1.0000 </r>
       <r>    6.5259    1.0000 </r>
       <r>    6.8435    1.0000 </r>
       <r>    7.2014    1.0000 </r>
       <r>    7.3070    1.0002 </r>
       <r>    7.5788    1.0269 </r>
       <r>    7.7614    0.9214 </r>
       <r>    7.9405    0.2640 </r>
       <r>    8.0181    0.0471 </r>
       <r>    8.5008   -0.0001 </r>
       <r>    8.7261   -0.0000 </r>
       <r>    8.7976   -0.0000 </r>
       <r>    8.8843   -0.0000 </r>
       <r>    9.2129   -0.0000 </r>
       <r>    9.2709   -0.0000 </r>
       <r>    9.4904   -0.0000 </r>
       <r>    9.6125   -0.0000 </r>
       <r>    9.8758   -0.0000 </r>
       <r>    9.9653   -0.0000 </r>
       <r>   10.1043   -0.0000 </r>
       <r>   10.2410   -0.0000 </r>
       <r>   10.4110   -0.0000 </r>
       <r>   10.5344   -0.0000 </r>
       <r>   10.7411   -0.0000 </r>
       <r>   10.7956   -0.0000 </r>
       <r>   11.0155   -0.0000 </r>
       <r>   11.0815   -0.0000 </r>
       <r>   11.1404   -0.0000 </r>
       <r>   11.3746   -0.0000 </r>
       <r>   11.4268   -0.0000 </r>
       <r>   11.7272   -0.0000 </r>
      </set>
      <set comment="kpoint 106">
       <r>   -2.6625    1.0000 </r>
       <r>   -2.1442    1.0000 </r>
       <r>   -1.8699    1.0000 </r>
       <r>   -1.4705    1.0000 </r>
       <r>   -1.0164    1.0000 </r>
       <r>   -0.6356    1.0000 </r>
       <r>    0.5120    1.0000 </r>
       <r>    0.8917    1.0000 </r>
       <r>    1.2506    1.0000 </r>
       <r>    1.4099    1.0000 </r>
       <r>    1.5265    1.0000 </r>
       <r>    1.6995    1.0000 </r>
       <r>    1.8818    1.0000 </r>
       <r>    2.1539    1.0000 </r>
       <r>    2.2764    1.0000 </r>
       <r>    2.6016    1.0000 </r>
       <r>    2.7329    1.0000 </r>
       <r>    2.8247    1.0000 </r>
       <r>    2.8850    1.0000 </r>
       <r>    3.1865    1.0000 </r>
       <r>    3.3964    1.0000 </r>
       <r>    3.8221    1.0000 </r>
       <r>    4.2739    1.0000 </r>
       <r>    4.6382    1.0000 </r>
       <r>    4.8448    1.0000 </r>
       <r>    5.0321    1.0000 </r>
       <r>    5.2601    1.0000 </r>
       <r>    5.2801    1.0000 </r>
       <r>    5.4489    1.0000 </r>
       <r>    5.7185    1.0000 </r>
       <r>    5.8898    1.0000 </r>
       <r>    5.9424    1.0000 </r>
       <r>    6.1162    1.0000 </r>
       <r>    6.2904    1.0000 </r>
       <r>    6.5833    1.0000 </r>
       <r>    6.8258    1.0000 </r>
       <r>    7.0424    1.0000 </r>
       <r>    7.3609    1.0007 </r>
       <r>    7.5382    1.0177 </r>
       <r>    7.8202    0.7482 </r>
       <r>    7.9222    0.3336 </r>
       <r>    8.1584   -0.0324 </r>
       <r>    8.4394   -0.0003 </r>
       <r>    8.6020   -0.0000 </r>
       <r>    8.8910   -0.0000 </r>
       <r>    9.0099   -0.0000 </r>
       <r>    9.2022   -0.0000 </r>
       <r>    9.2449   -0.0000 </r>
       <r>    9.4418   -0.0000 </r>
       <r>    9.6209   -0.0000 </r>
       <r>    9.7817   -0.0000 </r>
       <r>   10.0002   -0.0000 </r>
       <r>   10.1313   -0.0000 </r>
       <r>   10.2003   -0.0000 </r>
       <r>   10.4591   -0.0000 </r>
       <r>   10.5717   -0.0000 </r>
       <r>   10.6991   -0.0000 </r>
       <r>   10.9094   -0.0000 </r>
       <r>   11.0144   -0.0000 </r>
       <r>   11.0603   -0.0000 </r>
       <r>   11.2092   -0.0000 </r>
       <r>   11.4324   -0.0000 </r>
       <r>   11.5142   -0.0000 </r>
       <r>   11.8491   -0.0000 </r>
      </set>
      <set comment="kpoint 107">
       <r>   -2.6555    1.0000 </r>
       <r>   -2.1935    1.0000 </r>
       <r>   -1.7968    1.0000 </r>
       <r>   -1.3219    1.0000 </r>
       <r>   -1.2516    1.0000 </r>
       <r>   -0.6758    1.0000 </r>
       <r>    0.6930    1.0000 </r>
       <r>    0.8917    1.0000 </r>
       <r>    1.2280    1.0000 </r>
       <r>    1.4212    1.0000 </r>
       <r>    1.5784    1.0000 </r>
       <r>    1.7422    1.0000 </r>
       <r>    1.9224    1.0000 </r>
       <r>    2.1540    1.0000 </r>
       <r>    2.3593    1.0000 </r>
       <r>    2.4148    1.0000 </r>
       <r>    2.5259    1.0000 </r>
       <r>    2.7183    1.0000 </r>
       <r>    3.0127    1.0000 </r>
       <r>    3.2151    1.0000 </r>
       <r>    3.3563    1.0000 </r>
       <r>    3.7907    1.0000 </r>
       <r>    4.2756    1.0000 </r>
       <r>    4.6076    1.0000 </r>
       <r>    4.8319    1.0000 </r>
       <r>    5.0481    1.0000 </r>
       <r>    5.2041    1.0000 </r>
       <r>    5.3405    1.0000 </r>
       <r>    5.5248    1.0000 </r>
       <r>    5.7709    1.0000 </r>
       <r>    5.8680    1.0000 </r>
       <r>    5.9737    1.0000 </r>
       <r>    6.2121    1.0000 </r>
       <r>    6.3454    1.0000 </r>
       <r>    6.5501    1.0000 </r>
       <r>    6.7770    1.0000 </r>
       <r>    7.1411    1.0000 </r>
       <r>    7.2823    1.0001 </r>
       <r>    7.6795    1.0264 </r>
       <r>    7.7996    0.8179 </r>
       <r>    7.9366    0.2783 </r>
       <r>    8.0649   -0.0138 </r>
       <r>    8.4517   -0.0002 </r>
       <r>    8.6583   -0.0000 </r>
       <r>    8.7283   -0.0000 </r>
       <r>    8.9242   -0.0000 </r>
       <r>    9.1836   -0.0000 </r>
       <r>    9.3750   -0.0000 </r>
       <r>    9.4272   -0.0000 </r>
       <r>    9.5548   -0.0000 </r>
       <r>    9.7992   -0.0000 </r>
       <r>   10.0565   -0.0000 </r>
       <r>   10.1164   -0.0000 </r>
       <r>   10.1690   -0.0000 </r>
       <r>   10.4657   -0.0000 </r>
       <r>   10.5429   -0.0000 </r>
       <r>   10.7005   -0.0000 </r>
       <r>   10.8053   -0.0000 </r>
       <r>   11.0603   -0.0000 </r>
       <r>   11.1266   -0.0000 </r>
       <r>   11.2837   -0.0000 </r>
       <r>   11.3619   -0.0000 </r>
       <r>   11.4380   -0.0000 </r>
       <r>   11.7914   -0.0000 </r>
      </set>
      <set comment="kpoint 108">
       <r>   -2.6620    1.0000 </r>
       <r>   -2.1770    1.0000 </r>
       <r>   -1.7974    1.0000 </r>
       <r>   -1.4878    1.0000 </r>
       <r>   -1.0775    1.0000 </r>
       <r>   -0.5971    1.0000 </r>
       <r>    0.5609    1.0000 </r>
       <r>    0.8882    1.0000 </r>
       <r>    1.0530    1.0000 </r>
       <r>    1.3976    1.0000 </r>
       <r>    1.6304    1.0000 </r>
       <r>    1.7853    1.0000 </r>
       <r>    2.0201    1.0000 </r>
       <r>    2.1029    1.0000 </r>
       <r>    2.2976    1.0000 </r>
       <r>    2.4834    1.0000 </r>
       <r>    2.5798    1.0000 </r>
       <r>    2.8514    1.0000 </r>
       <r>    3.0128    1.0000 </r>
       <r>    3.1683    1.0000 </r>
       <r>    3.3902    1.0000 </r>
       <r>    3.8304    1.0000 </r>
       <r>    4.2692    1.0000 </r>
       <r>    4.7095    1.0000 </r>
       <r>    4.7869    1.0000 </r>
       <r>    5.0449    1.0000 </r>
       <r>    5.1655    1.0000 </r>
       <r>    5.3416    1.0000 </r>
       <r>    5.4333    1.0000 </r>
       <r>    5.6876    1.0000 </r>
       <r>    5.8898    1.0000 </r>
       <r>    5.9971    1.0000 </r>
       <r>    6.1748    1.0000 </r>
       <r>    6.2740    1.0000 </r>
       <r>    6.5795    1.0000 </r>
       <r>    6.7783    1.0000 </r>
       <r>    7.0563    1.0000 </r>
       <r>    7.2692    1.0001 </r>
       <r>    7.6195    1.0344 </r>
       <r>    7.7970    0.8262 </r>
       <r>    7.9421    0.2579 </r>
       <r>    8.1911   -0.0256 </r>
       <r>    8.4317   -0.0004 </r>
       <r>    8.6876   -0.0000 </r>
       <r>    8.7270   -0.0000 </r>
       <r>    9.0469   -0.0000 </r>
       <r>    9.2212   -0.0000 </r>
       <r>    9.2792   -0.0000 </r>
       <r>    9.3733   -0.0000 </r>
       <r>    9.6066   -0.0000 </r>
       <r>    9.8578   -0.0000 </r>
       <r>   10.0157   -0.0000 </r>
       <r>   10.1465   -0.0000 </r>
       <r>   10.2308   -0.0000 </r>
       <r>   10.4538   -0.0000 </r>
       <r>   10.5307   -0.0000 </r>
       <r>   10.7334   -0.0000 </r>
       <r>   10.8757   -0.0000 </r>
       <r>   10.9641   -0.0000 </r>
       <r>   11.1267   -0.0000 </r>
       <r>   11.2362   -0.0000 </r>
       <r>   11.3909   -0.0000 </r>
       <r>   11.5157   -0.0000 </r>
       <r>   11.7918   -0.0000 </r>
      </set>
      <set comment="kpoint 109">
       <r>   -2.6644    1.0000 </r>
       <r>   -2.1447    1.0000 </r>
       <r>   -1.8201    1.0000 </r>
       <r>   -1.3867    1.0000 </r>
       <r>   -1.2430    1.0000 </r>
       <r>   -0.6507    1.0000 </r>
       <r>    0.7583    1.0000 </r>
       <r>    0.8825    1.0000 </r>
       <r>    1.2724    1.0000 </r>
       <r>    1.4321    1.0000 </r>
       <r>    1.4989    1.0000 </r>
       <r>    1.7388    1.0000 </r>
       <r>    1.9504    1.0000 </r>
       <r>    2.1688    1.0000 </r>
       <r>    2.2896    1.0000 </r>
       <r>    2.3955    1.0000 </r>
       <r>    2.6147    1.0000 </r>
       <r>    2.7257    1.0000 </r>
       <r>    2.9577    1.0000 </r>
       <r>    3.1541    1.0000 </r>
       <r>    3.3227    1.0000 </r>
       <r>    3.8179    1.0000 </r>
       <r>    4.2975    1.0000 </r>
       <r>    4.5963    1.0000 </r>
       <r>    4.8526    1.0000 </r>
       <r>    5.0128    1.0000 </r>
       <r>    5.1745    1.0000 </r>
       <r>    5.4306    1.0000 </r>
       <r>    5.5442    1.0000 </r>
       <r>    5.7362    1.0000 </r>
       <r>    5.8758    1.0000 </r>
       <r>    6.0715    1.0000 </r>
       <r>    6.1832    1.0000 </r>
       <r>    6.3092    1.0000 </r>
       <r>    6.5503    1.0000 </r>
       <r>    6.7338    1.0000 </r>
       <r>    7.2052    1.0000 </r>
       <r>    7.3158    1.0002 </r>
       <r>    7.6637    1.0322 </r>
       <r>    7.8078    0.7913 </r>
       <r>    7.9046    0.4050 </r>
       <r>    8.0559   -0.0058 </r>
       <r>    8.4776   -0.0001 </r>
       <r>    8.5616   -0.0000 </r>
       <r>    8.7257   -0.0000 </r>
       <r>    8.8985   -0.0000 </r>
       <r>    9.2761   -0.0000 </r>
       <r>    9.3345   -0.0000 </r>
       <r>    9.4337   -0.0000 </r>
       <r>    9.5675   -0.0000 </r>
       <r>    9.8896   -0.0000 </r>
       <r>   10.0499   -0.0000 </r>
       <r>   10.1314   -0.0000 </r>
       <r>   10.2724   -0.0000 </r>
       <r>   10.3839   -0.0000 </r>
       <r>   10.4651   -0.0000 </r>
       <r>   10.7640   -0.0000 </r>
       <r>   10.8802   -0.0000 </r>
       <r>   11.0271   -0.0000 </r>
       <r>   11.1693   -0.0000 </r>
       <r>   11.2134   -0.0000 </r>
       <r>   11.2772   -0.0000 </r>
       <r>   11.3833   -0.0000 </r>
       <r>   11.7625   -0.0000 </r>
      </set>
      <set comment="kpoint 110">
       <r>   -2.6637    1.0000 </r>
       <r>   -2.1618    1.0000 </r>
       <r>   -1.8336    1.0000 </r>
       <r>   -1.3435    1.0000 </r>
       <r>   -1.1980    1.0000 </r>
       <r>   -0.6925    1.0000 </r>
       <r>    0.6713    1.0000 </r>
       <r>    0.8508    1.0000 </r>
       <r>    1.3096    1.0000 </r>
       <r>    1.4432    1.0000 </r>
       <r>    1.5787    1.0000 </r>
       <r>    1.7785    1.0000 </r>
       <r>    1.8377    1.0000 </r>
       <r>    2.1378    1.0000 </r>
       <r>    2.3239    1.0000 </r>
       <r>    2.4524    1.0000 </r>
       <r>    2.5565    1.0000 </r>
       <r>    2.7118    1.0000 </r>
       <r>    2.9845    1.0000 </r>
       <r>    3.2358    1.0000 </r>
       <r>    3.3660    1.0000 </r>
       <r>    3.7805    1.0000 </r>
       <r>    4.2723    1.0000 </r>
       <r>    4.6363    1.0000 </r>
       <r>    4.8239    1.0000 </r>
       <r>    5.0698    1.0000 </r>
       <r>    5.2286    1.0000 </r>
       <r>    5.3490    1.0000 </r>
       <r>    5.5452    1.0000 </r>
       <r>    5.7161    1.0000 </r>
       <r>    5.8056    1.0000 </r>
       <r>    5.9924    1.0000 </r>
       <r>    6.1807    1.0000 </r>
       <r>    6.3237    1.0000 </r>
       <r>    6.5180    1.0000 </r>
       <r>    6.8804    1.0000 </r>
       <r>    7.1745    1.0000 </r>
       <r>    7.2821    1.0001 </r>
       <r>    7.5704    1.0250 </r>
       <r>    7.8039    0.8043 </r>
       <r>    7.9473    0.2393 </r>
       <r>    8.0968   -0.0312 </r>
       <r>    8.4704   -0.0001 </r>
       <r>    8.5275   -0.0000 </r>
       <r>    8.8519   -0.0000 </r>
       <r>    8.9883   -0.0000 </r>
       <r>    9.1141   -0.0000 </r>
       <r>    9.3544   -0.0000 </r>
       <r>    9.4722   -0.0000 </r>
       <r>    9.5542   -0.0000 </r>
       <r>    9.8404   -0.0000 </r>
       <r>   10.0005   -0.0000 </r>
       <r>   10.1333   -0.0000 </r>
       <r>   10.2300   -0.0000 </r>
       <r>   10.4795   -0.0000 </r>
       <r>   10.5618   -0.0000 </r>
       <r>   10.6641   -0.0000 </r>
       <r>   10.7854   -0.0000 </r>
       <r>   11.0133   -0.0000 </r>
       <r>   11.1593   -0.0000 </r>
       <r>   11.1985   -0.0000 </r>
       <r>   11.3710   -0.0000 </r>
       <r>   11.4580   -0.0000 </r>
       <r>   11.8145   -0.0000 </r>
      </set>
      <set comment="kpoint 111">
       <r>   -2.6619    1.0000 </r>
       <r>   -2.1137    1.0000 </r>
       <r>   -1.8991    1.0000 </r>
       <r>   -1.3267    1.0000 </r>
       <r>   -1.2344    1.0000 </r>
       <r>   -0.6746    1.0000 </r>
       <r>    0.7595    1.0000 </r>
       <r>    0.8312    1.0000 </r>
       <r>    1.2707    1.0000 </r>
       <r>    1.4768    1.0000 </r>
       <r>    1.5953    1.0000 </r>
       <r>    1.7932    1.0000 </r>
       <r>    1.9133    1.0000 </r>
       <r>    2.1132    1.0000 </r>
       <r>    2.2455    1.0000 </r>
       <r>    2.3280    1.0000 </r>
       <r>    2.5553    1.0000 </r>
       <r>    2.7972    1.0000 </r>
       <r>    3.0094    1.0000 </r>
       <r>    3.2241    1.0000 </r>
       <r>    3.2701    1.0000 </r>
       <r>    3.7878    1.0000 </r>
       <r>    4.2662    1.0000 </r>
       <r>    4.5751    1.0000 </r>
       <r>    4.7937    1.0000 </r>
       <r>    5.1533    1.0000 </r>
       <r>    5.1978    1.0000 </r>
       <r>    5.4451    1.0000 </r>
       <r>    5.5197    1.0000 </r>
       <r>    5.7347    1.0000 </r>
       <r>    5.9036    1.0000 </r>
       <r>    6.0840    1.0000 </r>
       <r>    6.1259    1.0000 </r>
       <r>    6.2422    1.0000 </r>
       <r>    6.6436    1.0000 </r>
       <r>    6.7650    1.0000 </r>
       <r>    7.1802    1.0000 </r>
       <r>    7.2641    1.0001 </r>
       <r>    7.6814    1.0255 </r>
       <r>    7.7317    0.9766 </r>
       <r>    7.9313    0.2983 </r>
       <r>    8.0777   -0.0227 </r>
       <r>    8.4872   -0.0001 </r>
       <r>    8.5391   -0.0000 </r>
       <r>    8.7408   -0.0000 </r>
       <r>    8.9432   -0.0000 </r>
       <r>    9.2557   -0.0000 </r>
       <r>    9.3386   -0.0000 </r>
       <r>    9.4832   -0.0000 </r>
       <r>    9.5716   -0.0000 </r>
       <r>    9.7988   -0.0000 </r>
       <r>    9.9564   -0.0000 </r>
       <r>   10.2396   -0.0000 </r>
       <r>   10.2831   -0.0000 </r>
       <r>   10.4392   -0.0000 </r>
       <r>   10.4902   -0.0000 </r>
       <r>   10.7169   -0.0000 </r>
       <r>   10.8148   -0.0000 </r>
       <r>   10.9862   -0.0000 </r>
       <r>   11.1211   -0.0000 </r>
       <r>   11.2444   -0.0000 </r>
       <r>   11.3276   -0.0000 </r>
       <r>   11.4020   -0.0000 </r>
       <r>   11.6911   -0.0000 </r>
      </set>
      <set comment="kpoint 112">
       <r>   -2.6797    1.0000 </r>
       <r>   -2.0975    1.0000 </r>
       <r>   -1.8682    1.0000 </r>
       <r>   -1.4898    1.0000 </r>
       <r>   -1.0667    1.0000 </r>
       <r>   -0.5946    1.0000 </r>
       <r>    0.5418    1.0000 </r>
       <r>    0.8245    1.0000 </r>
       <r>    1.1053    1.0000 </r>
       <r>    1.4536    1.0000 </r>
       <r>    1.6523    1.0000 </r>
       <r>    1.7786    1.0000 </r>
       <r>    1.9712    1.0000 </r>
       <r>    2.1708    1.0000 </r>
       <r>    2.2734    1.0000 </r>
       <r>    2.4372    1.0000 </r>
       <r>    2.6205    1.0000 </r>
       <r>    2.8263    1.0000 </r>
       <r>    2.9852    1.0000 </r>
       <r>    3.1546    1.0000 </r>
       <r>    3.4301    1.0000 </r>
       <r>    3.8430    1.0000 </r>
       <r>    4.2198    1.0000 </r>
       <r>    4.7010    1.0000 </r>
       <r>    4.8491    1.0000 </r>
       <r>    5.0277    1.0000 </r>
       <r>    5.1816    1.0000 </r>
       <r>    5.3373    1.0000 </r>
       <r>    5.4279    1.0000 </r>
       <r>    5.7082    1.0000 </r>
       <r>    5.8747    1.0000 </r>
       <r>    5.9705    1.0000 </r>
       <r>    6.1545    1.0000 </r>
       <r>    6.2971    1.0000 </r>
       <r>    6.5169    1.0000 </r>
       <r>    6.8434    1.0000 </r>
       <r>    7.0508    1.0000 </r>
       <r>    7.2846    1.0001 </r>
       <r>    7.6236    1.0348 </r>
       <r>    7.7853    0.8609 </r>
       <r>    7.9013    0.4190 </r>
       <r>    8.1654   -0.0311 </r>
       <r>    8.5499   -0.0000 </r>
       <r>    8.6556   -0.0000 </r>
       <r>    8.7610   -0.0000 </r>
       <r>    9.0769   -0.0000 </r>
       <r>    9.1076   -0.0000 </r>
       <r>    9.2674   -0.0000 </r>
       <r>    9.4299   -0.0000 </r>
       <r>    9.6403   -0.0000 </r>
       <r>    9.8720   -0.0000 </r>
       <r>    9.9546   -0.0000 </r>
       <r>   10.1016   -0.0000 </r>
       <r>   10.2138   -0.0000 </r>
       <r>   10.4513   -0.0000 </r>
       <r>   10.5867   -0.0000 </r>
       <r>   10.6805   -0.0000 </r>
       <r>   10.9156   -0.0000 </r>
       <r>   11.0485   -0.0000 </r>
       <r>   11.1802   -0.0000 </r>
       <r>   11.2148   -0.0000 </r>
       <r>   11.3230   -0.0000 </r>
       <r>   11.4742   -0.0000 </r>
       <r>   11.7419   -0.0000 </r>
      </set>
      <set comment="kpoint 113">
       <r>   -2.9664    1.0000 </r>
       <r>   -2.2621    1.0000 </r>
       <r>   -1.0160    1.0000 </r>
       <r>   -0.9457    1.0000 </r>
       <r>   -0.6589    1.0000 </r>
       <r>   -0.5097    1.0000 </r>
       <r>   -0.3095    1.0000 </r>
       <r>    0.0573    1.0000 </r>
       <r>    0.6562    1.0000 </r>
       <r>    0.8549    1.0000 </r>
       <r>    0.9572    1.0000 </r>
       <r>    1.8449    1.0000 </r>
       <r>    2.0253    1.0000 </r>
       <r>    2.1552    1.0000 </r>
       <r>    2.3568    1.0000 </r>
       <r>    2.4110    1.0000 </r>
       <r>    2.6696    1.0000 </r>
       <r>    2.8803    1.0000 </r>
       <r>    3.8130    1.0000 </r>
       <r>    3.9854    1.0000 </r>
       <r>    4.2118    1.0000 </r>
       <r>    4.5717    1.0000 </r>
       <r>    4.7335    1.0000 </r>
       <r>    4.8077    1.0000 </r>
       <r>    4.8636    1.0000 </r>
       <r>    4.9799    1.0000 </r>
       <r>    5.1221    1.0000 </r>
       <r>    5.2490    1.0000 </r>
       <r>    5.5212    1.0000 </r>
       <r>    5.6544    1.0000 </r>
       <r>    5.7183    1.0000 </r>
       <r>    5.7922    1.0000 </r>
       <r>    5.8478    1.0000 </r>
       <r>    5.9173    1.0000 </r>
       <r>    6.8040    1.0000 </r>
       <r>    6.9141    1.0000 </r>
       <r>    7.0234    1.0000 </r>
       <r>    7.3307    1.0003 </r>
       <r>    7.5065    1.0116 </r>
       <r>    7.5452    1.0192 </r>
       <r>    7.6413    1.0354 </r>
       <r>    7.8934    0.4519 </r>
       <r>    7.9639    0.1836 </r>
       <r>    8.5772   -0.0000 </r>
       <r>    8.7378   -0.0000 </r>
       <r>    8.7575   -0.0000 </r>
       <r>    9.4216   -0.0000 </r>
       <r>    9.5787   -0.0000 </r>
       <r>    9.6327   -0.0000 </r>
       <r>    9.7067   -0.0000 </r>
       <r>    9.7839   -0.0000 </r>
       <r>    9.8899   -0.0000 </r>
       <r>    9.9659   -0.0000 </r>
       <r>   10.0811   -0.0000 </r>
       <r>   10.1700   -0.0000 </r>
       <r>   10.2376   -0.0000 </r>
       <r>   10.2907   -0.0000 </r>
       <r>   10.3919   -0.0000 </r>
       <r>   10.4811   -0.0000 </r>
       <r>   10.6435   -0.0000 </r>
       <r>   10.7841   -0.0000 </r>
       <r>   11.2601   -0.0000 </r>
       <r>   11.4042   -0.0000 </r>
       <r>   11.6172   -0.0000 </r>
      </set>
      <set comment="kpoint 114">
       <r>   -2.9772    1.0000 </r>
       <r>   -2.2409    1.0000 </r>
       <r>   -1.0128    1.0000 </r>
       <r>   -0.9060    1.0000 </r>
       <r>   -0.6876    1.0000 </r>
       <r>   -0.5736    1.0000 </r>
       <r>   -0.2535    1.0000 </r>
       <r>    0.0550    1.0000 </r>
       <r>    0.6742    1.0000 </r>
       <r>    0.7672    1.0000 </r>
       <r>    0.9232    1.0000 </r>
       <r>    1.9006    1.0000 </r>
       <r>    2.0610    1.0000 </r>
       <r>    2.1686    1.0000 </r>
       <r>    2.3227    1.0000 </r>
       <r>    2.4775    1.0000 </r>
       <r>    2.6374    1.0000 </r>
       <r>    2.8988    1.0000 </r>
       <r>    3.8595    1.0000 </r>
       <r>    4.0767    1.0000 </r>
       <r>    4.1540    1.0000 </r>
       <r>    4.5468    1.0000 </r>
       <r>    4.6275    1.0000 </r>
       <r>    4.7637    1.0000 </r>
       <r>    4.9129    1.0000 </r>
       <r>    4.9721    1.0000 </r>
       <r>    5.1242    1.0000 </r>
       <r>    5.2101    1.0000 </r>
       <r>    5.5598    1.0000 </r>
       <r>    5.6241    1.0000 </r>
       <r>    5.7354    1.0000 </r>
       <r>    5.8158    1.0000 </r>
       <r>    5.8725    1.0000 </r>
       <r>    5.9411    1.0000 </r>
       <r>    6.7793    1.0000 </r>
       <r>    6.8828    1.0000 </r>
       <r>    7.0260    1.0000 </r>
       <r>    7.2979    1.0001 </r>
       <r>    7.4980    1.0103 </r>
       <r>    7.5489    1.0201 </r>
       <r>    7.6656    1.0317 </r>
       <r>    7.8092    0.7867 </r>
       <r>    7.9342    0.2872 </r>
       <r>    8.6142   -0.0000 </r>
       <r>    8.7136   -0.0000 </r>
       <r>    8.7655   -0.0000 </r>
       <r>    9.4689   -0.0000 </r>
       <r>    9.5345   -0.0000 </r>
       <r>    9.6061   -0.0000 </r>
       <r>    9.7609   -0.0000 </r>
       <r>    9.8404   -0.0000 </r>
       <r>    9.9606   -0.0000 </r>
       <r>   10.0406   -0.0000 </r>
       <r>   10.0656   -0.0000 </r>
       <r>   10.2198   -0.0000 </r>
       <r>   10.2409   -0.0000 </r>
       <r>   10.3318   -0.0000 </r>
       <r>   10.3970   -0.0000 </r>
       <r>   10.4326   -0.0000 </r>
       <r>   10.5265   -0.0000 </r>
       <r>   10.7460   -0.0000 </r>
       <r>   11.2887   -0.0000 </r>
       <r>   11.4259   -0.0000 </r>
       <r>   11.6250   -0.0000 </r>
      </set>
      <set comment="kpoint 115">
       <r>   -2.9980    1.0000 </r>
       <r>   -2.1784    1.0000 </r>
       <r>   -1.0210    1.0000 </r>
       <r>   -0.8639    1.0000 </r>
       <r>   -0.7322    1.0000 </r>
       <r>   -0.5200    1.0000 </r>
       <r>   -0.4545    1.0000 </r>
       <r>   -0.0533    1.0000 </r>
       <r>    0.7016    1.0000 </r>
       <r>    0.9670    1.0000 </r>
       <r>    1.1053    1.0000 </r>
       <r>    1.8155    1.0000 </r>
       <r>    2.0165    1.0000 </r>
       <r>    2.1004    1.0000 </r>
       <r>    2.3344    1.0000 </r>
       <r>    2.4631    1.0000 </r>
       <r>    2.7042    1.0000 </r>
       <r>    2.9470    1.0000 </r>
       <r>    3.8946    1.0000 </r>
       <r>    4.0242    1.0000 </r>
       <r>    4.2642    1.0000 </r>
       <r>    4.4439    1.0000 </r>
       <r>    4.5354    1.0000 </r>
       <r>    4.7127    1.0000 </r>
       <r>    4.7715    1.0000 </r>
       <r>    4.8911    1.0000 </r>
       <r>    5.0081    1.0000 </r>
       <r>    5.1141    1.0000 </r>
       <r>    5.5642    1.0000 </r>
       <r>    5.6547    1.0000 </r>
       <r>    5.7830    1.0000 </r>
       <r>    5.8872    1.0000 </r>
       <r>    5.9945    1.0000 </r>
       <r>    6.1598    1.0000 </r>
       <r>    6.9443    1.0000 </r>
       <r>    7.0042    1.0000 </r>
       <r>    7.0893    1.0000 </r>
       <r>    7.2374    1.0000 </r>
       <r>    7.3924    1.0015 </r>
       <r>    7.5244    1.0149 </r>
       <r>    7.6260    1.0350 </r>
       <r>    7.7226    0.9893 </r>
       <r>    7.9286    0.3086 </r>
       <r>    8.6139   -0.0000 </r>
       <r>    8.7280   -0.0000 </r>
       <r>    8.8996   -0.0000 </r>
       <r>    9.3534   -0.0000 </r>
       <r>    9.4262   -0.0000 </r>
       <r>    9.5200   -0.0000 </r>
       <r>    9.8020   -0.0000 </r>
       <r>    9.8078   -0.0000 </r>
       <r>    9.9688   -0.0000 </r>
       <r>   10.0255   -0.0000 </r>
       <r>   10.1234   -0.0000 </r>
       <r>   10.1675   -0.0000 </r>
       <r>   10.2304   -0.0000 </r>
       <r>   10.3203   -0.0000 </r>
       <r>   10.3999   -0.0000 </r>
       <r>   10.4759   -0.0000 </r>
       <r>   10.5645   -0.0000 </r>
       <r>   10.8000   -0.0000 </r>
       <r>   11.3650   -0.0000 </r>
       <r>   11.4896   -0.0000 </r>
       <r>   11.6140   -0.0000 </r>
      </set>
      <set comment="kpoint 116">
       <r>   -2.9732    1.0000 </r>
       <r>   -2.2521    1.0000 </r>
       <r>   -1.0591    1.0000 </r>
       <r>   -0.7712    1.0000 </r>
       <r>   -0.6487    1.0000 </r>
       <r>   -0.5131    1.0000 </r>
       <r>   -0.4463    1.0000 </r>
       <r>   -0.0909    1.0000 </r>
       <r>    0.6651    1.0000 </r>
       <r>    0.9559    1.0000 </r>
       <r>    1.0389    1.0000 </r>
       <r>    1.7935    1.0000 </r>
       <r>    2.0108    1.0000 </r>
       <r>    2.1956    1.0000 </r>
       <r>    2.3507    1.0000 </r>
       <r>    2.4403    1.0000 </r>
       <r>    2.7019    1.0000 </r>
       <r>    2.8460    1.0000 </r>
       <r>    3.9184    1.0000 </r>
       <r>    3.9895    1.0000 </r>
       <r>    4.2526    1.0000 </r>
       <r>    4.4809    1.0000 </r>
       <r>    4.6660    1.0000 </r>
       <r>    4.7398    1.0000 </r>
       <r>    4.7872    1.0000 </r>
       <r>    4.8818    1.0000 </r>
       <r>    5.0755    1.0000 </r>
       <r>    5.1707    1.0000 </r>
       <r>    5.5433    1.0000 </r>
       <r>    5.6208    1.0000 </r>
       <r>    5.7479    1.0000 </r>
       <r>    5.8656    1.0000 </r>
       <r>    5.9769    1.0000 </r>
       <r>    6.0019    1.0000 </r>
       <r>    6.9939    1.0000 </r>
       <r>    7.0344    1.0000 </r>
       <r>    7.0632    1.0000 </r>
       <r>    7.2765    1.0001 </r>
       <r>    7.4337    1.0034 </r>
       <r>    7.5167    1.0134 </r>
       <r>    7.5732    1.0257 </r>
       <r>    7.7756    0.8872 </r>
       <r>    7.9524    0.2216 </r>
       <r>    8.6521   -0.0000 </r>
       <r>    8.7200   -0.0000 </r>
       <r>    8.7596   -0.0000 </r>
       <r>    9.3976   -0.0000 </r>
       <r>    9.5125   -0.0000 </r>
       <r>    9.5691   -0.0000 </r>
       <r>    9.7581   -0.0000 </r>
       <r>    9.8072   -0.0000 </r>
       <r>    9.9306   -0.0000 </r>
       <r>    9.9828   -0.0000 </r>
       <r>   10.0106   -0.0000 </r>
       <r>   10.1270   -0.0000 </r>
       <r>   10.2234   -0.0000 </r>
       <r>   10.3058   -0.0000 </r>
       <r>   10.4169   -0.0000 </r>
       <r>   10.5211   -0.0000 </r>
       <r>   10.6158   -0.0000 </r>
       <r>   10.7938   -0.0000 </r>
       <r>   11.3105   -0.0000 </r>
       <r>   11.4422   -0.0000 </r>
       <r>   11.5796   -0.0000 </r>
      </set>
      <set comment="kpoint 117">
       <r>   -2.6288    1.0000 </r>
       <r>   -2.4155    1.0000 </r>
       <r>   -1.7945    1.0000 </r>
       <r>   -1.2382    1.0000 </r>
       <r>   -0.7673    1.0000 </r>
       <r>   -0.1584    1.0000 </r>
       <r>    0.1489    1.0000 </r>
       <r>    0.4527    1.0000 </r>
       <r>    0.6598    1.0000 </r>
       <r>    0.9420    1.0000 </r>
       <r>    1.0478    1.0000 </r>
       <r>    1.8930    1.0000 </r>
       <r>    2.1802    1.0000 </r>
       <r>    2.4357    1.0000 </r>
       <r>    2.6676    1.0000 </r>
       <r>    2.7140    1.0000 </r>
       <r>    3.0808    1.0000 </r>
       <r>    3.2006    1.0000 </r>
       <r>    3.3734    1.0000 </r>
       <r>    3.6408    1.0000 </r>
       <r>    3.7360    1.0000 </r>
       <r>    3.7975    1.0000 </r>
       <r>    3.9252    1.0000 </r>
       <r>    3.9885    1.0000 </r>
       <r>    4.1288    1.0000 </r>
       <r>    4.8590    1.0000 </r>
       <r>    4.9412    1.0000 </r>
       <r>    5.2567    1.0000 </r>
       <r>    5.3283    1.0000 </r>
       <r>    5.5051    1.0000 </r>
       <r>    5.6216    1.0000 </r>
       <r>    6.0578    1.0000 </r>
       <r>    6.1106    1.0000 </r>
       <r>    6.7782    1.0000 </r>
       <r>    6.9544    1.0000 </r>
       <r>    7.1663    1.0000 </r>
       <r>    7.2885    1.0001 </r>
       <r>    7.4720    1.0068 </r>
       <r>    7.8899    0.4665 </r>
       <r>    8.1036   -0.0330 </r>
       <r>    8.1319   -0.0354 </r>
       <r>    8.2268   -0.0175 </r>
       <r>    8.3068   -0.0052 </r>
       <r>    8.5899   -0.0000 </r>
       <r>    8.7153   -0.0000 </r>
       <r>    8.8635   -0.0000 </r>
       <r>    8.9608   -0.0000 </r>
       <r>    9.1074   -0.0000 </r>
       <r>    9.3932   -0.0000 </r>
       <r>    9.4625   -0.0000 </r>
       <r>    9.6122   -0.0000 </r>
       <r>    9.7748   -0.0000 </r>
       <r>    9.9894   -0.0000 </r>
       <r>   10.0708   -0.0000 </r>
       <r>   10.0950   -0.0000 </r>
       <r>   10.2915   -0.0000 </r>
       <r>   10.4191   -0.0000 </r>
       <r>   10.5581   -0.0000 </r>
       <r>   10.8807   -0.0000 </r>
       <r>   10.9256   -0.0000 </r>
       <r>   11.4593   -0.0000 </r>
       <r>   11.5467   -0.0000 </r>
       <r>   11.7057   -0.0000 </r>
       <r>   11.7497   -0.0000 </r>
      </set>
      <set comment="kpoint 118">
       <r>   -2.6241    1.0000 </r>
       <r>   -2.4193    1.0000 </r>
       <r>   -1.7964    1.0000 </r>
       <r>   -1.0910    1.0000 </r>
       <r>   -1.0151    1.0000 </r>
       <r>   -0.0516    1.0000 </r>
       <r>    0.1234    1.0000 </r>
       <r>    0.5214    1.0000 </r>
       <r>    0.6439    1.0000 </r>
       <r>    0.9775    1.0000 </r>
       <r>    1.0494    1.0000 </r>
       <r>    1.8327    1.0000 </r>
       <r>    2.1481    1.0000 </r>
       <r>    2.3401    1.0000 </r>
       <r>    2.7490    1.0000 </r>
       <r>    2.9789    1.0000 </r>
       <r>    3.0755    1.0000 </r>
       <r>    3.1496    1.0000 </r>
       <r>    3.3454    1.0000 </r>
       <r>    3.4033    1.0000 </r>
       <r>    3.6893    1.0000 </r>
       <r>    3.8141    1.0000 </r>
       <r>    3.9408    1.0000 </r>
       <r>    4.0280    1.0000 </r>
       <r>    4.1056    1.0000 </r>
       <r>    4.7320    1.0000 </r>
       <r>    4.9425    1.0000 </r>
       <r>    5.2806    1.0000 </r>
       <r>    5.3857    1.0000 </r>
       <r>    5.6334    1.0000 </r>
       <r>    5.6463    1.0000 </r>
       <r>    6.0865    1.0000 </r>
       <r>    6.1957    1.0000 </r>
       <r>    6.7924    1.0000 </r>
       <r>    6.9463    1.0000 </r>
       <r>    7.1334    1.0000 </r>
       <r>    7.2641    1.0001 </r>
       <r>    7.4212    1.0027 </r>
       <r>    7.9264    0.3172 </r>
       <r>    8.0207    0.0424 </r>
       <r>    8.0634   -0.0126 </r>
       <r>    8.1963   -0.0244 </r>
       <r>    8.3647   -0.0017 </r>
       <r>    8.5877   -0.0000 </r>
       <r>    8.6996   -0.0000 </r>
       <r>    8.8618   -0.0000 </r>
       <r>    9.0369   -0.0000 </r>
       <r>    9.1384   -0.0000 </r>
       <r>    9.4689   -0.0000 </r>
       <r>    9.5810   -0.0000 </r>
       <r>    9.6460   -0.0000 </r>
       <r>    9.8077   -0.0000 </r>
       <r>    9.9450   -0.0000 </r>
       <r>   10.0033   -0.0000 </r>
       <r>   10.1298   -0.0000 </r>
       <r>   10.1826   -0.0000 </r>
       <r>   10.3843   -0.0000 </r>
       <r>   10.5330   -0.0000 </r>
       <r>   10.8134   -0.0000 </r>
       <r>   10.9689   -0.0000 </r>
       <r>   11.3842   -0.0000 </r>
       <r>   11.5038   -0.0000 </r>
       <r>   11.6414   -0.0000 </r>
       <r>   11.7601   -0.0000 </r>
      </set>
      <set comment="kpoint 119">
       <r>   -2.6584    1.0000 </r>
       <r>   -2.3800    1.0000 </r>
       <r>   -1.7610    1.0000 </r>
       <r>   -1.1250    1.0000 </r>
       <r>   -1.0555    1.0000 </r>
       <r>    0.0314    1.0000 </r>
       <r>    0.1586    1.0000 </r>
       <r>    0.3713    1.0000 </r>
       <r>    0.7401    1.0000 </r>
       <r>    0.8465    1.0000 </r>
       <r>    1.1100    1.0000 </r>
       <r>    1.8833    1.0000 </r>
       <r>    2.1848    1.0000 </r>
       <r>    2.3502    1.0000 </r>
       <r>    2.7365    1.0000 </r>
       <r>    2.8790    1.0000 </r>
       <r>    3.0940    1.0000 </r>
       <r>    3.1629    1.0000 </r>
       <r>    3.3401    1.0000 </r>
       <r>    3.5022    1.0000 </r>
       <r>    3.6686    1.0000 </r>
       <r>    3.7748    1.0000 </r>
       <r>    3.8993    1.0000 </r>
       <r>    4.0294    1.0000 </r>
       <r>    4.1662    1.0000 </r>
       <r>    4.8034    1.0000 </r>
       <r>    4.9430    1.0000 </r>
       <r>    5.2115    1.0000 </r>
       <r>    5.3348    1.0000 </r>
       <r>    5.5206    1.0000 </r>
       <r>    5.6981    1.0000 </r>
       <r>    6.0620    1.0000 </r>
       <r>    6.2698    1.0000 </r>
       <r>    6.7059    1.0000 </r>
       <r>    7.0512    1.0000 </r>
       <r>    7.1388    1.0000 </r>
       <r>    7.3103    1.0002 </r>
       <r>    7.3841    1.0012 </r>
       <r>    7.9380    0.2732 </r>
       <r>    8.0023    0.0795 </r>
       <r>    8.0938   -0.0302 </r>
       <r>    8.1581   -0.0325 </r>
       <r>    8.3606   -0.0018 </r>
       <r>    8.6145   -0.0000 </r>
       <r>    8.7277   -0.0000 </r>
       <r>    8.8369   -0.0000 </r>
       <r>    9.0461   -0.0000 </r>
       <r>    9.2033   -0.0000 </r>
       <r>    9.4003   -0.0000 </r>
       <r>    9.4864   -0.0000 </r>
       <r>    9.6056   -0.0000 </r>
       <r>    9.8353   -0.0000 </r>
       <r>    9.9497   -0.0000 </r>
       <r>   10.0095   -0.0000 </r>
       <r>   10.1323   -0.0000 </r>
       <r>   10.2223   -0.0000 </r>
       <r>   10.3822   -0.0000 </r>
       <r>   10.5187   -0.0000 </r>
       <r>   10.7979   -0.0000 </r>
       <r>   11.0109   -0.0000 </r>
       <r>   11.3739   -0.0000 </r>
       <r>   11.5794   -0.0000 </r>
       <r>   11.6530   -0.0000 </r>
       <r>   11.8179   -0.0000 </r>
      </set>
      <set comment="kpoint 120">
       <r>   -2.6891    1.0000 </r>
       <r>   -2.3343    1.0000 </r>
       <r>   -1.7440    1.0000 </r>
       <r>   -1.1990    1.0000 </r>
       <r>   -1.0330    1.0000 </r>
       <r>    0.0523    1.0000 </r>
       <r>    0.2194    1.0000 </r>
       <r>    0.3253    1.0000 </r>
       <r>    0.7164    1.0000 </r>
       <r>    0.8634    1.0000 </r>
       <r>    1.0900    1.0000 </r>
       <r>    1.8851    1.0000 </r>
       <r>    2.0986    1.0000 </r>
       <r>    2.3768    1.0000 </r>
       <r>    2.7109    1.0000 </r>
       <r>    3.0458    1.0000 </r>
       <r>    3.1122    1.0000 </r>
       <r>    3.1725    1.0000 </r>
       <r>    3.3001    1.0000 </r>
       <r>    3.4796    1.0000 </r>
       <r>    3.7218    1.0000 </r>
       <r>    3.8148    1.0000 </r>
       <r>    3.9154    1.0000 </r>
       <r>    3.9907    1.0000 </r>
       <r>    4.0701    1.0000 </r>
       <r>    4.8532    1.0000 </r>
       <r>    4.9078    1.0000 </r>
       <r>    5.1872    1.0000 </r>
       <r>    5.2336    1.0000 </r>
       <r>    5.5824    1.0000 </r>
       <r>    5.7621    1.0000 </r>
       <r>    6.1038    1.0000 </r>
       <r>    6.2203    1.0000 </r>
       <r>    6.7290    1.0000 </r>
       <r>    6.9090    1.0000 </r>
       <r>    7.1497    1.0000 </r>
       <r>    7.3165    1.0002 </r>
       <r>    7.4068    1.0020 </r>
       <r>    7.9168    0.3555 </r>
       <r>    8.0082    0.0665 </r>
       <r>    8.0565   -0.0063 </r>
       <r>    8.1667   -0.0309 </r>
       <r>    8.3686   -0.0016 </r>
       <r>    8.5775   -0.0000 </r>
       <r>    8.6884   -0.0000 </r>
       <r>    8.9981   -0.0000 </r>
       <r>    9.0743   -0.0000 </r>
       <r>    9.1906   -0.0000 </r>
       <r>    9.4587   -0.0000 </r>
       <r>    9.5497   -0.0000 </r>
       <r>    9.6833   -0.0000 </r>
       <r>    9.8324   -0.0000 </r>
       <r>    9.9395   -0.0000 </r>
       <r>   10.0032   -0.0000 </r>
       <r>   10.0866   -0.0000 </r>
       <r>   10.1831   -0.0000 </r>
       <r>   10.3292   -0.0000 </r>
       <r>   10.4619   -0.0000 </r>
       <r>   10.8224   -0.0000 </r>
       <r>   11.0014   -0.0000 </r>
       <r>   11.4782   -0.0000 </r>
       <r>   11.5227   -0.0000 </r>
       <r>   11.6353   -0.0000 </r>
       <r>   11.7728   -0.0000 </r>
      </set>
      <set comment="kpoint 121">
       <r>   -2.6554    1.0000 </r>
       <r>   -2.3765    1.0000 </r>
       <r>   -1.8047    1.0000 </r>
       <r>   -1.2349    1.0000 </r>
       <r>   -0.7764    1.0000 </r>
       <r>   -0.1397    1.0000 </r>
       <r>    0.1697    1.0000 </r>
       <r>    0.4279    1.0000 </r>
       <r>    0.5942    1.0000 </r>
       <r>    0.9653    1.0000 </r>
       <r>    1.0745    1.0000 </r>
       <r>    1.8118    1.0000 </r>
       <r>    2.2154    1.0000 </r>
       <r>    2.4694    1.0000 </r>
       <r>    2.7088    1.0000 </r>
       <r>    2.8245    1.0000 </r>
       <r>    3.0824    1.0000 </r>
       <r>    3.1470    1.0000 </r>
       <r>    3.2838    1.0000 </r>
       <r>    3.6111    1.0000 </r>
       <r>    3.6955    1.0000 </r>
       <r>    3.7965    1.0000 </r>
       <r>    3.9565    1.0000 </r>
       <r>    3.9920    1.0000 </r>
       <r>    4.2314    1.0000 </r>
       <r>    4.7974    1.0000 </r>
       <r>    4.9411    1.0000 </r>
       <r>    5.2660    1.0000 </r>
       <r>    5.3272    1.0000 </r>
       <r>    5.4980    1.0000 </r>
       <r>    5.6479    1.0000 </r>
       <r>    6.0474    1.0000 </r>
       <r>    6.1226    1.0000 </r>
       <r>    6.7403    1.0000 </r>
       <r>    6.8497    1.0000 </r>
       <r>    7.2026    1.0000 </r>
       <r>    7.3684    1.0008 </r>
       <r>    7.4490    1.0045 </r>
       <r>    7.8907    0.4635 </r>
       <r>    8.0376    0.0158 </r>
       <r>    8.1487   -0.0339 </r>
       <r>    8.2595   -0.0113 </r>
       <r>    8.3127   -0.0047 </r>
       <r>    8.5887   -0.0000 </r>
       <r>    8.7067   -0.0000 </r>
       <r>    8.8556   -0.0000 </r>
       <r>    8.9381   -0.0000 </r>
       <r>    9.2406   -0.0000 </r>
       <r>    9.3687   -0.0000 </r>
       <r>    9.4788   -0.0000 </r>
       <r>    9.6025   -0.0000 </r>
       <r>    9.7630   -0.0000 </r>
       <r>    9.9315   -0.0000 </r>
       <r>    9.9873   -0.0000 </r>
       <r>   10.1076   -0.0000 </r>
       <r>   10.3400   -0.0000 </r>
       <r>   10.4335   -0.0000 </r>
       <r>   10.5874   -0.0000 </r>
       <r>   10.9446   -0.0000 </r>
       <r>   10.9552   -0.0000 </r>
       <r>   11.3994   -0.0000 </r>
       <r>   11.5824   -0.0000 </r>
       <r>   11.6688   -0.0000 </r>
       <r>   11.8291   -0.0000 </r>
      </set>
      <set comment="kpoint 122">
       <r>   -2.6585    1.0000 </r>
       <r>   -2.3812    1.0000 </r>
       <r>   -1.7792    1.0000 </r>
       <r>   -1.1382    1.0000 </r>
       <r>   -0.9728    1.0000 </r>
       <r>   -0.0543    1.0000 </r>
       <r>    0.1825    1.0000 </r>
       <r>    0.3209    1.0000 </r>
       <r>    0.7743    1.0000 </r>
       <r>    0.8872    1.0000 </r>
       <r>    1.1155    1.0000 </r>
       <r>    1.8505    1.0000 </r>
       <r>    2.1026    1.0000 </r>
       <r>    2.3583    1.0000 </r>
       <r>    2.7760    1.0000 </r>
       <r>    2.9133    1.0000 </r>
       <r>    3.0584    1.0000 </r>
       <r>    3.2026    1.0000 </r>
       <r>    3.3486    1.0000 </r>
       <r>    3.5395    1.0000 </r>
       <r>    3.7124    1.0000 </r>
       <r>    3.7643    1.0000 </r>
       <r>    3.9490    1.0000 </r>
       <r>    4.0354    1.0000 </r>
       <r>    4.0980    1.0000 </r>
       <r>    4.8060    1.0000 </r>
       <r>    4.9346    1.0000 </r>
       <r>    5.2153    1.0000 </r>
       <r>    5.2618    1.0000 </r>
       <r>    5.6256    1.0000 </r>
       <r>    5.6683    1.0000 </r>
       <r>    6.0545    1.0000 </r>
       <r>    6.2249    1.0000 </r>
       <r>    6.7033    1.0000 </r>
       <r>    6.8907    1.0000 </r>
       <r>    7.1769    1.0000 </r>
       <r>    7.3318    1.0004 </r>
       <r>    7.4245    1.0028 </r>
       <r>    7.8706    0.5482 </r>
       <r>    8.0405    0.0120 </r>
       <r>    8.1215   -0.0353 </r>
       <r>    8.1572   -0.0326 </r>
       <r>    8.4605   -0.0002 </r>
       <r>    8.5363   -0.0000 </r>
       <r>    8.6974   -0.0000 </r>
       <r>    8.9350   -0.0000 </r>
       <r>    8.9976   -0.0000 </r>
       <r>    9.1909   -0.0000 </r>
       <r>    9.4757   -0.0000 </r>
       <r>    9.4890   -0.0000 </r>
       <r>    9.5954   -0.0000 </r>
       <r>    9.8169   -0.0000 </r>
       <r>    9.8815   -0.0000 </r>
       <r>    9.9804   -0.0000 </r>
       <r>   10.1778   -0.0000 </r>
       <r>   10.2551   -0.0000 </r>
       <r>   10.4326   -0.0000 </r>
       <r>   10.5570   -0.0000 </r>
       <r>   10.8753   -0.0000 </r>
       <r>   10.9139   -0.0000 </r>
       <r>   11.3991   -0.0000 </r>
       <r>   11.5226   -0.0000 </r>
       <r>   11.6811   -0.0000 </r>
       <r>   11.7716   -0.0000 </r>
      </set>
      <set comment="kpoint 123">
       <r>   -2.7171    1.0000 </r>
       <r>   -2.2757    1.0000 </r>
       <r>   -1.7784    1.0000 </r>
       <r>   -1.2742    1.0000 </r>
       <r>   -0.8596    1.0000 </r>
       <r>   -0.1174    1.0000 </r>
       <r>    0.1685    1.0000 </r>
       <r>    0.4152    1.0000 </r>
       <r>    0.5217    1.0000 </r>
       <r>    0.9175    1.0000 </r>
       <r>    1.2669    1.0000 </r>
       <r>    1.9494    1.0000 </r>
       <r>    2.2254    1.0000 </r>
       <r>    2.4785    1.0000 </r>
       <r>    2.6612    1.0000 </r>
       <r>    2.8405    1.0000 </r>
       <r>    3.0798    1.0000 </r>
       <r>    3.1381    1.0000 </r>
       <r>    3.2669    1.0000 </r>
       <r>    3.4222    1.0000 </r>
       <r>    3.6369    1.0000 </r>
       <r>    3.7724    1.0000 </r>
       <r>    3.9287    1.0000 </r>
       <r>    4.0953    1.0000 </r>
       <r>    4.2306    1.0000 </r>
       <r>    4.8427    1.0000 </r>
       <r>    5.0287    1.0000 </r>
       <r>    5.0857    1.0000 </r>
       <r>    5.2674    1.0000 </r>
       <r>    5.4902    1.0000 </r>
       <r>    5.7161    1.0000 </r>
       <r>    6.1202    1.0000 </r>
       <r>    6.2158    1.0000 </r>
       <r>    6.7385    1.0000 </r>
       <r>    6.8033    1.0000 </r>
       <r>    7.1757    1.0000 </r>
       <r>    7.3443    1.0005 </r>
       <r>    7.6081    1.0328 </r>
       <r>    7.8474    0.6440 </r>
       <r>    8.0093    0.0644 </r>
       <r>    8.0827   -0.0254 </r>
       <r>    8.1659   -0.0310 </r>
       <r>    8.4489   -0.0002 </r>
       <r>    8.5164   -0.0000 </r>
       <r>    8.6936   -0.0000 </r>
       <r>    8.9526   -0.0000 </r>
       <r>    9.0282   -0.0000 </r>
       <r>    9.1543   -0.0000 </r>
       <r>    9.3740   -0.0000 </r>
       <r>    9.5705   -0.0000 </r>
       <r>    9.6717   -0.0000 </r>
       <r>    9.7809   -0.0000 </r>
       <r>    9.8591   -0.0000 </r>
       <r>    9.9841   -0.0000 </r>
       <r>   10.1537   -0.0000 </r>
       <r>   10.2935   -0.0000 </r>
       <r>   10.3985   -0.0000 </r>
       <r>   10.5339   -0.0000 </r>
       <r>   10.9028   -0.0000 </r>
       <r>   10.9912   -0.0000 </r>
       <r>   11.4778   -0.0000 </r>
       <r>   11.5794   -0.0000 </r>
       <r>   11.6728   -0.0000 </r>
       <r>   11.7085   -0.0000 </r>
      </set>
      <set comment="kpoint 124">
       <r>   -2.7233    1.0000 </r>
       <r>   -2.2520    1.0000 </r>
       <r>   -1.7991    1.0000 </r>
       <r>   -1.1895    1.0000 </r>
       <r>   -1.0166    1.0000 </r>
       <r>   -0.0779    1.0000 </r>
       <r>    0.1401    1.0000 </r>
       <r>    0.5988    1.0000 </r>
       <r>    0.6658    1.0000 </r>
       <r>    0.7849    1.0000 </r>
       <r>    1.1094    1.0000 </r>
       <r>    1.9265    1.0000 </r>
       <r>    2.2860    1.0000 </r>
       <r>    2.4521    1.0000 </r>
       <r>    2.5772    1.0000 </r>
       <r>    2.9044    1.0000 </r>
       <r>    3.0336    1.0000 </r>
       <r>    3.2030    1.0000 </r>
       <r>    3.3080    1.0000 </r>
       <r>    3.4375    1.0000 </r>
       <r>    3.7038    1.0000 </r>
       <r>    3.7711    1.0000 </r>
       <r>    3.9470    1.0000 </r>
       <r>    4.0423    1.0000 </r>
       <r>    4.1133    1.0000 </r>
       <r>    4.7876    1.0000 </r>
       <r>    4.9452    1.0000 </r>
       <r>    5.1985    1.0000 </r>
       <r>    5.2668    1.0000 </r>
       <r>    5.6147    1.0000 </r>
       <r>    5.7068    1.0000 </r>
       <r>    6.1470    1.0000 </r>
       <r>    6.1781    1.0000 </r>
       <r>    6.7240    1.0000 </r>
       <r>    6.8556    1.0000 </r>
       <r>    7.0140    1.0000 </r>
       <r>    7.4307    1.0032 </r>
       <r>    7.5789    1.0269 </r>
       <r>    7.8707    0.5477 </r>
       <r>    8.0331    0.0222 </r>
       <r>    8.1198   -0.0352 </r>
       <r>    8.1932   -0.0251 </r>
       <r>    8.4555   -0.0002 </r>
       <r>    8.5600   -0.0000 </r>
       <r>    8.6413   -0.0000 </r>
       <r>    8.9646   -0.0000 </r>
       <r>    9.0086   -0.0000 </r>
       <r>    9.1172   -0.0000 </r>
       <r>    9.3321   -0.0000 </r>
       <r>    9.5724   -0.0000 </r>
       <r>    9.7146   -0.0000 </r>
       <r>    9.8188   -0.0000 </r>
       <r>    9.9371   -0.0000 </r>
       <r>   10.0004   -0.0000 </r>
       <r>   10.0853   -0.0000 </r>
       <r>   10.2389   -0.0000 </r>
       <r>   10.3459   -0.0000 </r>
       <r>   10.5816   -0.0000 </r>
       <r>   10.7712   -0.0000 </r>
       <r>   10.9736   -0.0000 </r>
       <r>   11.4503   -0.0000 </r>
       <r>   11.5518   -0.0000 </r>
       <r>   11.6665   -0.0000 </r>
       <r>   11.8258   -0.0000 </r>
      </set>
      <set comment="kpoint 125">
       <r>   -2.7158    1.0000 </r>
       <r>   -2.2607    1.0000 </r>
       <r>   -1.8254    1.0000 </r>
       <r>   -1.1169    1.0000 </r>
       <r>   -1.0408    1.0000 </r>
       <r>   -0.0305    1.0000 </r>
       <r>    0.0453    1.0000 </r>
       <r>    0.5752    1.0000 </r>
       <r>    0.7040    1.0000 </r>
       <r>    0.7665    1.0000 </r>
       <r>    1.1451    1.0000 </r>
       <r>    1.8809    1.0000 </r>
       <r>    2.3136    1.0000 </r>
       <r>    2.5246    1.0000 </r>
       <r>    2.6390    1.0000 </r>
       <r>    2.8831    1.0000 </r>
       <r>    2.9563    1.0000 </r>
       <r>    3.1845    1.0000 </r>
       <r>    3.2904    1.0000 </r>
       <r>    3.4826    1.0000 </r>
       <r>    3.6367    1.0000 </r>
       <r>    3.7826    1.0000 </r>
       <r>    3.8326    1.0000 </r>
       <r>    4.0392    1.0000 </r>
       <r>    4.2145    1.0000 </r>
       <r>    4.8098    1.0000 </r>
       <r>    4.9908    1.0000 </r>
       <r>    5.2035    1.0000 </r>
       <r>    5.2451    1.0000 </r>
       <r>    5.5632    1.0000 </r>
       <r>    5.8445    1.0000 </r>
       <r>    6.0571    1.0000 </r>
       <r>    6.1710    1.0000 </r>
       <r>    6.6789    1.0000 </r>
       <r>    6.9306    1.0000 </r>
       <r>    7.0603    1.0000 </r>
       <r>    7.2675    1.0001 </r>
       <r>    7.6764    1.0278 </r>
       <r>    7.8850    0.4875 </r>
       <r>    7.9968    0.0920 </r>
       <r>    8.1566   -0.0327 </r>
       <r>    8.2671   -0.0101 </r>
       <r>    8.4856   -0.0001 </r>
       <r>    8.5467   -0.0000 </r>
       <r>    8.6629   -0.0000 </r>
       <r>    8.8011   -0.0000 </r>
       <r>    8.9808   -0.0000 </r>
       <r>    9.1177   -0.0000 </r>
       <r>    9.3638   -0.0000 </r>
       <r>    9.5066   -0.0000 </r>
       <r>    9.6643   -0.0000 </r>
       <r>    9.8125   -0.0000 </r>
       <r>    9.9003   -0.0000 </r>
       <r>    9.9940   -0.0000 </r>
       <r>   10.0987   -0.0000 </r>
       <r>   10.2720   -0.0000 </r>
       <r>   10.4016   -0.0000 </r>
       <r>   10.6382   -0.0000 </r>
       <r>   10.8596   -0.0000 </r>
       <r>   10.9332   -0.0000 </r>
       <r>   11.4781   -0.0000 </r>
       <r>   11.6084   -0.0000 </r>
       <r>   11.6759   -0.0000 </r>
       <r>   11.8410   -0.0000 </r>
      </set>
      <set comment="kpoint 126">
       <r>   -2.6407    1.0000 </r>
       <r>   -2.3981    1.0000 </r>
       <r>   -1.7983    1.0000 </r>
       <r>   -1.0761    1.0000 </r>
       <r>   -1.0155    1.0000 </r>
       <r>   -0.0981    1.0000 </r>
       <r>    0.0984    1.0000 </r>
       <r>    0.5838    1.0000 </r>
       <r>    0.7035    1.0000 </r>
       <r>    0.9086    1.0000 </r>
       <r>    0.9794    1.0000 </r>
       <r>    1.8836    1.0000 </r>
       <r>    2.2849    1.0000 </r>
       <r>    2.4345    1.0000 </r>
       <r>    2.5946    1.0000 </r>
       <r>    2.9519    1.0000 </r>
       <r>    3.0228    1.0000 </r>
       <r>    3.1518    1.0000 </r>
       <r>    3.3587    1.0000 </r>
       <r>    3.4575    1.0000 </r>
       <r>    3.6557    1.0000 </r>
       <r>    3.8342    1.0000 </r>
       <r>    3.9082    1.0000 </r>
       <r>    3.9918    1.0000 </r>
       <r>    4.0604    1.0000 </r>
       <r>    4.7978    1.0000 </r>
       <r>    4.9607    1.0000 </r>
       <r>    5.2497    1.0000 </r>
       <r>    5.3882    1.0000 </r>
       <r>    5.6733    1.0000 </r>
       <r>    5.6996    1.0000 </r>
       <r>    6.0685    1.0000 </r>
       <r>    6.1590    1.0000 </r>
       <r>    6.7520    1.0000 </r>
       <r>    6.8999    1.0000 </r>
       <r>    7.0596    1.0000 </r>
       <r>    7.3266    1.0003 </r>
       <r>    7.4873    1.0087 </r>
       <r>    7.8873    0.4775 </r>
       <r>    8.0170    0.0492 </r>
       <r>    8.1458   -0.0343 </r>
       <r>    8.1973   -0.0242 </r>
       <r>    8.4630   -0.0002 </r>
       <r>    8.5862   -0.0000 </r>
       <r>    8.6967   -0.0000 </r>
       <r>    8.8560   -0.0000 </r>
       <r>    9.0170   -0.0000 </r>
       <r>    9.1360   -0.0000 </r>
       <r>    9.3708   -0.0000 </r>
       <r>    9.6008   -0.0000 </r>
       <r>    9.7114   -0.0000 </r>
       <r>    9.7593   -0.0000 </r>
       <r>    9.8697   -0.0000 </r>
       <r>    9.9908   -0.0000 </r>
       <r>   10.1125   -0.0000 </r>
       <r>   10.2099   -0.0000 </r>
       <r>   10.3588   -0.0000 </r>
       <r>   10.4972   -0.0000 </r>
       <r>   10.9126   -0.0000 </r>
       <r>   10.9276   -0.0000 </r>
       <r>   11.4560   -0.0000 </r>
       <r>   11.5521   -0.0000 </r>
       <r>   11.6123   -0.0000 </r>
       <r>   11.7473   -0.0000 </r>
      </set>
      <set comment="kpoint 127">
       <r>   -2.6718    1.0000 </r>
       <r>   -2.3728    1.0000 </r>
       <r>   -1.7196    1.0000 </r>
       <r>   -1.2788    1.0000 </r>
       <r>   -0.8653    1.0000 </r>
       <r>   -0.0819    1.0000 </r>
       <r>    0.2011    1.0000 </r>
       <r>    0.3540    1.0000 </r>
       <r>    0.5506    1.0000 </r>
       <r>    0.8966    1.0000 </r>
       <r>    1.2568    1.0000 </r>
       <r>    1.9369    1.0000 </r>
       <r>    2.1818    1.0000 </r>
       <r>    2.4427    1.0000 </r>
       <r>    2.6510    1.0000 </r>
       <r>    2.9072    1.0000 </r>
       <r>    3.0697    1.0000 </r>
       <r>    3.1742    1.0000 </r>
       <r>    3.3282    1.0000 </r>
       <r>    3.4666    1.0000 </r>
       <r>    3.5528    1.0000 </r>
       <r>    3.7196    1.0000 </r>
       <r>    3.9531    1.0000 </r>
       <r>    4.1187    1.0000 </r>
       <r>    4.2389    1.0000 </r>
       <r>    4.8146    1.0000 </r>
       <r>    5.0022    1.0000 </r>
       <r>    5.1199    1.0000 </r>
       <r>    5.3099    1.0000 </r>
       <r>    5.4445    1.0000 </r>
       <r>    5.7137    1.0000 </r>
       <r>    6.1661    1.0000 </r>
       <r>    6.1965    1.0000 </r>
       <r>    6.7305    1.0000 </r>
       <r>    6.8731    1.0000 </r>
       <r>    7.1786    1.0000 </r>
       <r>    7.3178    1.0002 </r>
       <r>    7.5118    1.0126 </r>
       <r>    7.8923    0.4566 </r>
       <r>    7.9993    0.0862 </r>
       <r>    8.0797   -0.0239 </r>
       <r>    8.1634   -0.0315 </r>
       <r>    8.4007   -0.0008 </r>
       <r>    8.5885   -0.0000 </r>
       <r>    8.7204   -0.0000 </r>
       <r>    8.8785   -0.0000 </r>
       <r>    9.0345   -0.0000 </r>
       <r>    9.2018   -0.0000 </r>
       <r>    9.3462   -0.0000 </r>
       <r>    9.5819   -0.0000 </r>
       <r>    9.6899   -0.0000 </r>
       <r>    9.7967   -0.0000 </r>
       <r>    9.8532   -0.0000 </r>
       <r>   10.0070   -0.0000 </r>
       <r>   10.0885   -0.0000 </r>
       <r>   10.2991   -0.0000 </r>
       <r>   10.4107   -0.0000 </r>
       <r>   10.5122   -0.0000 </r>
       <r>   10.8778   -0.0000 </r>
       <r>   11.0089   -0.0000 </r>
       <r>   11.4234   -0.0000 </r>
       <r>   11.5578   -0.0000 </r>
       <r>   11.6396   -0.0000 </r>
       <r>   11.8487   -0.0000 </r>
      </set>
      <set comment="kpoint 128">
       <r>   -2.6478    1.0000 </r>
       <r>   -2.3997    1.0000 </r>
       <r>   -1.7700    1.0000 </r>
       <r>   -1.1390    1.0000 </r>
       <r>   -0.9558    1.0000 </r>
       <r>   -0.1074    1.0000 </r>
       <r>    0.0912    1.0000 </r>
       <r>    0.5078    1.0000 </r>
       <r>    0.7309    1.0000 </r>
       <r>    0.8810    1.0000 </r>
       <r>    1.0689    1.0000 </r>
       <r>    1.8619    1.0000 </r>
       <r>    2.2447    1.0000 </r>
       <r>    2.4567    1.0000 </r>
       <r>    2.6502    1.0000 </r>
       <r>    2.9096    1.0000 </r>
       <r>    2.9808    1.0000 </r>
       <r>    3.0992    1.0000 </r>
       <r>    3.3545    1.0000 </r>
       <r>    3.5143    1.0000 </r>
       <r>    3.7310    1.0000 </r>
       <r>    3.8435    1.0000 </r>
       <r>    3.8895    1.0000 </r>
       <r>    4.0504    1.0000 </r>
       <r>    4.1378    1.0000 </r>
       <r>    4.7917    1.0000 </r>
       <r>    4.9590    1.0000 </r>
       <r>    5.2133    1.0000 </r>
       <r>    5.2942    1.0000 </r>
       <r>    5.5520    1.0000 </r>
       <r>    5.6808    1.0000 </r>
       <r>    6.1053    1.0000 </r>
       <r>    6.1965    1.0000 </r>
       <r>    6.7165    1.0000 </r>
       <r>    6.9495    1.0000 </r>
       <r>    7.0336    1.0000 </r>
       <r>    7.3452    1.0005 </r>
       <r>    7.5668    1.0242 </r>
       <r>    7.8568    0.6057 </r>
       <r>    8.0528   -0.0026 </r>
       <r>    8.1093   -0.0341 </r>
       <r>    8.2213   -0.0187 </r>
       <r>    8.4305   -0.0004 </r>
       <r>    8.6125   -0.0000 </r>
       <r>    8.7246   -0.0000 </r>
       <r>    8.9042   -0.0000 </r>
       <r>    8.9812   -0.0000 </r>
       <r>    9.1196   -0.0000 </r>
       <r>    9.2929   -0.0000 </r>
       <r>    9.4441   -0.0000 </r>
       <r>    9.6092   -0.0000 </r>
       <r>    9.8181   -0.0000 </r>
       <r>    9.9665   -0.0000 </r>
       <r>   10.0416   -0.0000 </r>
       <r>   10.1818   -0.0000 </r>
       <r>   10.2394   -0.0000 </r>
       <r>   10.4423   -0.0000 </r>
       <r>   10.5587   -0.0000 </r>
       <r>   10.8350   -0.0000 </r>
       <r>   10.9077   -0.0000 </r>
       <r>   11.4307   -0.0000 </r>
       <r>   11.5739   -0.0000 </r>
       <r>   11.6557   -0.0000 </r>
       <r>   11.7329   -0.0000 </r>
      </set>
     </set>
    </set>
   </array>
  </eigenvalues>
  <separator name="orbital magnetization" >
   <v name="MAGDIPOLOUT">      0.00000000      0.00000000      0.00000000</v>
  </separator>
  <dos>
   <i name="efermi">      7.88202374 </i>
   <total>
    <array>
     <dimension dim="1">gridpoints</dimension>
     <dimension dim="2">spin</dimension>
     <field>energy</field>
     <field>total</field>
     <field>integrated</field>
     <set>
      <set comment="spin 1">
       <r>    -5.3234     0.0000     0.0000 </r>
       <r>    -5.2564     0.0000     0.0000 </r>
       <r>    -5.1893     0.0000     0.0000 </r>
       <r>    -5.1223     0.0000     0.0000 </r>
       <r>    -5.0552     0.0000     0.0000 </r>
       <r>    -4.9882    -0.0000    -0.0000 </r>
       <r>    -4.9212    -0.0000    -0.0000 </r>
       <r>    -4.8541    -0.0000    -0.0000 </r>
       <r>    -4.7871    -0.0000    -0.0000 </r>
       <r>    -4.7200    -0.0000    -0.0000 </r>
       <r>    -4.6530    -0.0000    -0.0000 </r>
       <r>    -4.5860    -0.0000    -0.0000 </r>
       <r>    -4.5189    -0.0000    -0.0000 </r>
       <r>    -4.4519    -0.0000    -0.0000 </r>
       <r>    -4.3848    -0.0000    -0.0000 </r>
       <r>    -4.3178    -0.0000    -0.0000 </r>
       <r>    -4.2507    -0.0000    -0.0000 </r>
       <r>    -4.1837    -0.0000    -0.0000 </r>
       <r>    -4.1167    -0.0000    -0.0000 </r>
       <r>    -4.0496    -0.0000    -0.0000 </r>
       <r>    -3.9826    -0.0000    -0.0000 </r>
       <r>    -3.9155    -0.0001    -0.0000 </r>
       <r>    -3.8485    -0.0006    -0.0000 </r>
       <r>    -3.7814    -0.0024    -0.0002 </r>
       <r>    -3.7144    -0.0082    -0.0008 </r>
       <r>    -3.6474    -0.0208    -0.0021 </r>
       <r>    -3.5803    -0.0377    -0.0047 </r>
       <r>    -3.5133    -0.0382    -0.0072 </r>
       <r>    -3.4462     0.0237    -0.0056 </r>
       <r>    -3.3792     0.2020     0.0079 </r>
       <r>    -3.3122     0.5135     0.0423 </r>
       <r>    -3.2451     0.9039     0.1029 </r>
       <r>    -3.1781     1.2804     0.1888 </r>
       <r>    -3.1110     1.6000     0.2960 </r>
       <r>    -3.0440     1.9084     0.4240 </r>
       <r>    -2.9769     2.2572     0.5753 </r>
       <r>    -2.9099     2.6006     0.7496 </r>
       <r>    -2.8429     2.8419     0.9402 </r>
       <r>    -2.7758     2.9823     1.1401 </r>
       <r>    -2.7088     3.1088     1.3485 </r>
       <r>    -2.6417     3.2009     1.5631 </r>
       <r>    -2.5747     3.1033     1.7712 </r>
       <r>    -2.5076     2.7874     1.9581 </r>
       <r>    -2.4406     2.5005     2.1257 </r>
       <r>    -2.3736     2.5347     2.2956 </r>
       <r>    -2.3065     2.9091     2.4907 </r>
       <r>    -2.2395     3.3303     2.7139 </r>
       <r>    -2.1724     3.4486     2.9451 </r>
       <r>    -2.1054     3.2112     3.1604 </r>
       <r>    -2.0384     2.9841     3.3605 </r>
       <r>    -1.9713     3.1595     3.5723 </r>
       <r>    -1.9043     3.6143     3.8146 </r>
       <r>    -1.8372     3.8413     4.0721 </r>
       <r>    -1.7702     3.6911     4.3196 </r>
       <r>    -1.7031     3.6039     4.5612 </r>
       <r>    -1.6361     3.9109     4.8234 </r>
       <r>    -1.5691     4.3058     5.1121 </r>
       <r>    -1.5020     4.3694     5.4050 </r>
       <r>    -1.4350     4.2800     5.6920 </r>
       <r>    -1.3679     4.5151     5.9947 </r>
       <r>    -1.3009     5.0583     6.3338 </r>
       <r>    -1.2338     5.4087     6.6964 </r>
       <r>    -1.1668     5.2766     7.0501 </r>
       <r>    -1.0998     4.8475     7.3751 </r>
       <r>    -1.0327     4.4192     7.6714 </r>
       <r>    -0.9657     4.1510     7.9497 </r>
       <r>    -0.8986     4.1759     8.2296 </r>
       <r>    -0.8316     4.6270     8.5399 </r>
       <r>    -0.7646     5.3908     8.9013 </r>
       <r>    -0.6975     5.9910     9.3029 </r>
       <r>    -0.6305     5.9347     9.7008 </r>
       <r>    -0.5634     5.2307    10.0515 </r>
       <r>    -0.4964     4.4685    10.3510 </r>
       <r>    -0.4293     4.2759    10.6377 </r>
       <r>    -0.3623     4.7244    10.9544 </r>
       <r>    -0.2953     5.3472    11.3129 </r>
       <r>    -0.2282     5.6944    11.6947 </r>
       <r>    -0.1612     5.7222    12.0783 </r>
       <r>    -0.0941     5.6380    12.4563 </r>
       <r>    -0.0271     5.5582    12.8289 </r>
       <r>     0.0400     5.4493    13.1943 </r>
       <r>     0.1070     5.2934    13.5492 </r>
       <r>     0.1740     5.1577    13.8949 </r>
       <r>     0.2411     5.1135    14.2378 </r>
       <r>     0.3081     5.1791    14.5850 </r>
       <r>     0.3752     5.3593    14.9443 </r>
       <r>     0.4422     5.7137    15.3273 </r>
       <r>     0.5092     6.2983    15.7496 </r>
       <r>     0.5763     6.9746    16.2172 </r>
       <r>     0.6433     7.3919    16.7128 </r>
       <r>     0.7104     7.3067    17.2026 </r>
       <r>     0.7774     6.8467    17.6616 </r>
       <r>     0.8445     6.3410    18.0867 </r>
       <r>     0.9115     5.9735    18.4872 </r>
       <r>     0.9785     5.7455    18.8724 </r>
       <r>     1.0456     5.6940    19.2541 </r>
       <r>     1.1126     5.9320    19.6518 </r>
       <r>     1.1797     6.4414    20.0837 </r>
       <r>     1.2467     6.9708    20.5510 </r>
       <r>     1.3138     7.2307    21.0358 </r>
       <r>     1.3808     7.1711    21.5165 </r>
       <r>     1.4478     7.0112    21.9866 </r>
       <r>     1.5149     6.9813    22.4546 </r>
       <r>     1.5819     7.1021    22.9308 </r>
       <r>     1.6490     7.2515    23.4169 </r>
       <r>     1.7160     7.3359    23.9087 </r>
       <r>     1.7830     7.3161    24.3992 </r>
       <r>     1.8501     7.1778    24.8804 </r>
       <r>     1.9171     6.9672    25.3475 </r>
       <r>     1.9842     6.7979    25.8033 </r>
       <r>     2.0512     6.7985    26.2591 </r>
       <r>     2.1183     7.0555    26.7321 </r>
       <r>     2.1853     7.5255    27.2366 </r>
       <r>     2.2523     7.9786    27.7715 </r>
       <r>     2.3194     8.1385    28.3171 </r>
       <r>     2.3864     7.9149    28.8478 </r>
       <r>     2.4535     7.4653    29.3483 </r>
       <r>     2.5205     7.0789    29.8228 </r>
       <r>     2.5876     7.0262    30.2939 </r>
       <r>     2.6546     7.4077    30.7905 </r>
       <r>     2.7216     8.0596    31.3309 </r>
       <r>     2.7887     8.6772    31.9126 </r>
       <r>     2.8557     9.0860    32.5217 </r>
       <r>     2.9228     9.3353    33.1476 </r>
       <r>     2.9898     9.4916    33.7839 </r>
       <r>     3.0568     9.4155    34.4152 </r>
       <r>     3.1239     8.8730    35.0100 </r>
       <r>     3.1909     7.9044    35.5400 </r>
       <r>     3.2580     6.9527    36.0061 </r>
       <r>     3.3250     6.4915    36.4413 </r>
       <r>     3.3921     6.5956    36.8835 </r>
       <r>     3.4591     7.0361    37.3552 </r>
       <r>     3.5261     7.7014    37.8715 </r>
       <r>     3.5932     8.6534    38.4516 </r>
       <r>     3.6602     9.7642    39.1062 </r>
       <r>     3.7273    10.5825    39.8157 </r>
       <r>     3.7943    10.7179    40.5343 </r>
       <r>     3.8614    10.2373    41.2206 </r>
       <r>     3.9284     9.5570    41.8613 </r>
       <r>     3.9954     9.0350    42.4670 </r>
       <r>     4.0625     8.8083    43.0576 </r>
       <r>     4.1295     8.9074    43.6547 </r>
       <r>     4.1966     9.2529    44.2751 </r>
       <r>     4.2636     9.5349    44.9143 </r>
       <r>     4.3306     9.3687    45.5424 </r>
       <r>     4.3977     8.7026    46.1259 </r>
       <r>     4.4647     7.9592    46.6595 </r>
       <r>     4.5318     7.6891    47.1749 </r>
       <r>     4.5988     8.1519    47.7215 </r>
       <r>     4.6659     9.2160    48.3393 </r>
       <r>     4.7329    10.4535    49.0401 </r>
       <r>     4.7999    11.2728    49.7959 </r>
       <r>     4.8670    11.2435    50.5497 </r>
       <r>     4.9340    10.5114    51.2544 </r>
       <r>     5.0011     9.7899    51.9107 </r>
       <r>     5.0681     9.7874    52.5669 </r>
       <r>     5.1352    10.5847    53.2765 </r>
       <r>     5.2022    11.5306    54.0495 </r>
       <r>     5.2692    11.7891    54.8399 </r>
       <r>     5.3363    11.0882    55.5833 </r>
       <r>     5.4033     9.9140    56.2479 </r>
       <r>     5.4704     8.9672    56.8491 </r>
       <r>     5.5374     8.5563    57.4228 </r>
       <r>     5.6044     8.5027    57.9928 </r>
       <r>     5.6715     8.4588    58.5599 </r>
       <r>     5.7385     8.2891    59.1156 </r>
       <r>     5.8056     8.2254    59.6671 </r>
       <r>     5.8726     8.6227    60.2452 </r>
       <r>     5.9397     9.5186    60.8833 </r>
       <r>     6.0067    10.4851    61.5862 </r>
       <r>     6.0737    10.9528    62.3205 </r>
       <r>     6.1408    10.6566    63.0350 </r>
       <r>     6.2078     9.7919    63.6915 </r>
       <r>     6.2749     8.8588    64.2854 </r>
       <r>     6.3419     8.4012    64.8486 </r>
       <r>     6.4090     8.7177    65.4331 </r>
       <r>     6.4760     9.6392    66.0793 </r>
       <r>     6.5430    10.6435    66.7929 </r>
       <r>     6.6101    11.3081    67.5510 </r>
       <r>     6.6771    11.6153    68.3297 </r>
       <r>     6.7442    11.7569    69.1179 </r>
       <r>     6.8112    11.7837    69.9079 </r>
       <r>     6.8782    11.6271    70.6874 </r>
       <r>     6.9453    11.3588    71.4489 </r>
       <r>     7.0123    11.1573    72.1969 </r>
       <r>     7.0794    11.0429    72.9373 </r>
       <r>     7.1464    10.8877    73.6672 </r>
       <r>     7.2135    10.6386    74.3804 </r>
       <r>     7.2805    10.2919    75.0704 </r>
       <r>     7.3475     9.7497    75.7241 </r>
       <r>     7.4146     8.9678    76.3253 </r>
       <r>     7.4816     8.2020    76.8752 </r>
       <r>     7.5487     7.9084    77.4054 </r>
       <r>     7.6157     8.3757    77.9669 </r>
       <r>     7.6828     9.4984    78.6037 </r>
       <r>     7.7498    10.8868    79.3336 </r>
       <r>     7.8168    12.1489    80.1480 </r>
       <r>     7.8839    13.0792    81.0249 </r>
       <r>     7.9509    13.6457    81.9397 </r>
       <r>     8.0180    13.8165    82.8660 </r>
       <r>     8.0850    13.4293    83.7664 </r>
       <r>     8.1520    12.3839    84.5966 </r>
       <r>     8.2191    11.0268    85.3359 </r>
       <r>     8.2861    10.1210    86.0144 </r>
       <r>     8.3532    10.2087    86.6988 </r>
       <r>     8.4202    11.0498    87.4396 </r>
       <r>     8.4873    11.8404    88.2334 </r>
       <r>     8.5543    11.9667    89.0357 </r>
       <r>     8.6213    11.4463    89.8031 </r>
       <r>     8.6884    10.7266    90.5222 </r>
       <r>     8.7554    10.2591    91.2100 </r>
       <r>     8.8225    10.2416    91.8966 </r>
       <r>     8.8895    10.5822    92.6061 </r>
       <r>     8.9566    11.0507    93.3469 </r>
       <r>     9.0236    11.4834    94.1168 </r>
       <r>     9.0906    11.8391    94.9105 </r>
       <r>     9.1577    12.1086    95.7223 </r>
       <r>     9.2247    12.2624    96.5444 </r>
       <r>     9.2918    12.3044    97.3693 </r>
       <r>     9.3588    12.2984    98.1938 </r>
       <r>     9.4258    12.2661    99.0162 </r>
       <r>     9.4929    12.1389    99.8300 </r>
       <r>     9.5599    11.8905   100.6272 </r>
       <r>     9.6270    11.6045   101.4051 </r>
       <r>     9.6940    11.3382   102.1653 </r>
       <r>     9.7611    11.0871   102.9086 </r>
       <r>     9.8281    10.9809   103.6448 </r>
       <r>     9.8951    11.3290   104.4043 </r>
       <r>     9.9622    12.2954   105.2286 </r>
       <r>    10.0292    13.6125   106.1412 </r>
       <r>    10.0963    14.7198   107.1281 </r>
       <r>    10.1633    15.1100   108.1411 </r>
       <r>    10.2304    14.5813   109.1186 </r>
       <r>    10.2974    13.4049   110.0173 </r>
       <r>    10.3644    12.2631   110.8395 </r>
       <r>    10.4315    11.7385   111.6264 </r>
       <r>    10.4985    11.7603   112.4149 </r>
       <r>    10.5656    11.7319   113.2014 </r>
       <r>    10.6326    11.2871   113.9581 </r>
       <r>    10.6996    10.7695   114.6801 </r>
       <r>    10.7667    10.8188   115.4054 </r>
       <r>    10.8337    11.5530   116.1800 </r>
       <r>    10.9008    12.3805   117.0100 </r>
       <r>    10.9678    12.7067   117.8619 </r>
       <r>    11.0349    12.6260   118.7084 </r>
       <r>    11.1019    12.7122   119.5606 </r>
       <r>    11.1689    13.2536   120.4492 </r>
       <r>    11.2360    13.9475   121.3842 </r>
       <r>    11.3030    14.2864   122.3420 </r>
       <r>    11.3701    14.0103   123.2813 </r>
       <r>    11.4371    13.2116   124.1670 </r>
       <r>    11.5042    12.1749   124.9833 </r>
       <r>    11.5712    11.1036   125.7277 </r>
       <r>    11.6382     9.9323   126.3936 </r>
       <r>    11.7053     8.4362   126.9591 </r>
       <r>    11.7723     6.5198   127.3962 </r>
       <r>    11.8394     4.3669   127.6890 </r>
       <r>    11.9064     2.3599   127.8472 </r>
       <r>    11.9734     0.8736   127.9058 </r>
       <r>    12.0405     0.0630   127.9100 </r>
       <r>    12.1075    -0.2012   127.8965 </r>
       <r>    12.1746    -0.1885   127.8839 </r>
       <r>    12.2416    -0.1114   127.8764 </r>
       <r>    12.3087    -0.0469   127.8733 </r>
       <r>    12.3757     0.0205   127.8746 </r>
       <r>    12.4427     0.1220   127.8828 </r>
       <r>    12.5098     0.2491   127.8995 </r>
       <r>    12.5768     0.3522   127.9231 </r>
       <r>    12.6439     0.3837   127.9489 </r>
       <r>    12.7109     0.3371   127.9715 </r>
       <r>    12.7780     0.2428   127.9877 </r>
       <r>    12.8450     0.1403   127.9971 </r>
       <r>    12.9120     0.0585   128.0011 </r>
       <r>    12.9791     0.0102   128.0017 </r>
       <r>    13.0461    -0.0082   128.0012 </r>
       <r>    13.1132    -0.0094   128.0006 </r>
       <r>    13.1802    -0.0054   128.0002 </r>
       <r>    13.2472    -0.0022   128.0001 </r>
       <r>    13.3143    -0.0006   128.0000 </r>
       <r>    13.3813    -0.0001   128.0000 </r>
       <r>    13.4484    -0.0000   128.0000 </r>
       <r>    13.5154    -0.0000   128.0000 </r>
       <r>    13.5825    -0.0000   128.0000 </r>
       <r>    13.6495    -0.0000   128.0000 </r>
       <r>    13.7165    -0.0000   128.0000 </r>
       <r>    13.7836    -0.0000   128.0000 </r>
       <r>    13.8506    -0.0000   128.0000 </r>
       <r>    13.9177    -0.0000   128.0000 </r>
       <r>    13.9847    -0.0000   128.0000 </r>
       <r>    14.0518    -0.0000   128.0000 </r>
       <r>    14.1188     0.0000   128.0000 </r>
       <r>    14.1858     0.0000   128.0000 </r>
       <r>    14.2529     0.0000   128.0000 </r>
       <r>    14.3199     0.0000   128.0000 </r>
       <r>    14.3870     0.0000   128.0000 </r>
       <r>    14.4540     0.0000   128.0000 </r>
       <r>    14.5210     0.0000   128.0000 </r>
       <r>    14.5881     0.0000   128.0000 </r>
       <r>    14.6551     0.0000   128.0000 </r>
       <r>    14.7222     0.0000   128.0000 </r>
       <r>    14.7892     0.0000   128.0000 </r>
      </set>
     </set>
    </array>
   </total>
  </dos>
 </calculation>
 <structure name="finalpos" >
  <crystal>
   <varray name="basis" >
    <v>       0.00000000       6.07500000       6.07500000 </v>
    <v>       6.07500000       0.00000000       6.07500000 </v>
    <v>       6.07500000       6.07500000       0.00000000 </v>
   </varray>
   <i name="volume">    448.40334375 </i>
   <varray name="rec_basis" >
    <v>      -0.08230453       0.08230453       0.08230453 </v>
    <v>       0.08230453      -0.08230453       0.08230453 </v>
    <v>       0.08230453       0.08230453      -0.08230453 </v>
   </varray>
  </crystal>
  <varray name="positions" >
   <v>       0.03072925       0.96387421       0.99335129 </v>
   <v>       0.99258174       0.99138704       0.37437120 </v>
   <v>       0.03987129       0.97458437       0.66645651 </v>
   <v>       0.97532575       0.31263348       0.03632424 </v>
   <v>       0.03606437       0.34293960       0.30930854 </v>
   <v>       0.97592979       0.31163336       0.67649545 </v>
   <v>       0.98930886       0.70924212       0.98535758 </v>
   <v>       0.01726587       0.69042582       0.33198484 </v>
   <v>       0.98858018       0.70617930       0.63934643 </v>
   <v>       0.29063859       0.01524357       0.01190058 </v>
   <v>       0.36775576       0.96464563       0.33249865 </v>
   <v>       0.34036086       0.00864237       0.62572732 </v>
   <v>       0.33886863       0.29233915       0.01070007 </v>
   <v>       0.32919419       0.32865933       0.30338268 </v>
   <v>       0.31164909       0.37101267       0.64416408 </v>
   <v>       0.31008385       0.65166246       0.04082149 </v>
   <v>       0.35255529       0.62449612       0.34851541 </v>
   <v>       0.31406131       0.64463059       0.66823572 </v>
   <v>       0.63238000       0.99014973       0.03186680 </v>
   <v>       0.67072280       0.03872610       0.31385657 </v>
   <v>       0.64674448       0.97456770       0.67580797 </v>
   <v>       0.64963795       0.35109596       0.02990593 </v>
   <v>       0.67287570       0.30780321       0.31505053 </v>
   <v>       0.66000028       0.30956888       0.65574356 </v>
   <v>       0.70584969       0.65920122       0.99726767 </v>
   <v>       0.63389516       0.68664060       0.36075394 </v>
   <v>       0.63407795       0.68108646       0.69815250 </v>
  </varray>
 </structure>
</modeling>
