<?xml version="1.0" encoding="ISO-8859-1"?>
<modeling>
 <generator>
  <i name="program" type="string">vasp </i>
  <i name="version" type="string">5.3.5  </i>
  <i name="subversion" type="string">31Mar14 (build Jun 17 2014 14:04:22) complex                          parallel </i>
  <i name="platform" type="string">LinuxIfort </i>
  <i name="date" type="string">2025 12 23 </i>
  <i name="time" type="string">04:29:51 </i>
 </generator>
 <incar>
  <i type="string" name="SYSTEM"> Al Random Displacement</i>
  <i type="string" name="PREC">normal</i>
  <i type="string" name="ALGO"> Fast</i>
  <i type="int" name="IBRION">    -1</i>
  <i type="int" name="NSW">     0</i>
  <i name="ENCUT">    300.00000000</i>
  <i type="string" name="LREAL"> Auto</i>
  <i type="int" name="ISMEAR">     1</i>
  <i name="SIGMA">      0.20000000</i>
  <i type="logical" name="LWAVE"> F  </i>
  <i type="logical" name="LCHARG"> F  </i>
 </incar>
 <kpoints>
  <generation param="Monkhorst-Pack">
   <v type="int" name="divisions">       4        4        4 </v>
   <v name="usershift">      0.00000000       0.00000000       0.00000000 </v>
   <v name="genvec1">      0.25000000       0.00000000       0.00000000 </v>
   <v name="genvec2">      0.00000000       0.25000000       0.00000000 </v>
   <v name="genvec3">      0.00000000       0.00000000       0.25000000 </v>
   <v name="shift">      0.50000000       0.50000000       0.50000000 </v>
  </generation>
  <varray name="kpointlist" >
   <v>       0.12500000       0.12500000       0.12500000 </v>
   <v>       0.12500000       0.00000000       0.00000000 </v>
   <v>       0.00000000       0.00000000      -0.12500000 </v>
   <v>       0.00000000       0.12500000       0.00000000 </v>
   <v>       0.37500000       0.12500000       0.12500000 </v>
   <v>       0.12500000       0.37500000       0.12500000 </v>
   <v>       0.12500000       0.12500000       0.37500000 </v>
   <v>       0.12500000       0.00000000      -0.25000000 </v>
   <v>       0.37500000       0.25000000       0.25000000 </v>
   <v>       0.12500000      -0.25000000       0.00000000 </v>
   <v>       0.00000000       0.25000000      -0.12500000 </v>
   <v>       0.25000000       0.00000000      -0.12500000 </v>
   <v>      -0.25000000      -0.25000000      -0.37500000 </v>
   <v>       0.25000000       0.37500000       0.25000000 </v>
   <v>       0.00000000       0.12500000      -0.25000000 </v>
   <v>      -0.25000000       0.12500000       0.00000000 </v>
   <v>      -0.37500000       0.12500000       0.12500000 </v>
   <v>       0.12500000      -0.37500000       0.12500000 </v>
   <v>       0.12500000       0.12500000      -0.37500000 </v>
   <v>       0.12500000       0.00000000       0.50000000 </v>
   <v>      -0.37500000       0.50000000       0.50000000 </v>
   <v>       0.12500000       0.50000000       0.00000000 </v>
   <v>       0.00000000       0.50000000      -0.12500000 </v>
   <v>       0.50000000       0.00000000      -0.12500000 </v>
   <v>       0.50000000       0.50000000       0.37500000 </v>
   <v>       0.50000000      -0.37500000       0.50000000 </v>
   <v>       0.00000000       0.12500000       0.50000000 </v>
   <v>       0.50000000       0.12500000       0.00000000 </v>
   <v>      -0.12500000       0.12500000       0.12500000 </v>
   <v>       0.12500000      -0.12500000       0.12500000 </v>
   <v>       0.12500000       0.12500000      -0.12500000 </v>
   <v>       0.12500000       0.00000000       0.25000000 </v>
   <v>      -0.12500000      -0.25000000      -0.25000000 </v>
   <v>       0.12500000       0.25000000       0.00000000 </v>
   <v>       0.00000000      -0.25000000      -0.12500000 </v>
   <v>      -0.25000000       0.00000000      -0.12500000 </v>
   <v>       0.25000000       0.25000000       0.12500000 </v>
   <v>      -0.25000000      -0.12500000      -0.25000000 </v>
   <v>       0.00000000       0.12500000       0.25000000 </v>
   <v>       0.25000000       0.12500000       0.00000000 </v>
   <v>       0.37500000       0.37500000       0.12500000 </v>
   <v>       0.12500000       0.37500000       0.37500000 </v>
   <v>       0.37500000       0.12500000       0.37500000 </v>
   <v>       0.37500000       0.25000000       0.00000000 </v>
   <v>       0.37500000       0.00000000       0.25000000 </v>
   <v>       0.12500000      -0.25000000      -0.25000000 </v>
   <v>       0.25000000       0.25000000      -0.12500000 </v>
   <v>       0.00000000      -0.25000000      -0.37500000 </v>
   <v>      -0.25000000       0.00000000      -0.37500000 </v>
   <v>       0.25000000       0.37500000       0.00000000 </v>
   <v>      -0.25000000       0.12500000      -0.25000000 </v>
   <v>       0.00000000       0.37500000       0.25000000 </v>
   <v>      -0.37500000       0.37500000       0.12500000 </v>
   <v>       0.12500000      -0.37500000       0.37500000 </v>
   <v>       0.37500000       0.12500000      -0.37500000 </v>
   <v>       0.37500000       0.25000000      -0.25000000 </v>
   <v>      -0.37500000       0.25000000       0.50000000 </v>
   <v>       0.12500000       0.50000000      -0.25000000 </v>
   <v>       0.25000000       0.50000000      -0.12500000 </v>
   <v>       0.25000000      -0.25000000      -0.37500000 </v>
   <v>       0.50000000      -0.25000000       0.37500000 </v>
   <v>       0.50000000      -0.37500000       0.25000000 </v>
   <v>      -0.25000000       0.12500000       0.50000000 </v>
   <v>      -0.25000000       0.37500000       0.25000000 </v>
   <v>      -0.12500000       0.25000000       0.50000000 </v>
   <v>      -0.37500000       0.25000000      -0.25000000 </v>
   <v>       0.37500000       0.50000000      -0.25000000 </v>
   <v>       0.25000000       0.50000000      -0.37500000 </v>
   <v>       0.50000000      -0.25000000       0.12500000 </v>
   <v>       0.25000000      -0.25000000       0.37500000 </v>
   <v>       0.50000000      -0.12500000       0.25000000 </v>
   <v>      -0.25000000      -0.37500000       0.25000000 </v>
   <v>      -0.25000000       0.37500000       0.50000000 </v>
   <v>       0.37500000      -0.12500000      -0.37500000 </v>
   <v>      -0.37500000       0.37500000      -0.12500000 </v>
   <v>      -0.12500000      -0.37500000       0.37500000 </v>
   <v>      -0.12500000       0.37500000       0.12500000 </v>
   <v>       0.12500000      -0.12500000       0.37500000 </v>
   <v>       0.37500000       0.12500000      -0.12500000 </v>
   <v>       0.37500000       0.25000000       0.50000000 </v>
   <v>      -0.12500000       0.50000000      -0.25000000 </v>
   <v>       0.12500000       0.25000000      -0.25000000 </v>
   <v>       0.25000000      -0.25000000      -0.12500000 </v>
   <v>       0.50000000      -0.25000000      -0.37500000 </v>
   <v>       0.25000000       0.50000000       0.12500000 </v>
   <v>      -0.25000000      -0.12500000       0.50000000 </v>
   <v>      -0.25000000       0.12500000       0.25000000 </v>
   <v>       0.50000000       0.37500000       0.25000000 </v>
   <v>      -0.12500000       0.25000000      -0.25000000 </v>
   <v>      -0.37500000       0.50000000      -0.25000000 </v>
   <v>       0.12500000       0.25000000       0.50000000 </v>
   <v>       0.50000000      -0.25000000      -0.12500000 </v>
   <v>       0.25000000      -0.25000000       0.12500000 </v>
   <v>       0.25000000       0.50000000       0.37500000 </v>
   <v>      -0.25000000      -0.12500000       0.25000000 </v>
   <v>      -0.25000000      -0.37500000       0.50000000 </v>
   <v>       0.50000000       0.12500000       0.25000000 </v>
   <v>       0.12500000      -0.12500000      -0.37500000 </v>
   <v>      -0.37500000       0.12500000      -0.12500000 </v>
   <v>      -0.12500000      -0.37500000       0.12500000 </v>
   <v>      -0.37500000      -0.37500000       0.12500000 </v>
   <v>       0.12500000      -0.37500000      -0.37500000 </v>
   <v>      -0.37500000       0.12500000      -0.37500000 </v>
   <v>      -0.37500000       0.50000000       0.00000000 </v>
   <v>      -0.37500000       0.00000000       0.50000000 </v>
   <v>       0.12500000       0.50000000       0.50000000 </v>
   <v>       0.50000000       0.50000000      -0.12500000 </v>
   <v>       0.00000000       0.50000000       0.37500000 </v>
   <v>       0.50000000       0.00000000       0.37500000 </v>
   <v>       0.50000000      -0.37500000       0.00000000 </v>
   <v>       0.50000000       0.12500000       0.50000000 </v>
   <v>       0.00000000      -0.37500000       0.50000000 </v>
   <v>       0.37500000       0.37500000       0.37500000 </v>
   <v>       0.37500000       0.00000000       0.00000000 </v>
   <v>       0.00000000       0.00000000      -0.37500000 </v>
   <v>       0.00000000       0.37500000       0.00000000 </v>
   <v>      -0.37500000       0.37500000       0.37500000 </v>
   <v>       0.37500000      -0.37500000       0.37500000 </v>
   <v>       0.37500000       0.37500000      -0.37500000 </v>
   <v>       0.37500000       0.00000000      -0.25000000 </v>
   <v>      -0.37500000       0.25000000       0.25000000 </v>
   <v>       0.37500000      -0.25000000       0.00000000 </v>
   <v>       0.00000000       0.25000000      -0.37500000 </v>
   <v>       0.25000000       0.00000000      -0.37500000 </v>
   <v>      -0.25000000      -0.25000000       0.37500000 </v>
   <v>       0.25000000      -0.37500000       0.25000000 </v>
   <v>       0.00000000       0.37500000      -0.25000000 </v>
   <v>      -0.25000000       0.37500000       0.00000000 </v>
  </varray>
  <varray name="weights" >
   <v>       0.00781250 </v>
   <v>       0.00781250 </v>
   <v>       0.00781250 </v>
   <v>       0.00781250 </v>
   <v>       0.00781250 </v>
   <v>       0.00781250 </v>
   <v>       0.00781250 </v>
   <v>       0.00781250 </v>
   <v>       0.00781250 </v>
   <v>       0.00781250 </v>
   <v>       0.00781250 </v>
   <v>       0.00781250 </v>
   <v>       0.00781250 </v>
   <v>       0.00781250 </v>
   <v>       0.00781250 </v>
   <v>       0.00781250 </v>
   <v>       0.00781250 </v>
   <v>       0.00781250 </v>
   <v>       0.00781250 </v>
   <v>       0.00781250 </v>
   <v>       0.00781250 </v>
   <v>       0.00781250 </v>
   <v>       0.00781250 </v>
   <v>       0.00781250 </v>
   <v>       0.00781250 </v>
   <v>       0.00781250 </v>
   <v>       0.00781250 </v>
   <v>       0.00781250 </v>
   <v>       0.00781250 </v>
   <v>       0.00781250 </v>
   <v>       0.00781250 </v>
   <v>       0.00781250 </v>
   <v>       0.00781250 </v>
   <v>       0.00781250 </v>
   <v>       0.00781250 </v>
   <v>       0.00781250 </v>
   <v>       0.00781250 </v>
   <v>       0.00781250 </v>
   <v>       0.00781250 </v>
   <v>       0.00781250 </v>
   <v>       0.00781250 </v>
   <v>       0.00781250 </v>
   <v>       0.00781250 </v>
   <v>       0.00781250 </v>
   <v>       0.00781250 </v>
   <v>       0.00781250 </v>
   <v>       0.00781250 </v>
   <v>       0.00781250 </v>
   <v>       0.00781250 </v>
   <v>       0.00781250 </v>
   <v>       0.00781250 </v>
   <v>       0.00781250 </v>
   <v>       0.00781250 </v>
   <v>       0.00781250 </v>
   <v>       0.00781250 </v>
   <v>       0.00781250 </v>
   <v>       0.00781250 </v>
   <v>       0.00781250 </v>
   <v>       0.00781250 </v>
   <v>       0.00781250 </v>
   <v>       0.00781250 </v>
   <v>       0.00781250 </v>
   <v>       0.00781250 </v>
   <v>       0.00781250 </v>
   <v>       0.00781250 </v>
   <v>       0.00781250 </v>
   <v>       0.00781250 </v>
   <v>       0.00781250 </v>
   <v>       0.00781250 </v>
   <v>       0.00781250 </v>
   <v>       0.00781250 </v>
   <v>       0.00781250 </v>
   <v>       0.00781250 </v>
   <v>       0.00781250 </v>
   <v>       0.00781250 </v>
   <v>       0.00781250 </v>
   <v>       0.00781250 </v>
   <v>       0.00781250 </v>
   <v>       0.00781250 </v>
   <v>       0.00781250 </v>
   <v>       0.00781250 </v>
   <v>       0.00781250 </v>
   <v>       0.00781250 </v>
   <v>       0.00781250 </v>
   <v>       0.00781250 </v>
   <v>       0.00781250 </v>
   <v>       0.00781250 </v>
   <v>       0.00781250 </v>
   <v>       0.00781250 </v>
   <v>       0.00781250 </v>
   <v>       0.00781250 </v>
   <v>       0.00781250 </v>
   <v>       0.00781250 </v>
   <v>       0.00781250 </v>
   <v>       0.00781250 </v>
   <v>       0.00781250 </v>
   <v>       0.00781250 </v>
   <v>       0.00781250 </v>
   <v>       0.00781250 </v>
   <v>       0.00781250 </v>
   <v>       0.00781250 </v>
   <v>       0.00781250 </v>
   <v>       0.00781250 </v>
   <v>       0.00781250 </v>
   <v>       0.00781250 </v>
   <v>       0.00781250 </v>
   <v>       0.00781250 </v>
   <v>       0.00781250 </v>
   <v>       0.00781250 </v>
   <v>       0.00781250 </v>
   <v>       0.00781250 </v>
   <v>       0.00781250 </v>
   <v>       0.00781250 </v>
   <v>       0.00781250 </v>
   <v>       0.00781250 </v>
   <v>       0.00781250 </v>
   <v>       0.00781250 </v>
   <v>       0.00781250 </v>
   <v>       0.00781250 </v>
   <v>       0.00781250 </v>
   <v>       0.00781250 </v>
   <v>       0.00781250 </v>
   <v>       0.00781250 </v>
   <v>       0.00781250 </v>
   <v>       0.00781250 </v>
   <v>       0.00781250 </v>
   <v>       0.00781250 </v>
   <v>       0.00781250 </v>
  </varray>
 </kpoints>
 <parameters>
  <separator name="general" >
   <i type="string" name="SYSTEM">Al Random Displacement</i>
   <i type="logical" name="LCOMPAT"> F  </i>
  </separator>
  <separator name="electronic" >
   <i type="string" name="PREC">normal</i>
   <i name="ENMAX">    300.00000000</i>
   <i name="ENAUG">    291.05200000</i>
   <i name="EDIFF">      0.00010000</i>
   <i type="int" name="IALGO">    68</i>
   <i type="int" name="IWAVPR">    10</i>
   <i type="int" name="NBANDS">    64</i>
   <i name="NELECT">     81.00000000</i>
   <i type="int" name="TURBO">     0</i>
   <i type="int" name="IRESTART">     0</i>
   <i type="int" name="NREBOOT">     0</i>
   <i type="int" name="NMIN">     0</i>
   <i name="EREF">      0.00000000</i>
   <separator name="electronic smearing" >
    <i type="int" name="ISMEAR">     1</i>
    <i name="SIGMA">      0.20000000</i>
    <i name="KSPACING">      0.50000000</i>
    <i type="logical" name="KGAMMA"> T  </i>
   </separator>
   <separator name="electronic projectors" >
    <i type="logical" name="LREAL"> T  </i>
    <v name="ROPT">     -0.00050000</v>
    <i type="int" name="LMAXPAW">  -100</i>
    <i type="int" name="LMAXMIX">     2</i>
    <i type="logical" name="NLSPLINE"> F  </i>
   </separator>
   <separator name="electronic startup" >
    <i type="int" name="ISTART">     0</i>
    <i type="int" name="ICHARG">     2</i>
    <i type="int" name="INIWAV">     1</i>
   </separator>
   <separator name="electronic spin" >
    <i type="int" name="ISPIN">     1</i>
    <i type="logical" name="LNONCOLLINEAR"> F  </i>
    <v name="MAGMOM">      1.00000000      1.00000000      1.00000000      1.00000000      1.00000000      1.00000000      1.00000000      1.00000000      1.00000000      1.00000000      1.00000000      1.00000000      1.00000000      1.00000000      1.00000000      1.00000000      1.00000000      1.00000000      1.00000000      1.00000000
      1.00000000      1.00000000      1.00000000      1.00000000      1.00000000      1.00000000      1.00000000</v>
    <i name="NUPDOWN">     -1.00000000</i>
    <i type="logical" name="LSORBIT"> F  </i>
    <v name="SAXIS">      0.00000000      0.00000000      1.00000000</v>
    <i type="logical" name="LSPIRAL"> F  </i>
    <v name="QSPIRAL">      0.00000000      0.00000000      0.00000000</v>
    <i type="logical" name="LZEROZ"> F  </i>
   </separator>
   <separator name="electronic exchange-correlation" >
    <i type="logical" name="LASPH"> F  </i>
    <i type="logical" name="LMETAGGA"> F  </i>
   </separator>
   <separator name="electronic convergence" >
    <i type="int" name="NELM">    60</i>
    <i type="int" name="NELMDL">    -5</i>
    <i type="int" name="NELMIN">     2</i>
    <i name="ENINI">    300.00000000</i>
    <separator name="electronic convergence detail" >
     <i type="logical" name="LDIAG"> T  </i>
     <i type="logical" name="LSUBROT"> F  </i>
     <i name="WEIMIN">      0.00000000</i>
     <i name="EBREAK">      0.00000039</i>
     <i name="DEPER">      0.30000000</i>
     <i type="int" name="NRMM">     4</i>
     <i name="TIME">      0.40000000</i>
    </separator>
   </separator>
   <separator name="electronic mixer" >
    <i name="AMIX">      0.40000000</i>
    <i name="BMIX">      1.00000000</i>
    <i name="AMIN">      0.10000000</i>
    <i name="AMIX_MAG">      1.60000000</i>
    <i name="BMIX_MAG">      1.00000000</i>
    <separator name="electronic mixer details" >
     <i type="int" name="IMIX">     4</i>
     <i type="int" name="MAXMIX">   -45</i>
     <i name="WC">    100.00000000</i>
     <i type="int" name="INIMIX">     1</i>
     <i type="int" name="MIXPRE">     1</i>
     <i type="int" name="MREMOVE">     5</i>
    </separator>
   </separator>
   <separator name="electronic dipolcorrection" >
    <i type="logical" name="LDIPOL"> F  </i>
    <i type="logical" name="LMONO"> F  </i>
    <i type="int" name="IDIPOL">     0</i>
    <i name="EPSILON">      1.00000000</i>
    <v name="DIPOL">   -100.00000000   -100.00000000   -100.00000000</v>
    <i name="EFIELD">      0.00000000</i>
   </separator>
  </separator>
  <separator name="grids" >
   <i type="int" name="NGX">    40</i>
   <i type="int" name="NGY">    40</i>
   <i type="int" name="NGZ">    40</i>
   <i type="int" name="NGXF">    80</i>
   <i type="int" name="NGYF">    80</i>
   <i type="int" name="NGZF">    80</i>
   <i type="logical" name="ADDGRID"> F  </i>
  </separator>
  <separator name="ionic" >
   <i type="int" name="NSW">     0</i>
   <i type="int" name="IBRION">    -1</i>
   <i type="int" name="ISIF">     2</i>
   <i name="PSTRESS">      0.00000000</i>
   <i name="EDIFFG">      0.00100000</i>
   <i type="int" name="NFREE">     0</i>
   <i name="POTIM">      0.50000000</i>
   <i name="SMASS">     -3.00000000</i>
   <i name="SCALEE">      1.00000000</i>
  </separator>
  <separator name="ionic md" >
   <i name="TEBEG">      0.00010000</i>
   <i name="TEEND">      0.00010000</i>
   <i type="int" name="NBLOCK">     1</i>
   <i type="int" name="KBLOCK">     1</i>
   <i type="int" name="NPACO">   256</i>
   <i name="APACO">     16.00000000</i>
  </separator>
  <separator name="symmetry" >
   <i type="int" name="ISYM">     2</i>
   <i name="SYMPREC">      0.00001000</i>
  </separator>
  <separator name="dos" >
   <i type="logical" name="LORBIT"> F  </i>
   <v name="RWIGS">     -1.00000000</v>
   <i type="int" name="NEDOS">   301</i>
   <i name="EMIN">     10.00000000</i>
   <i name="EMAX">    -10.00000000</i>
   <i name="EFERMI">      0.00000000</i>
  </separator>
  <separator name="writing" >
   <i type="int" name="NWRITE">     2</i>
   <i type="logical" name="LWAVE"> F  </i>
   <i type="logical" name="LCHARG"> F  </i>
   <i type="logical" name="LPARD"> F  </i>
   <i type="logical" name="LVTOT"> F  </i>
   <i type="logical" name="LVHAR"> F  </i>
   <i type="logical" name="LELF"> F  </i>
   <i type="logical" name="LOPTICS"> F  </i>
   <v name="STM">      0.00000000      0.00000000      0.00000000      0.00000000      0.00000000      0.00000000      0.00000000</v>
  </separator>
  <separator name="performance" >
   <i type="int" name="NPAR">    16</i>
   <i type="int" name="NSIM">     4</i>
   <i type="int" name="NBLK">    -1</i>
   <i type="logical" name="LPLANE"> T  </i>
   <i type="logical" name="LSCALAPACK"> F  </i>
   <i type="logical" name="LSCAAWARE"> F  </i>
   <i type="logical" name="LSCALU"> F  </i>
   <i type="logical" name="LASYNC"> F  </i>
   <i type="logical" name="LORBITALREAL"> F  </i>
  </separator>
  <separator name="miscellaneous" >
   <i type="int" name="IDIOT">     3</i>
   <i type="logical" name="LMUSIC"> F  </i>
   <v name="POMASS">     26.98100000</v>
   <v name="DARWINR">      0.00000000</v>
   <v name="DARWINV">      1.00000000</v>
   <i type="logical" name="LCORR"> T  </i>
  </separator>
  <i type="logical" name="GGA_COMPAT"> T  </i>
  <i type="logical" name="LBERRY"> F  </i>
  <i type="int" name="ICORELEVEL">     0</i>
  <i type="logical" name="LDAU"> F  </i>
  <i type="int" name="I_CONSTRAINED_M">     0</i>
  <separator name="electronic exchange-correlation" >
   <i type="string" name="GGA">--</i>
   <i type="int" name="VOSKOWN">     0</i>
   <i type="logical" name="LHFCALC"> F  </i>
   <i type="string" name="PRECFOCK"></i>
   <i type="logical" name="LSYMGRAD"> F  </i>
   <i type="logical" name="LHFONE"> F  </i>
   <i type="logical" name="LRHFCALC"> F  </i>
   <i type="logical" name="LTHOMAS"> F  </i>
   <i type="logical" name="LMODELHF"> F  </i>
   <i name="ENCUT4O">     -1.00000000</i>
   <i type="int" name="EXXOEP">     0</i>
   <i type="int" name="FOURORBIT">     0</i>
   <i name="AEXX">      0.00000000</i>
   <i name="HFALPHA">      0.00000000</i>
   <i name="MCALPHA">      0.00000000</i>
   <i name="ALDAX">      1.00000000</i>
   <i name="AGGAX">      1.00000000</i>
   <i name="ALDAC">      1.00000000</i>
   <i name="AGGAC">      1.00000000</i>
   <i type="int" name="NKREDX">     1</i>
   <i type="int" name="NKREDY">     1</i>
   <i type="int" name="NKREDZ">     1</i>
   <i type="logical" name="SHIFTRED"> F  </i>
   <i type="logical" name="ODDONLY"> F  </i>
   <i type="logical" name="EVENONLY"> F  </i>
   <i type="int" name="LMAXFOCK">     0</i>
   <i type="int" name="NMAXFOCKAE">     0</i>
   <i type="logical" name="LFOCKAEDFT"> F  </i>
   <i name="HFSCREEN">      0.00000000</i>
   <i name="HFSCREENC">      0.00000000</i>
   <i type="int" name="NBANDSGWLOW">     0</i>
  </separator>
  <separator name="vdW DFT" >
   <i type="logical" name="LUSE_VDW"> F  </i>
   <i name="Zab_VDW">     -0.84910000</i>
   <i name="PARAM1">      0.12340000</i>
   <i name="PARAM2">      1.00000000</i>
   <i name="PARAM3">      0.00000000</i>
  </separator>
  <separator name="model GW" >
   <i type="int" name="MODEL_GW">     0</i>
   <i name="MODEL_EPS0">     11.53517602</i>
   <i name="MODEL_ALPHA">      1.00000000</i>
  </separator>
  <separator name="linear response parameters" >
   <i type="logical" name="LEPSILON"> F  </i>
   <i type="logical" name="LRPA"> F  </i>
   <i type="logical" name="LNABLA"> F  </i>
   <i type="logical" name="LVEL"> F  </i>
   <i type="int" name="KINTER">     0</i>
   <i name="CSHIFT">      0.10000000</i>
   <i name="OMEGAMAX">     -1.00000000</i>
   <i name="DEG_THRESHOLD">      0.00200000</i>
  </separator>
  <separator name="orbital magnetization" >
   <i type="logical" name="NUCIND"> F  </i>
   <v name="MAGPOS">      0.00000000      0.00000000      0.00000000</v>
   <i type="logical" name="LNICSALL"> T  </i>
   <i type="logical" name="ORBITALMAG"> F  </i>
   <i type="logical" name="LMAGBLOCH"> F  </i>
   <i type="logical" name="LCHIMAG"> F  </i>
   <i type="logical" name="LGAUGE"> T  </i>
   <i type="int" name="MAGATOM">     0</i>
   <v name="MAGDIPOL">      0.00000000      0.00000000      0.00000000</v>
   <v name="AVECCONST">      0.00000000      0.00000000      0.00000000</v>
  </separator>
  <separator name="response functions" >
   <i type="logical" name="LADDER"> F  </i>
   <i type="logical" name="LFXC"> F  </i>
   <i type="logical" name="LHARTREE"> T  </i>
   <i type="int" name="IBSE">     0</i>
   <i type="logical" name="LTCTE"> F  </i>
   <i type="logical" name="LTETE"> F  </i>
   <i type="logical" name="LTRIPLET"> F  </i>
   <i type="logical" name="LFXCEPS"> F  </i>
   <i type="logical" name="LFXHEG"> F  </i>
   <i type="logical" name="L2ORDER"> F  </i>
   <i type="logical" name="LUSEW"> F  </i>
   <i name="ENCUTGW">     -2.00000000</i>
   <i name="ENCUTGWSOFT">     -2.00000000</i>
   <i name="ENCUTLF">     -1.00000000</i>
   <i type="int" name="LMAXMP2">    -1</i>
   <i name="SCISSOR">      0.00000000</i>
   <i type="int" name="NOMEGA">     0</i>
   <i type="int" name="NOMEGAR">     0</i>
   <i type="int" name="NBANDSGW">    -1</i>
   <i type="int" name="NBANDSO">    -1</i>
   <i type="int" name="NBANDSV">    -1</i>
   <i type="int" name="NELM">     1</i>
   <i type="int" name="DIM">     3</i>
   <i type="int" name="ANTIRES">     0</i>
   <i name="OMEGAMAX">    -30.00000000</i>
   <i name="OMEGAMIN">    -30.00000000</i>
   <i name="OMEGATL">   -200.00000000</i>
   <i type="int" name="OMEGAGRID">     0</i>
   <i name="CSHIFT">     -0.10000000</i>
   <i type="logical" name="SELFENERGY"> F  </i>
   <i type="logical" name="LSPECTRAL"> F  </i>
   <i type="logical" name="ODDONLYGW"> F  </i>
   <i type="logical" name="EVENONLYGW"> F  </i>
   <i type="int" name="NKREDLFX">     1</i>
   <i type="int" name="NKREDLFY">     1</i>
   <i type="int" name="NKREDLFZ">     1</i>
   <i type="int" name="MAXMEM">  1800</i>
   <i type="int" name="TELESCOPE">     0</i>
   <i type="int" name="TAUPAR">     1</i>
  </separator>
  <separator name="External order field" >
   <i name="OFIELD_KAPPA">      0.00000000</i>
   <v name="OFIELD_K">      0.00000000      0.00000000      0.00000000</v>
   <i name="OFIELD_Q6_NEAR">      0.00000000</i>
   <i name="OFIELD_Q6_FAR">      0.00000000</i>
   <i name="OFIELD_A">      0.00000000</i>
  </separator>
 </parameters>
 <atominfo>
  <atoms>      27 </atoms>
  <types>       1 </types>
  <array name="atoms" >
   <dimension dim="1">ion</dimension>
   <field type="string">element</field>
   <field type="int">atomtype</field>
   <set>
    <rc><c>Al</c><c>   1</c></rc>
    <rc><c>Al</c><c>   1</c></rc>
    <rc><c>Al</c><c>   1</c></rc>
    <rc><c>Al</c><c>   1</c></rc>
    <rc><c>Al</c><c>   1</c></rc>
    <rc><c>Al</c><c>   1</c></rc>
    <rc><c>Al</c><c>   1</c></rc>
    <rc><c>Al</c><c>   1</c></rc>
    <rc><c>Al</c><c>   1</c></rc>
    <rc><c>Al</c><c>   1</c></rc>
    <rc><c>Al</c><c>   1</c></rc>
    <rc><c>Al</c><c>   1</c></rc>
    <rc><c>Al</c><c>   1</c></rc>
    <rc><c>Al</c><c>   1</c></rc>
    <rc><c>Al</c><c>   1</c></rc>
    <rc><c>Al</c><c>   1</c></rc>
    <rc><c>Al</c><c>   1</c></rc>
    <rc><c>Al</c><c>   1</c></rc>
    <rc><c>Al</c><c>   1</c></rc>
    <rc><c>Al</c><c>   1</c></rc>
    <rc><c>Al</c><c>   1</c></rc>
    <rc><c>Al</c><c>   1</c></rc>
    <rc><c>Al</c><c>   1</c></rc>
    <rc><c>Al</c><c>   1</c></rc>
    <rc><c>Al</c><c>   1</c></rc>
    <rc><c>Al</c><c>   1</c></rc>
    <rc><c>Al</c><c>   1</c></rc>
   </set>
  </array>
  <array name="atomtypes" >
   <dimension dim="1">type</dimension>
   <field type="int">atomspertype</field>
   <field type="string">element</field>
   <field>mass</field>
   <field>valence</field>
   <field type="string">pseudopotential</field>
   <set>
    <rc><c>  27</c><c>Al</c><c>     26.98100000</c><c>      3.00000000</c><c>  PAW_PBE Al 04Jan2001                  </c></rc>
   </set>
  </array>
 </atominfo>
 <structure name="initialpos" >
  <crystal>
   <varray name="basis" >
    <v>       0.00000000       6.37875000       6.37875000 </v>
    <v>       6.37875000       0.00000000       6.37875000 </v>
    <v>       6.37875000       6.37875000       0.00000000 </v>
   </varray>
   <i name="volume">    519.08292081 </i>
   <varray name="rec_basis" >
    <v>      -0.07838526       0.07838526       0.07838526 </v>
    <v>       0.07838526      -0.07838526       0.07838526 </v>
    <v>       0.07838526       0.07838526      -0.07838526 </v>
   </varray>
  </crystal>
  <varray name="positions" >
   <v>       0.99523667       0.99039119       0.01089229 </v>
   <v>       0.99198467       0.01170577       0.33582919 </v>
   <v>       0.01313564       0.99885741       0.66063301 </v>
   <v>       0.01213589       0.33502364       0.99292681 </v>
   <v>       0.99262118       0.33642453       0.32618802 </v>
   <v>       0.01273216       0.33182291       0.66409036 </v>
   <v>       0.00685322       0.66935876       0.98668335 </v>
   <v>       0.99460526       0.65672227       0.34125917 </v>
   <v>       0.01276673       0.66313783       0.65832895 </v>
   <v>       0.32134791       0.00997084       0.00158723 </v>
   <v>       0.33027165       0.01318096       0.32588012 </v>
   <v>       0.33722283       0.98774882       0.66607303 </v>
   <v>       0.32521357       0.33586378       0.99391164 </v>
   <v>       0.32581443       0.34596653       0.33365373 </v>
   <v>       0.33566276       0.33180825       0.67716620 </v>
   <v>       0.33253089       0.67242236       0.98753011 </v>
   <v>       0.32137395       0.67654114       0.33313795 </v>
   <v>       0.33347440       0.66813384       0.65485563 </v>
   <v>       0.67958935       0.99741911       0.99177649 </v>
   <v>       0.67046868       0.99705879       0.32236032 </v>
   <v>       0.66712391       0.00681270       0.67232475 </v>
   <v>       0.67080446       0.33143668       0.00942789 </v>
   <v>       0.65538570       0.34232223       0.33029112 </v>
   <v>       0.66104158       0.34052827       0.67485751 </v>
   <v>       0.66647401       0.66490241       0.99000792 </v>
   <v>       0.65922981       0.66353263       0.33072040 </v>
   <v>       0.67081509       0.67712932       0.65687602 </v>
  </varray>
 </structure>
 <calculation>
  <scstep>
   <time name="dav">    9.16    9.17</time>
   <time name="total">    9.19    9.21</time>
   <energy>
    <i name="alphaZ">     -4.71711227 </i>
    <i name="ewald">  -1883.40183641 </i>
    <i name="hartreedc">     -6.44904704 </i>
    <i name="XCdc">   -715.61020308 </i>
    <i name="pawpsdc">   1787.40424240 </i>
    <i name="pawaedc">   -924.63176043 </i>
    <i name="eentropy">     -0.00089666 </i>
    <i name="bandstr">    339.19512843 </i>
    <i name="atom">   1445.51584806 </i>
    <i name="e_fr_energy">     37.30436299 </i>
    <i name="e_wo_entrp">     37.30525965 </i>
    <i name="e_0_energy">     37.30466188 </i>
   </energy>
  </scstep>
  <scstep>
   <time name="dav">   11.03   11.03</time>
   <time name="total">   11.03   11.05</time>
   <energy>
    <i name="e_fr_energy">    -93.76235018 </i>
    <i name="e_wo_entrp">    -93.75374083 </i>
    <i name="e_0_energy">    -93.75948040 </i>
   </energy>
  </scstep>
  <scstep>
   <time name="dav">   11.53   11.54</time>
   <time name="total">   11.53   11.56</time>
   <energy>
    <i name="e_fr_energy">    -99.16436287 </i>
    <i name="e_wo_entrp">    -99.15021462 </i>
    <i name="e_0_energy">    -99.15964679 </i>
   </energy>
  </scstep>
  <scstep>
   <time name="dav">   10.70   10.71</time>
   <time name="total">   10.70   10.72</time>
   <energy>
    <i name="e_fr_energy">    -99.21587457 </i>
    <i name="e_wo_entrp">    -99.20169242 </i>
    <i name="e_0_energy">    -99.21114719 </i>
   </energy>
  </scstep>
  <scstep>
   <time name="dav">   11.17   11.18</time>
   <time name="total">   11.63   11.65</time>
   <energy>
    <i name="e_fr_energy">    -99.21643954 </i>
    <i name="e_wo_entrp">    -99.20225765 </i>
    <i name="e_0_energy">    -99.21171224 </i>
   </energy>
  </scstep>
  <scstep>
   <time name="diag">    1.52    1.52</time>
   <time name="diis">    4.83    4.84</time>
   <time name="orth">    0.22    0.22</time>
   <time name="total">    7.05    7.07</time>
   <energy>
    <i name="e_fr_energy">    -98.82779503 </i>
    <i name="e_wo_entrp">    -98.81406023 </i>
    <i name="e_0_energy">    -98.82321676 </i>
   </energy>
  </scstep>
  <scstep>
   <time name="diag">    1.52    1.52</time>
   <time name="diis">    5.26    5.27</time>
   <time name="orth">    0.22    0.22</time>
   <time name="total">    7.48    7.50</time>
   <energy>
    <i name="e_fr_energy">    -98.60515012 </i>
    <i name="e_wo_entrp">    -98.59176915 </i>
    <i name="e_0_energy">    -98.60068980 </i>
   </energy>
  </scstep>
  <scstep>
   <time name="diag">    1.52    1.52</time>
   <time name="diis">    5.79    5.79</time>
   <time name="orth">    0.22    0.22</time>
   <time name="total">    8.01    8.02</time>
   <energy>
    <i name="e_fr_energy">    -98.59256264 </i>
    <i name="e_wo_entrp">    -98.57916118 </i>
    <i name="e_0_energy">    -98.58809549 </i>
   </energy>
  </scstep>
  <scstep>
   <time name="diag">    1.52    1.52</time>
   <time name="diis">    5.75    5.75</time>
   <time name="orth">    0.22    0.22</time>
   <time name="total">    7.96    7.99</time>
   <energy>
    <i name="e_fr_energy">    -98.59159561 </i>
    <i name="e_wo_entrp">    -98.57820133 </i>
    <i name="e_0_energy">    -98.58713085 </i>
   </energy>
  </scstep>
  <scstep>
   <time name="diag">    1.52    1.52</time>
   <time name="diis">    4.66    4.66</time>
   <time name="orth">    0.22    0.22</time>
   <time name="total">    6.43    6.44</time>
   <energy>
    <i name="alphaZ">     -4.71711227 </i>
    <i name="ewald">  -1883.40183641 </i>
    <i name="hartreedc">     -4.76573671 </i>
    <i name="XCdc">   -713.55760159 </i>
    <i name="pawpsdc">   3202.75155934 </i>
    <i name="pawaedc">  -2339.84376986 </i>
    <i name="eentropy">     -0.01336953 </i>
    <i name="bandstr">    199.44050945 </i>
    <i name="atom">   1445.51584806 </i>
    <i name="e_fr_energy">    -98.59150952 </i>
    <i name="e_wo_entrp">    -98.57813999 </i>
    <i name="e_0_energy">    -98.58705301 </i>
   </energy>
  </scstep>
  <structure>
   <crystal>
    <varray name="basis" >
     <v>       0.00000000       6.37875000       6.37875000 </v>
     <v>       6.37875000       0.00000000       6.37875000 </v>
     <v>       6.37875000       6.37875000       0.00000000 </v>
    </varray>
    <i name="volume">    519.08292081 </i>
    <varray name="rec_basis" >
     <v>      -0.07838526       0.07838526       0.07838526 </v>
     <v>       0.07838526      -0.07838526       0.07838526 </v>
     <v>       0.07838526       0.07838526      -0.07838526 </v>
    </varray>
   </crystal>
   <varray name="positions" >
    <v>       0.99523667       0.99039119       0.01089229 </v>
    <v>       0.99198467       0.01170577       0.33582919 </v>
    <v>       0.01313564       0.99885741       0.66063301 </v>
    <v>       0.01213589       0.33502364       0.99292681 </v>
    <v>       0.99262118       0.33642453       0.32618802 </v>
    <v>       0.01273216       0.33182291       0.66409036 </v>
    <v>       0.00685322       0.66935876       0.98668335 </v>
    <v>       0.99460526       0.65672227       0.34125917 </v>
    <v>       0.01276673       0.66313783       0.65832895 </v>
    <v>       0.32134791       0.00997084       0.00158723 </v>
    <v>       0.33027165       0.01318096       0.32588012 </v>
    <v>       0.33722283       0.98774882       0.66607303 </v>
    <v>       0.32521357       0.33586378       0.99391164 </v>
    <v>       0.32581443       0.34596653       0.33365373 </v>
    <v>       0.33566276       0.33180825       0.67716620 </v>
    <v>       0.33253089       0.67242236       0.98753011 </v>
    <v>       0.32137395       0.67654114       0.33313795 </v>
    <v>       0.33347440       0.66813384       0.65485563 </v>
    <v>       0.67958935       0.99741911       0.99177649 </v>
    <v>       0.67046868       0.99705879       0.32236032 </v>
    <v>       0.66712391       0.00681270       0.67232475 </v>
    <v>       0.67080446       0.33143668       0.00942789 </v>
    <v>       0.65538570       0.34232223       0.33029112 </v>
    <v>       0.66104158       0.34052827       0.67485751 </v>
    <v>       0.66647401       0.66490241       0.99000792 </v>
    <v>       0.65922981       0.66353263       0.33072040 </v>
    <v>       0.67081509       0.67712932       0.65687602 </v>
   </varray>
  </structure>
  <varray name="forces" >
   <v>      -0.04409217       0.01490061       0.22026777 </v>
   <v>      -0.07327835      -0.03580437      -0.12002571 </v>
   <v>       0.14981496      -0.16855735      -0.04001195 </v>
   <v>       0.10502071      -0.28364653      -0.28967717 </v>
   <v>       0.17120744       0.08143289       0.03819669 </v>
   <v>       0.01491958      -0.02555163      -0.25101309 </v>
   <v>       0.09169549       0.01441024      -0.14716395 </v>
   <v>      -0.02297295      -0.13089960       0.14297626 </v>
   <v>       0.19076123      -0.14710159      -0.10146089 </v>
   <v>      -0.24563321       0.20285541      -0.10132114 </v>
   <v>      -0.09883890       0.04499599       0.06512369 </v>
   <v>       0.14070014      -0.07445434       0.25618768 </v>
   <v>       0.19848195       0.38524263       0.23746845 </v>
   <v>      -0.20747217       0.04138720      -0.01477632 </v>
   <v>      -0.36585339      -0.18234727       0.04222377 </v>
   <v>       0.04817032       0.17386337      -0.10653443 </v>
   <v>      -0.15951159      -0.05688638       0.13630130 </v>
   <v>       0.05660426       0.13098552       0.09277669 </v>
   <v>       0.10186553      -0.08305614      -0.16081505 </v>
   <v>       0.21758672       0.08455346      -0.08937029 </v>
   <v>      -0.12897736      -0.09294211      -0.02569288 </v>
   <v>      -0.15770023      -0.24200406       0.03613494 </v>
   <v>       0.00989615       0.14440890      -0.05085987 </v>
   <v>      -0.07367168       0.09938479       0.10171796 </v>
   <v>       0.14385207       0.04962470       0.11867882 </v>
   <v>      -0.02173536      -0.00646815       0.12759188 </v>
   <v>      -0.04083918       0.06167382      -0.11692314 </v>
  </varray>
  <varray name="stress" >
   <v>     -79.27302826       0.26042677      -0.29441200 </v>
   <v>       0.26042706     -79.58716529       0.15875038 </v>
   <v>      -0.29441206       0.15875013     -79.91139975 </v>
  </varray>
  <energy>
   <i name="e_fr_energy">    -98.59150952 </i>
   <i name="e_wo_entrp">    -98.58705301 </i>
   <i name="e_0_energy">     -0.01336953 </i>
  </energy>
  <time name="totalsc">  101.50  101.75</time>
  <eigenvalues>
   <array>
    <dimension dim="1">band</dimension>
    <dimension dim="2">kpoint</dimension>
    <dimension dim="3">spin</dimension>
    <field>eigene</field>
    <field>occ</field>
    <set>
     <set comment="spin 1">
      <set comment="kpoint 1">
       <r>   -3.6026    1.0000 </r>
       <r>   -1.5966    1.0000 </r>
       <r>   -1.1927    1.0000 </r>
       <r>   -1.1534    1.0000 </r>
       <r>   -1.0571    1.0000 </r>
       <r>   -0.7423    1.0000 </r>
       <r>   -0.6899    1.0000 </r>
       <r>   -0.6029    1.0000 </r>
       <r>   -0.4947    1.0000 </r>
       <r>   -0.4400    1.0000 </r>
       <r>   -0.3427    1.0000 </r>
       <r>   -0.1927    1.0000 </r>
       <r>    0.3879    1.0000 </r>
       <r>    0.4573    1.0000 </r>
       <r>    0.5427    1.0000 </r>
       <r>    2.5722    1.0000 </r>
       <r>    2.6273    1.0000 </r>
       <r>    2.7243    1.0000 </r>
       <r>    3.4244    1.0000 </r>
       <r>    3.4654    1.0000 </r>
       <r>    3.4984    1.0000 </r>
       <r>    3.5330    1.0000 </r>
       <r>    3.5856    1.0000 </r>
       <r>    3.6000    1.0000 </r>
       <r>    4.3215    1.0000 </r>
       <r>    4.3900    1.0000 </r>
       <r>    4.4687    1.0000 </r>
       <r>    4.8351    1.0000 </r>
       <r>    4.8851    1.0000 </r>
       <r>    4.9814    1.0000 </r>
       <r>    5.2298    1.0000 </r>
       <r>    5.2888    1.0000 </r>
       <r>    5.3340    1.0000 </r>
       <r>    5.3522    1.0000 </r>
       <r>    5.4241    1.0000 </r>
       <r>    5.4471    1.0000 </r>
       <r>    5.6818    1.0000 </r>
       <r>    5.7701    1.0000 </r>
       <r>    5.7988    1.0000 </r>
       <r>    5.8320    1.0000 </r>
       <r>    6.4859    0.5958 </r>
       <r>    6.5065    0.5090 </r>
       <r>    6.5235    0.4373 </r>
       <r>    6.5713    0.2487 </r>
       <r>    6.5921    0.1786 </r>
       <r>    6.6392    0.0577 </r>
       <r>    6.9276   -0.0058 </r>
       <r>    6.9359   -0.0050 </r>
       <r>    6.9606   -0.0032 </r>
       <r>    7.0113   -0.0011 </r>
       <r>    7.0470   -0.0005 </r>
       <r>    7.0969   -0.0001 </r>
       <r>    7.3432   -0.0000 </r>
       <r>    7.3852   -0.0000 </r>
       <r>    7.4097   -0.0000 </r>
       <r>    7.4507   -0.0000 </r>
       <r>    7.4752   -0.0000 </r>
       <r>    7.5336   -0.0000 </r>
       <r>    8.2664   -0.0000 </r>
       <r>    9.6212   -0.0000 </r>
       <r>    9.6280   -0.0000 </r>
       <r>    9.6429   -0.0000 </r>
       <r>   11.0979   -0.0000 </r>
       <r>   11.1462   -0.0000 </r>
      </set>
      <set comment="kpoint 2">
       <r>   -3.6027    1.0000 </r>
       <r>   -1.5874    1.0000 </r>
       <r>   -1.2314    1.0000 </r>
       <r>   -1.1433    1.0000 </r>
       <r>   -1.0205    1.0000 </r>
       <r>   -0.7948    1.0000 </r>
       <r>   -0.6807    1.0000 </r>
       <r>   -0.5795    1.0000 </r>
       <r>   -0.5103    1.0000 </r>
       <r>   -0.4559    1.0000 </r>
       <r>   -0.2895    1.0000 </r>
       <r>   -0.1944    1.0000 </r>
       <r>    0.3571    1.0000 </r>
       <r>    0.4387    1.0000 </r>
       <r>    0.5747    1.0000 </r>
       <r>    2.5462    1.0000 </r>
       <r>    2.6300    1.0000 </r>
       <r>    2.7639    1.0000 </r>
       <r>    3.3787    1.0000 </r>
       <r>    3.4462    1.0000 </r>
       <r>    3.4837    1.0000 </r>
       <r>    3.5452    1.0000 </r>
       <r>    3.6123    1.0000 </r>
       <r>    3.6388    1.0000 </r>
       <r>    4.2915    1.0000 </r>
       <r>    4.3717    1.0000 </r>
       <r>    4.5031    1.0000 </r>
       <r>    4.8106    1.0000 </r>
       <r>    4.8823    1.0000 </r>
       <r>    5.0224    1.0000 </r>
       <r>    5.1913    1.0000 </r>
       <r>    5.2901    1.0000 </r>
       <r>    5.3098    1.0000 </r>
       <r>    5.3672    1.0000 </r>
       <r>    5.4474    1.0000 </r>
       <r>    5.4840    1.0000 </r>
       <r>    5.6806    1.0000 </r>
       <r>    5.7597    1.0000 </r>
       <r>    5.7965    1.0000 </r>
       <r>    5.8299    1.0000 </r>
       <r>    6.4578    0.7077 </r>
       <r>    6.4869    0.5916 </r>
       <r>    6.5035    0.5216 </r>
       <r>    6.5842    0.2041 </r>
       <r>    6.6147    0.1137 </r>
       <r>    6.6591    0.0232 </r>
       <r>    6.8813   -0.0121 </r>
       <r>    6.9215   -0.0065 </r>
       <r>    6.9742   -0.0024 </r>
       <r>    7.0378   -0.0006 </r>
       <r>    7.0557   -0.0004 </r>
       <r>    7.1250   -0.0001 </r>
       <r>    7.3145   -0.0000 </r>
       <r>    7.3981   -0.0000 </r>
       <r>    7.4162   -0.0000 </r>
       <r>    7.4295   -0.0000 </r>
       <r>    7.4745   -0.0000 </r>
       <r>    7.5548   -0.0000 </r>
       <r>    8.2604   -0.0000 </r>
       <r>    9.6184   -0.0000 </r>
       <r>    9.6276   -0.0000 </r>
       <r>    9.6469   -0.0000 </r>
       <r>   11.0614   -0.0000 </r>
       <r>   11.1519   -0.0000 </r>
      </set>
      <set comment="kpoint 3">
       <r>   -3.6025    1.0000 </r>
       <r>   -1.5938    1.0000 </r>
       <r>   -1.2471    1.0000 </r>
       <r>   -1.1147    1.0000 </r>
       <r>   -1.0367    1.0000 </r>
       <r>   -0.7729    1.0000 </r>
       <r>   -0.6637    1.0000 </r>
       <r>   -0.5770    1.0000 </r>
       <r>   -0.5229    1.0000 </r>
       <r>   -0.4312    1.0000 </r>
       <r>   -0.3430    1.0000 </r>
       <r>   -0.1984    1.0000 </r>
       <r>    0.3582    1.0000 </r>
       <r>    0.4764    1.0000 </r>
       <r>    0.5502    1.0000 </r>
       <r>    2.5337    1.0000 </r>
       <r>    2.6603    1.0000 </r>
       <r>    2.7324    1.0000 </r>
       <r>    3.3953    1.0000 </r>
       <r>    3.4361    1.0000 </r>
       <r>    3.5053    1.0000 </r>
       <r>    3.5594    1.0000 </r>
       <r>    3.5804    1.0000 </r>
       <r>    3.6459    1.0000 </r>
       <r>    4.2845    1.0000 </r>
       <r>    4.3976    1.0000 </r>
       <r>    4.4774    1.0000 </r>
       <r>    4.7893    1.0000 </r>
       <r>    4.9203    1.0000 </r>
       <r>    4.9912    1.0000 </r>
       <r>    5.2117    1.0000 </r>
       <r>    5.2687    1.0000 </r>
       <r>    5.3305    1.0000 </r>
       <r>    5.3825    1.0000 </r>
       <r>    5.4120    1.0000 </r>
       <r>    5.4867    1.0000 </r>
       <r>    5.6809    1.0000 </r>
       <r>    5.7686    1.0000 </r>
       <r>    5.8008    1.0000 </r>
       <r>    5.8319    1.0000 </r>
       <r>    6.5038    0.5204 </r>
       <r>    6.5161    0.4684 </r>
       <r>    6.5377    0.3787 </r>
       <r>    6.5681    0.2605 </r>
       <r>    6.5830    0.2081 </r>
       <r>    6.6092    0.1285 </r>
       <r>    6.8959   -0.0098 </r>
       <r>    6.9125   -0.0075 </r>
       <r>    6.9730   -0.0025 </r>
       <r>    7.0198   -0.0009 </r>
       <r>    7.0482   -0.0005 </r>
       <r>    7.1065   -0.0001 </r>
       <r>    7.3317   -0.0000 </r>
       <r>    7.3906   -0.0000 </r>
       <r>    7.4238   -0.0000 </r>
       <r>    7.4394   -0.0000 </r>
       <r>    7.4797   -0.0000 </r>
       <r>    7.5457   -0.0000 </r>
       <r>    8.2648   -0.0000 </r>
       <r>    9.6182   -0.0000 </r>
       <r>    9.6335   -0.0000 </r>
       <r>    9.6401   -0.0000 </r>
       <r>   11.0541   -0.0000 </r>
       <r>   11.1886   -0.0000 </r>
      </set>
      <set comment="kpoint 4">
       <r>   -3.6025    1.0000 </r>
       <r>   -1.5983    1.0000 </r>
       <r>   -1.2170    1.0000 </r>
       <r>   -1.1271    1.0000 </r>
       <r>   -1.0643    1.0000 </r>
       <r>   -0.7365    1.0000 </r>
       <r>   -0.6543    1.0000 </r>
       <r>   -0.6131    1.0000 </r>
       <r>   -0.5081    1.0000 </r>
       <r>   -0.4242    1.0000 </r>
       <r>   -0.3696    1.0000 </r>
       <r>   -0.2001    1.0000 </r>
       <r>    0.3884    1.0000 </r>
       <r>    0.4879    1.0000 </r>
       <r>    0.5196    1.0000 </r>
       <r>    2.5590    1.0000 </r>
       <r>    2.6512    1.0000 </r>
       <r>    2.7033    1.0000 </r>
       <r>    3.4260    1.0000 </r>
       <r>    3.4767    1.0000 </r>
       <r>    3.4930    1.0000 </r>
       <r>    3.5581    1.0000 </r>
       <r>    3.5785    1.0000 </r>
       <r>    3.5911    1.0000 </r>
       <r>    4.3219    1.0000 </r>
       <r>    4.3979    1.0000 </r>
       <r>    4.4528    1.0000 </r>
       <r>    4.8004    1.0000 </r>
       <r>    4.9264    1.0000 </r>
       <r>    4.9701    1.0000 </r>
       <r>    5.2449    1.0000 </r>
       <r>    5.3053    1.0000 </r>
       <r>    5.3224    1.0000 </r>
       <r>    5.3857    1.0000 </r>
       <r>    5.4023    1.0000 </r>
       <r>    5.4276    1.0000 </r>
       <r>    5.6619    1.0000 </r>
       <r>    5.7769    1.0000 </r>
       <r>    5.7980    1.0000 </r>
       <r>    5.8338    1.0000 </r>
       <r>    6.5001    0.5361 </r>
       <r>    6.5288    0.4154 </r>
       <r>    6.5474    0.3395 </r>
       <r>    6.5593    0.2931 </r>
       <r>    6.5914    0.1810 </r>
       <r>    6.5956    0.1679 </r>
       <r>    6.9062   -0.0083 </r>
       <r>    6.9339   -0.0052 </r>
       <r>    6.9831   -0.0020 </r>
       <r>    7.0325   -0.0007 </r>
       <r>    7.0441   -0.0005 </r>
       <r>    7.0644   -0.0003 </r>
       <r>    7.3464   -0.0000 </r>
       <r>    7.3945   -0.0000 </r>
       <r>    7.4325   -0.0000 </r>
       <r>    7.4462   -0.0000 </r>
       <r>    7.4841   -0.0000 </r>
       <r>    7.5126   -0.0000 </r>
       <r>    8.2656   -0.0000 </r>
       <r>    9.6203   -0.0000 </r>
       <r>    9.6311   -0.0000 </r>
       <r>    9.6385   -0.0000 </r>
       <r>   11.0910   -0.0000 </r>
       <r>   11.1630   -0.0000 </r>
      </set>
      <set comment="kpoint 5">
       <r>   -3.3786    1.0000 </r>
       <r>   -2.2457    1.0000 </r>
       <r>   -1.7957    1.0000 </r>
       <r>   -1.1956    1.0000 </r>
       <r>   -1.1003    1.0000 </r>
       <r>   -0.9466    1.0000 </r>
       <r>   -0.8072    1.0000 </r>
       <r>   -0.5013    1.0000 </r>
       <r>   -0.3780    1.0000 </r>
       <r>   -0.2145    1.0000 </r>
       <r>    0.4585    1.0000 </r>
       <r>    0.6475    1.0000 </r>
       <r>    0.9024    1.0000 </r>
       <r>    1.1196    1.0000 </r>
       <r>    1.4817    1.0000 </r>
       <r>    1.6118    1.0000 </r>
       <r>    1.9475    1.0000 </r>
       <r>    2.0621    1.0000 </r>
       <r>    2.7999    1.0000 </r>
       <r>    2.9221    1.0000 </r>
       <r>    3.4357    1.0000 </r>
       <r>    3.5359    1.0000 </r>
       <r>    3.7137    1.0000 </r>
       <r>    3.7394    1.0000 </r>
       <r>    3.8756    1.0000 </r>
       <r>    4.0054    1.0000 </r>
       <r>    4.1656    1.0000 </r>
       <r>    4.3033    1.0000 </r>
       <r>    4.5489    1.0000 </r>
       <r>    4.6463    1.0000 </r>
       <r>    4.7892    1.0000 </r>
       <r>    4.8183    1.0000 </r>
       <r>    5.0416    1.0000 </r>
       <r>    5.2336    1.0000 </r>
       <r>    5.2457    1.0000 </r>
       <r>    5.4072    1.0000 </r>
       <r>    5.4995    1.0000 </r>
       <r>    5.5309    1.0000 </r>
       <r>    5.6499    1.0000 </r>
       <r>    5.9139    1.0001 </r>
       <r>    6.3279    1.0120 </r>
       <r>    6.7155   -0.0283 </r>
       <r>    6.7599   -0.0353 </r>
       <r>    6.8632   -0.0155 </r>
       <r>    7.1519   -0.0000 </r>
       <r>    7.2556   -0.0000 </r>
       <r>    7.5101   -0.0000 </r>
       <r>    7.5339   -0.0000 </r>
       <r>    7.6018   -0.0000 </r>
       <r>    7.6196   -0.0000 </r>
       <r>    7.9474   -0.0000 </r>
       <r>    7.9778   -0.0000 </r>
       <r>    8.1596   -0.0000 </r>
       <r>    8.1785   -0.0000 </r>
       <r>    8.4787   -0.0000 </r>
       <r>    8.7498   -0.0000 </r>
       <r>    8.8597   -0.0000 </r>
       <r>    9.0308   -0.0000 </r>
       <r>    9.1629   -0.0000 </r>
       <r>    9.2711   -0.0000 </r>
       <r>    9.3269   -0.0000 </r>
       <r>    9.4747   -0.0000 </r>
       <r>    9.7153   -0.0000 </r>
       <r>    9.8155   -0.0000 </r>
      </set>
      <set comment="kpoint 6">
       <r>   -3.3768    1.0000 </r>
       <r>   -2.2567    1.0000 </r>
       <r>   -1.7972    1.0000 </r>
       <r>   -1.1588    1.0000 </r>
       <r>   -1.1033    1.0000 </r>
       <r>   -0.9378    1.0000 </r>
       <r>   -0.8378    1.0000 </r>
       <r>   -0.4900    1.0000 </r>
       <r>   -0.3962    1.0000 </r>
       <r>   -0.2004    1.0000 </r>
       <r>    0.4310    1.0000 </r>
       <r>    0.6715    1.0000 </r>
       <r>    0.8974    1.0000 </r>
       <r>    1.1108    1.0000 </r>
       <r>    1.5171    1.0000 </r>
       <r>    1.6003    1.0000 </r>
       <r>    1.9518    1.0000 </r>
       <r>    2.0246    1.0000 </r>
       <r>    2.8284    1.0000 </r>
       <r>    2.9039    1.0000 </r>
       <r>    3.4417    1.0000 </r>
       <r>    3.5250    1.0000 </r>
       <r>    3.7256    1.0000 </r>
       <r>    3.7391    1.0000 </r>
       <r>    3.8927    1.0000 </r>
       <r>    3.9836    1.0000 </r>
       <r>    4.1701    1.0000 </r>
       <r>    4.2971    1.0000 </r>
       <r>    4.5723    1.0000 </r>
       <r>    4.6481    1.0000 </r>
       <r>    4.7932    1.0000 </r>
       <r>    4.8046    1.0000 </r>
       <r>    5.0418    1.0000 </r>
       <r>    5.2266    1.0000 </r>
       <r>    5.2578    1.0000 </r>
       <r>    5.4329    1.0000 </r>
       <r>    5.4977    1.0000 </r>
       <r>    5.5271    1.0000 </r>
       <r>    5.6205    1.0000 </r>
       <r>    5.9108    1.0001 </r>
       <r>    6.3195    1.0185 </r>
       <r>    6.7380   -0.0344 </r>
       <r>    6.7531   -0.0355 </r>
       <r>    6.8639   -0.0154 </r>
       <r>    7.1631   -0.0000 </r>
       <r>    7.2337   -0.0000 </r>
       <r>    7.4932   -0.0000 </r>
       <r>    7.4974   -0.0000 </r>
       <r>    7.6304   -0.0000 </r>
       <r>    7.6609   -0.0000 </r>
       <r>    7.9405   -0.0000 </r>
       <r>    7.9828   -0.0000 </r>
       <r>    8.1517   -0.0000 </r>
       <r>    8.1693   -0.0000 </r>
       <r>    8.5010   -0.0000 </r>
       <r>    8.7528   -0.0000 </r>
       <r>    8.8327   -0.0000 </r>
       <r>    9.0229   -0.0000 </r>
       <r>    9.1722   -0.0000 </r>
       <r>    9.2768   -0.0000 </r>
       <r>    9.3182   -0.0000 </r>
       <r>    9.4831   -0.0000 </r>
       <r>    9.7427   -0.0000 </r>
       <r>    9.8234   -0.0000 </r>
      </set>
      <set comment="kpoint 7">
       <r>   -3.3769    1.0000 </r>
       <r>   -2.2521    1.0000 </r>
       <r>   -1.8089    1.0000 </r>
       <r>   -1.1626    1.0000 </r>
       <r>   -1.0939    1.0000 </r>
       <r>   -0.9084    1.0000 </r>
       <r>   -0.8580    1.0000 </r>
       <r>   -0.4830    1.0000 </r>
       <r>   -0.4200    1.0000 </r>
       <r>   -0.1950    1.0000 </r>
       <r>    0.4539    1.0000 </r>
       <r>    0.6517    1.0000 </r>
       <r>    0.8957    1.0000 </r>
       <r>    1.1059    1.0000 </r>
       <r>    1.5295    1.0000 </r>
       <r>    1.5862    1.0000 </r>
       <r>    1.9720    1.0000 </r>
       <r>    2.0218    1.0000 </r>
       <r>    2.8359    1.0000 </r>
       <r>    2.8874    1.0000 </r>
       <r>    3.4469    1.0000 </r>
       <r>    3.5162    1.0000 </r>
       <r>    3.7281    1.0000 </r>
       <r>    3.7334    1.0000 </r>
       <r>    3.9092    1.0000 </r>
       <r>    3.9520    1.0000 </r>
       <r>    4.1818    1.0000 </r>
       <r>    4.3013    1.0000 </r>
       <r>    4.5739    1.0000 </r>
       <r>    4.6350    1.0000 </r>
       <r>    4.8000    1.0000 </r>
       <r>    4.8191    1.0000 </r>
       <r>    5.0527    1.0000 </r>
       <r>    5.2282    1.0000 </r>
       <r>    5.2418    1.0000 </r>
       <r>    5.4247    1.0000 </r>
       <r>    5.4917    1.0000 </r>
       <r>    5.5492    1.0000 </r>
       <r>    5.6012    1.0000 </r>
       <r>    5.9202    1.0001 </r>
       <r>    6.3302    1.0100 </r>
       <r>    6.7405   -0.0347 </r>
       <r>    6.7596   -0.0353 </r>
       <r>    6.8581   -0.0165 </r>
       <r>    7.1756   -0.0000 </r>
       <r>    7.2194   -0.0000 </r>
       <r>    7.5063   -0.0000 </r>
       <r>    7.5347   -0.0000 </r>
       <r>    7.6128   -0.0000 </r>
       <r>    7.6260   -0.0000 </r>
       <r>    7.9434   -0.0000 </r>
       <r>    7.9705   -0.0000 </r>
       <r>    8.1504   -0.0000 </r>
       <r>    8.1657   -0.0000 </r>
       <r>    8.4857   -0.0000 </r>
       <r>    8.7725   -0.0000 </r>
       <r>    8.8240   -0.0000 </r>
       <r>    9.0282   -0.0000 </r>
       <r>    9.1912   -0.0000 </r>
       <r>    9.2456   -0.0000 </r>
       <r>    9.3394   -0.0000 </r>
       <r>    9.4658   -0.0000 </r>
       <r>    9.7257   -0.0000 </r>
       <r>    9.8034   -0.0000 </r>
      </set>
      <set comment="kpoint 8">
       <r>   -3.3770    1.0000 </r>
       <r>   -2.2548    1.0000 </r>
       <r>   -1.7901    1.0000 </r>
       <r>   -1.2312    1.0000 </r>
       <r>   -1.0477    1.0000 </r>
       <r>   -0.9547    1.0000 </r>
       <r>   -0.7990    1.0000 </r>
       <r>   -0.5309    1.0000 </r>
       <r>   -0.3587    1.0000 </r>
       <r>   -0.2076    1.0000 </r>
       <r>    0.4443    1.0000 </r>
       <r>    0.6496    1.0000 </r>
       <r>    0.9111    1.0000 </r>
       <r>    1.1161    1.0000 </r>
       <r>    1.4673    1.0000 </r>
       <r>    1.6358    1.0000 </r>
       <r>    1.9093    1.0000 </r>
       <r>    2.0727    1.0000 </r>
       <r>    2.7819    1.0000 </r>
       <r>    2.9528    1.0000 </r>
       <r>    3.4068    1.0000 </r>
       <r>    3.5708    1.0000 </r>
       <r>    3.7131    1.0000 </r>
       <r>    3.7401    1.0000 </r>
       <r>    3.8579    1.0000 </r>
       <r>    4.0197    1.0000 </r>
       <r>    4.1562    1.0000 </r>
       <r>    4.3151    1.0000 </r>
       <r>    4.5223    1.0000 </r>
       <r>    4.6808    1.0000 </r>
       <r>    4.7892    1.0000 </r>
       <r>    4.8179    1.0000 </r>
       <r>    5.0432    1.0000 </r>
       <r>    5.2297    1.0000 </r>
       <r>    5.2540    1.0000 </r>
       <r>    5.3752    1.0000 </r>
       <r>    5.4902    1.0000 </r>
       <r>    5.5485    1.0000 </r>
       <r>    5.6673    1.0000 </r>
       <r>    5.9119    1.0001 </r>
       <r>    6.3150    1.0215 </r>
       <r>    6.7464   -0.0353 </r>
       <r>    6.7606   -0.0353 </r>
       <r>    6.8523   -0.0178 </r>
       <r>    7.1354   -0.0000 </r>
       <r>    7.2675   -0.0000 </r>
       <r>    7.5107   -0.0000 </r>
       <r>    7.5326   -0.0000 </r>
       <r>    7.5974   -0.0000 </r>
       <r>    7.6152   -0.0000 </r>
       <r>    7.9607   -0.0000 </r>
       <r>    7.9806   -0.0000 </r>
       <r>    8.1540   -0.0000 </r>
       <r>    8.1751   -0.0000 </r>
       <r>    8.4882   -0.0000 </r>
       <r>    8.7054   -0.0000 </r>
       <r>    8.8703   -0.0000 </r>
       <r>    9.0333   -0.0000 </r>
       <r>    9.1398   -0.0000 </r>
       <r>    9.2987   -0.0000 </r>
       <r>    9.3408   -0.0000 </r>
       <r>    9.4694   -0.0000 </r>
       <r>    9.6778   -0.0000 </r>
       <r>    9.8589   -0.0000 </r>
      </set>
      <set comment="kpoint 9">
       <r>   -3.3781    1.0000 </r>
       <r>   -2.2520    1.0000 </r>
       <r>   -1.7867    1.0000 </r>
       <r>   -1.2009    1.0000 </r>
       <r>   -1.1034    1.0000 </r>
       <r>   -0.9323    1.0000 </r>
       <r>   -0.8137    1.0000 </r>
       <r>   -0.5040    1.0000 </r>
       <r>   -0.3722    1.0000 </r>
       <r>   -0.2203    1.0000 </r>
       <r>    0.4490    1.0000 </r>
       <r>    0.6486    1.0000 </r>
       <r>    0.9165    1.0000 </r>
       <r>    1.1195    1.0000 </r>
       <r>    1.4830    1.0000 </r>
       <r>    1.6135    1.0000 </r>
       <r>    1.9374    1.0000 </r>
       <r>    2.0525    1.0000 </r>
       <r>    2.8102    1.0000 </r>
       <r>    2.9258    1.0000 </r>
       <r>    3.4355    1.0000 </r>
       <r>    3.5391    1.0000 </r>
       <r>    3.7172    1.0000 </r>
       <r>    3.7387    1.0000 </r>
       <r>    3.8806    1.0000 </r>
       <r>    4.0044    1.0000 </r>
       <r>    4.1462    1.0000 </r>
       <r>    4.3139    1.0000 </r>
       <r>    4.5435    1.0000 </r>
       <r>    4.6435    1.0000 </r>
       <r>    4.7877    1.0000 </r>
       <r>    4.8225    1.0000 </r>
       <r>    5.0401    1.0000 </r>
       <r>    5.2347    1.0000 </r>
       <r>    5.2467    1.0000 </r>
       <r>    5.4038    1.0000 </r>
       <r>    5.5066    1.0000 </r>
       <r>    5.5299    1.0000 </r>
       <r>    5.6412    1.0000 </r>
       <r>    5.9185    1.0001 </r>
       <r>    6.3232    1.0158 </r>
       <r>    6.7345   -0.0339 </r>
       <r>    6.7647   -0.0350 </r>
       <r>    6.8484   -0.0186 </r>
       <r>    7.1584   -0.0000 </r>
       <r>    7.2606   -0.0000 </r>
       <r>    7.5004   -0.0000 </r>
       <r>    7.5254   -0.0000 </r>
       <r>    7.5884   -0.0000 </r>
       <r>    7.6346   -0.0000 </r>
       <r>    7.9527   -0.0000 </r>
       <r>    7.9793   -0.0000 </r>
       <r>    8.1553   -0.0000 </r>
       <r>    8.1800   -0.0000 </r>
       <r>    8.4881   -0.0000 </r>
       <r>    8.7458   -0.0000 </r>
       <r>    8.8580   -0.0000 </r>
       <r>    9.0427   -0.0000 </r>
       <r>    9.1620   -0.0000 </r>
       <r>    9.2700   -0.0000 </r>
       <r>    9.3219   -0.0000 </r>
       <r>    9.4748   -0.0000 </r>
       <r>    9.6961   -0.0000 </r>
       <r>    9.8597   -0.0000 </r>
      </set>
      <set comment="kpoint 10">
       <r>   -3.3773    1.0000 </r>
       <r>   -2.2530    1.0000 </r>
       <r>   -1.7985    1.0000 </r>
       <r>   -1.1776    1.0000 </r>
       <r>   -1.1111    1.0000 </r>
       <r>   -0.9154    1.0000 </r>
       <r>   -0.8255    1.0000 </r>
       <r>   -0.4811    1.0000 </r>
       <r>   -0.4080    1.0000 </r>
       <r>   -0.2136    1.0000 </r>
       <r>    0.4414    1.0000 </r>
       <r>    0.6566    1.0000 </r>
       <r>    0.9121    1.0000 </r>
       <r>    1.1121    1.0000 </r>
       <r>    1.5111    1.0000 </r>
       <r>    1.5932    1.0000 </r>
       <r>    1.9558    1.0000 </r>
       <r>    2.0267    1.0000 </r>
       <r>    2.8297    1.0000 </r>
       <r>    2.9050    1.0000 </r>
       <r>    3.4474    1.0000 </r>
       <r>    3.5420    1.0000 </r>
       <r>    3.7215    1.0000 </r>
       <r>    3.7346    1.0000 </r>
       <r>    3.8975    1.0000 </r>
       <r>    3.9608    1.0000 </r>
       <r>    4.1593    1.0000 </r>
       <r>    4.3224    1.0000 </r>
       <r>    4.5668    1.0000 </r>
       <r>    4.6305    1.0000 </r>
       <r>    4.7922    1.0000 </r>
       <r>    4.8157    1.0000 </r>
       <r>    5.0391    1.0000 </r>
       <r>    5.2227    1.0000 </r>
       <r>    5.2603    1.0000 </r>
       <r>    5.4263    1.0000 </r>
       <r>    5.4923    1.0000 </r>
       <r>    5.5370    1.0000 </r>
       <r>    5.6176    1.0000 </r>
       <r>    5.9143    1.0001 </r>
       <r>    6.3177    1.0198 </r>
       <r>    6.7373   -0.0343 </r>
       <r>    6.7605   -0.0353 </r>
       <r>    6.8667   -0.0148 </r>
       <r>    7.1779   -0.0000 </r>
       <r>    7.2389   -0.0000 </r>
       <r>    7.4864   -0.0000 </r>
       <r>    7.5078   -0.0000 </r>
       <r>    7.6171   -0.0000 </r>
       <r>    7.6439   -0.0000 </r>
       <r>    7.9388   -0.0000 </r>
       <r>    7.9775   -0.0000 </r>
       <r>    8.1539   -0.0000 </r>
       <r>    8.1731   -0.0000 </r>
       <r>    8.4943   -0.0000 </r>
       <r>    8.7664   -0.0000 </r>
       <r>    8.8380   -0.0000 </r>
       <r>    9.0389   -0.0000 </r>
       <r>    9.2023   -0.0000 </r>
       <r>    9.2437   -0.0000 </r>
       <r>    9.3213   -0.0000 </r>
       <r>    9.4660   -0.0000 </r>
       <r>    9.7396   -0.0000 </r>
       <r>    9.8525   -0.0000 </r>
      </set>
      <set comment="kpoint 11">
       <r>   -3.3763    1.0000 </r>
       <r>   -2.2587    1.0000 </r>
       <r>   -1.7978    1.0000 </r>
       <r>   -1.1670    1.0000 </r>
       <r>   -1.0865    1.0000 </r>
       <r>   -0.9517    1.0000 </r>
       <r>   -0.8339    1.0000 </r>
       <r>   -0.4717    1.0000 </r>
       <r>   -0.3968    1.0000 </r>
       <r>   -0.2124    1.0000 </r>
       <r>    0.4354    1.0000 </r>
       <r>    0.6706    1.0000 </r>
       <r>    0.8856    1.0000 </r>
       <r>    1.1101    1.0000 </r>
       <r>    1.5240    1.0000 </r>
       <r>    1.5935    1.0000 </r>
       <r>    1.9458    1.0000 </r>
       <r>    2.0382    1.0000 </r>
       <r>    2.8247    1.0000 </r>
       <r>    2.9082    1.0000 </r>
       <r>    3.4193    1.0000 </r>
       <r>    3.5417    1.0000 </r>
       <r>    3.7246    1.0000 </r>
       <r>    3.7364    1.0000 </r>
       <r>    3.9055    1.0000 </r>
       <r>    3.9865    1.0000 </r>
       <r>    4.1877    1.0000 </r>
       <r>    4.2782    1.0000 </r>
       <r>    4.5554    1.0000 </r>
       <r>    4.6380    1.0000 </r>
       <r>    4.8087    1.0000 </r>
       <r>    4.8125    1.0000 </r>
       <r>    5.0376    1.0000 </r>
       <r>    5.2380    1.0000 </r>
       <r>    5.2471    1.0000 </r>
       <r>    5.4191    1.0000 </r>
       <r>    5.5080    1.0000 </r>
       <r>    5.5295    1.0000 </r>
       <r>    5.6179    1.0000 </r>
       <r>    5.9202    1.0001 </r>
       <r>    6.3174    1.0200 </r>
       <r>    6.7148   -0.0280 </r>
       <r>    6.7652   -0.0350 </r>
       <r>    6.8708   -0.0140 </r>
       <r>    7.1598   -0.0000 </r>
       <r>    7.2398   -0.0000 </r>
       <r>    7.5137   -0.0000 </r>
       <r>    7.5272   -0.0000 </r>
       <r>    7.6123   -0.0000 </r>
       <r>    7.6414   -0.0000 </r>
       <r>    7.9494   -0.0000 </r>
       <r>    7.9672   -0.0000 </r>
       <r>    8.1498   -0.0000 </r>
       <r>    8.1634   -0.0000 </r>
       <r>    8.5021   -0.0000 </r>
       <r>    8.7331   -0.0000 </r>
       <r>    8.8503   -0.0000 </r>
       <r>    9.0114   -0.0000 </r>
       <r>    9.2048   -0.0000 </r>
       <r>    9.2701   -0.0000 </r>
       <r>    9.3124   -0.0000 </r>
       <r>    9.4542   -0.0000 </r>
       <r>    9.7114   -0.0000 </r>
       <r>    9.8237   -0.0000 </r>
      </set>
      <set comment="kpoint 12">
       <r>   -3.3782    1.0000 </r>
       <r>   -2.2468    1.0000 </r>
       <r>   -1.7967    1.0000 </r>
       <r>   -1.2206    1.0000 </r>
       <r>   -1.0386    1.0000 </r>
       <r>   -0.9762    1.0000 </r>
       <r>   -0.8150    1.0000 </r>
       <r>   -0.5213    1.0000 </r>
       <r>   -0.3539    1.0000 </r>
       <r>   -0.2066    1.0000 </r>
       <r>    0.4395    1.0000 </r>
       <r>    0.6682    1.0000 </r>
       <r>    0.8943    1.0000 </r>
       <r>    1.1203    1.0000 </r>
       <r>    1.4629    1.0000 </r>
       <r>    1.6306    1.0000 </r>
       <r>    1.9177    1.0000 </r>
       <r>    2.0901    1.0000 </r>
       <r>    2.7771    1.0000 </r>
       <r>    2.9436    1.0000 </r>
       <r>    3.4028    1.0000 </r>
       <r>    3.5623    1.0000 </r>
       <r>    3.7202    1.0000 </r>
       <r>    3.7418    1.0000 </r>
       <r>    3.8562    1.0000 </r>
       <r>    4.0245    1.0000 </r>
       <r>    4.1869    1.0000 </r>
       <r>    4.2815    1.0000 </r>
       <r>    4.5202    1.0000 </r>
       <r>    4.6746    1.0000 </r>
       <r>    4.7863    1.0000 </r>
       <r>    4.8293    1.0000 </r>
       <r>    5.0413    1.0000 </r>
       <r>    5.2225    1.0000 </r>
       <r>    5.2536    1.0000 </r>
       <r>    5.3925    1.0000 </r>
       <r>    5.4831    1.0000 </r>
       <r>    5.5520    1.0000 </r>
       <r>    5.6628    1.0000 </r>
       <r>    5.9137    1.0001 </r>
       <r>    6.3165    1.0205 </r>
       <r>    6.7370   -0.0343 </r>
       <r>    6.7568   -0.0354 </r>
       <r>    6.8517   -0.0179 </r>
       <r>    7.1383   -0.0000 </r>
       <r>    7.2689   -0.0000 </r>
       <r>    7.4967   -0.0000 </r>
       <r>    7.5130   -0.0000 </r>
       <r>    7.6208   -0.0000 </r>
       <r>    7.6465   -0.0000 </r>
       <r>    7.9398   -0.0000 </r>
       <r>    7.9721   -0.0000 </r>
       <r>    8.1610   -0.0000 </r>
       <r>    8.1799   -0.0000 </r>
       <r>    8.4873   -0.0000 </r>
       <r>    8.7155   -0.0000 </r>
       <r>    8.8767   -0.0000 </r>
       <r>    9.0425   -0.0000 </r>
       <r>    9.1255   -0.0000 </r>
       <r>    9.2881   -0.0000 </r>
       <r>    9.3173   -0.0000 </r>
       <r>    9.4871   -0.0000 </r>
       <r>    9.6887   -0.0000 </r>
       <r>    9.8286   -0.0000 </r>
      </set>
      <set comment="kpoint 13">
       <r>   -3.3775    1.0000 </r>
       <r>   -2.2505    1.0000 </r>
       <r>   -1.8067    1.0000 </r>
       <r>   -1.1507    1.0000 </r>
       <r>   -1.0939    1.0000 </r>
       <r>   -0.9289    1.0000 </r>
       <r>   -0.8661    1.0000 </r>
       <r>   -0.4687    1.0000 </r>
       <r>   -0.4165    1.0000 </r>
       <r>   -0.2045    1.0000 </r>
       <r>    0.4467    1.0000 </r>
       <r>    0.6707    1.0000 </r>
       <r>    0.8878    1.0000 </r>
       <r>    1.1120    1.0000 </r>
       <r>    1.5214    1.0000 </r>
       <r>    1.5853    1.0000 </r>
       <r>    1.9775    1.0000 </r>
       <r>    2.0246    1.0000 </r>
       <r>    2.8348    1.0000 </r>
       <r>    2.8886    1.0000 </r>
       <r>    3.4541    1.0000 </r>
       <r>    3.5082    1.0000 </r>
       <r>    3.7252    1.0000 </r>
       <r>    3.7359    1.0000 </r>
       <r>    3.9033    1.0000 </r>
       <r>    3.9597    1.0000 </r>
       <r>    4.1991    1.0000 </r>
       <r>    4.2823    1.0000 </r>
       <r>    4.5671    1.0000 </r>
       <r>    4.6281    1.0000 </r>
       <r>    4.8095    1.0000 </r>
       <r>    4.8168    1.0000 </r>
       <r>    5.0547    1.0000 </r>
       <r>    5.2183    1.0000 </r>
       <r>    5.2330    1.0000 </r>
       <r>    5.4493    1.0000 </r>
       <r>    5.4892    1.0000 </r>
       <r>    5.5422    1.0000 </r>
       <r>    5.6034    1.0000 </r>
       <r>    5.9219    1.0001 </r>
       <r>    6.3225    1.0163 </r>
       <r>    6.7461   -0.0352 </r>
       <r>    6.7634   -0.0351 </r>
       <r>    6.8434   -0.0197 </r>
       <r>    7.1810   -0.0000 </r>
       <r>    7.2282   -0.0000 </r>
       <r>    7.4946   -0.0000 </r>
       <r>    7.5316   -0.0000 </r>
       <r>    7.6168   -0.0000 </r>
       <r>    7.6475   -0.0000 </r>
       <r>    7.9326   -0.0000 </r>
       <r>    7.9589   -0.0000 </r>
       <r>    8.1525   -0.0000 </r>
       <r>    8.1707   -0.0000 </r>
       <r>    8.4970   -0.0000 </r>
       <r>    8.7741   -0.0000 </r>
       <r>    8.8204   -0.0000 </r>
       <r>    9.0400   -0.0000 </r>
       <r>    9.1893   -0.0000 </r>
       <r>    9.2455   -0.0000 </r>
       <r>    9.3289   -0.0000 </r>
       <r>    9.4587   -0.0000 </r>
       <r>    9.7503   -0.0000 </r>
       <r>    9.7863   -0.0000 </r>
      </set>
      <set comment="kpoint 14">
       <r>   -3.3774    1.0000 </r>
       <r>   -2.2535    1.0000 </r>
       <r>   -1.7987    1.0000 </r>
       <r>   -1.1577    1.0000 </r>
       <r>   -1.0936    1.0000 </r>
       <r>   -0.9366    1.0000 </r>
       <r>   -0.8614    1.0000 </r>
       <r>   -0.4884    1.0000 </r>
       <r>   -0.3891    1.0000 </r>
       <r>   -0.2042    1.0000 </r>
       <r>    0.4451    1.0000 </r>
       <r>    0.6657    1.0000 </r>
       <r>    0.8932    1.0000 </r>
       <r>    1.1114    1.0000 </r>
       <r>    1.5120    1.0000 </r>
       <r>    1.6003    1.0000 </r>
       <r>    1.9602    1.0000 </r>
       <r>    2.0343    1.0000 </r>
       <r>    2.8209    1.0000 </r>
       <r>    2.8928    1.0000 </r>
       <r>    3.4515    1.0000 </r>
       <r>    3.5266    1.0000 </r>
       <r>    3.7243    1.0000 </r>
       <r>    3.7313    1.0000 </r>
       <r>    3.8926    1.0000 </r>
       <r>    3.9872    1.0000 </r>
       <r>    4.1873    1.0000 </r>
       <r>    4.2813    1.0000 </r>
       <r>    4.5667    1.0000 </r>
       <r>    4.6358    1.0000 </r>
       <r>    4.7902    1.0000 </r>
       <r>    4.8118    1.0000 </r>
       <r>    5.0536    1.0000 </r>
       <r>    5.2273    1.0000 </r>
       <r>    5.2560    1.0000 </r>
       <r>    5.4317    1.0000 </r>
       <r>    5.5070    1.0000 </r>
       <r>    5.5289    1.0000 </r>
       <r>    5.6122    1.0000 </r>
       <r>    5.9149    1.0001 </r>
       <r>    6.3139    1.0222 </r>
       <r>    6.7345   -0.0339 </r>
       <r>    6.7534   -0.0355 </r>
       <r>    6.8587   -0.0164 </r>
       <r>    7.1670   -0.0000 </r>
       <r>    7.2366   -0.0000 </r>
       <r>    7.5055   -0.0000 </r>
       <r>    7.5326   -0.0000 </r>
       <r>    7.6108   -0.0000 </r>
       <r>    7.6315   -0.0000 </r>
       <r>    7.9485   -0.0000 </r>
       <r>    7.9795   -0.0000 </r>
       <r>    8.1535   -0.0000 </r>
       <r>    8.1671   -0.0000 </r>
       <r>    8.4997   -0.0000 </r>
       <r>    8.7519   -0.0000 </r>
       <r>    8.8342   -0.0000 </r>
       <r>    9.0307   -0.0000 </r>
       <r>    9.1737   -0.0000 </r>
       <r>    9.2652   -0.0000 </r>
       <r>    9.3272   -0.0000 </r>
       <r>    9.4687   -0.0000 </r>
       <r>    9.7273   -0.0000 </r>
       <r>    9.8319   -0.0000 </r>
      </set>
      <set comment="kpoint 15">
       <r>   -3.3763    1.0000 </r>
       <r>   -2.2569    1.0000 </r>
       <r>   -1.8028    1.0000 </r>
       <r>   -1.1607    1.0000 </r>
       <r>   -1.0806    1.0000 </r>
       <r>   -0.9582    1.0000 </r>
       <r>   -0.8410    1.0000 </r>
       <r>   -0.4732    1.0000 </r>
       <r>   -0.3942    1.0000 </r>
       <r>   -0.2047    1.0000 </r>
       <r>    0.4383    1.0000 </r>
       <r>    0.6637    1.0000 </r>
       <r>    0.8828    1.0000 </r>
       <r>    1.1073    1.0000 </r>
       <r>    1.5264    1.0000 </r>
       <r>    1.5933    1.0000 </r>
       <r>    1.9536    1.0000 </r>
       <r>    2.0422    1.0000 </r>
       <r>    2.8159    1.0000 </r>
       <r>    2.9056    1.0000 </r>
       <r>    3.4121    1.0000 </r>
       <r>    3.5337    1.0000 </r>
       <r>    3.7370    1.0000 </r>
       <r>    3.7442    1.0000 </r>
       <r>    3.9057    1.0000 </r>
       <r>    3.9747    1.0000 </r>
       <r>    4.1803    1.0000 </r>
       <r>    4.2774    1.0000 </r>
       <r>    4.5687    1.0000 </r>
       <r>    4.6492    1.0000 </r>
       <r>    4.8020    1.0000 </r>
       <r>    4.8138    1.0000 </r>
       <r>    5.0546    1.0000 </r>
       <r>    5.2243    1.0000 </r>
       <r>    5.2383    1.0000 </r>
       <r>    5.4205    1.0000 </r>
       <r>    5.5100    1.0000 </r>
       <r>    5.5374    1.0000 </r>
       <r>    5.6151    1.0000 </r>
       <r>    5.9175    1.0001 </r>
       <r>    6.3191    1.0189 </r>
       <r>    6.7489   -0.0354 </r>
       <r>    6.7632   -0.0351 </r>
       <r>    6.8418   -0.0201 </r>
       <r>    7.1573   -0.0000 </r>
       <r>    7.2394   -0.0000 </r>
       <r>    7.5012   -0.0000 </r>
       <r>    7.5319   -0.0000 </r>
       <r>    7.6073   -0.0000 </r>
       <r>    7.6484   -0.0000 </r>
       <r>    7.9397   -0.0000 </r>
       <r>    7.9653   -0.0000 </r>
       <r>    8.1529   -0.0000 </r>
       <r>    8.1669   -0.0000 </r>
       <r>    8.5008   -0.0000 </r>
       <r>    8.7354   -0.0000 </r>
       <r>    8.8497   -0.0000 </r>
       <r>    9.0141   -0.0000 </r>
       <r>    9.2064   -0.0000 </r>
       <r>    9.2684   -0.0000 </r>
       <r>    9.3096   -0.0000 </r>
       <r>    9.4611   -0.0000 </r>
       <r>    9.7406   -0.0000 </r>
       <r>    9.8402   -0.0000 </r>
      </set>
      <set comment="kpoint 16">
       <r>   -3.3784    1.0000 </r>
       <r>   -2.2433    1.0000 </r>
       <r>   -1.8092    1.0000 </r>
       <r>   -1.1681    1.0000 </r>
       <r>   -1.1025    1.0000 </r>
       <r>   -0.9293    1.0000 </r>
       <r>   -0.8427    1.0000 </r>
       <r>   -0.4744    1.0000 </r>
       <r>   -0.4078    1.0000 </r>
       <r>   -0.2090    1.0000 </r>
       <r>    0.4605    1.0000 </r>
       <r>    0.6535    1.0000 </r>
       <r>    0.8919    1.0000 </r>
       <r>    1.1134    1.0000 </r>
       <r>    1.5043    1.0000 </r>
       <r>    1.5945    1.0000 </r>
       <r>    1.9727    1.0000 </r>
       <r>    2.0449    1.0000 </r>
       <r>    2.8152    1.0000 </r>
       <r>    2.8903    1.0000 </r>
       <r>    3.4552    1.0000 </r>
       <r>    3.5266    1.0000 </r>
       <r>    3.7188    1.0000 </r>
       <r>    3.7406    1.0000 </r>
       <r>    3.8953    1.0000 </r>
       <r>    3.9711    1.0000 </r>
       <r>    4.1807    1.0000 </r>
       <r>    4.2947    1.0000 </r>
       <r>    4.5636    1.0000 </r>
       <r>    4.6368    1.0000 </r>
       <r>    4.7885    1.0000 </r>
       <r>    4.8207    1.0000 </r>
       <r>    5.0456    1.0000 </r>
       <r>    5.2314    1.0000 </r>
       <r>    5.2447    1.0000 </r>
       <r>    5.4256    1.0000 </r>
       <r>    5.4921    1.0000 </r>
       <r>    5.5421    1.0000 </r>
       <r>    5.6234    1.0000 </r>
       <r>    5.9139    1.0001 </r>
       <r>    6.3229    1.0161 </r>
       <r>    6.7272   -0.0323 </r>
       <r>    6.7544   -0.0355 </r>
       <r>    6.8652   -0.0151 </r>
       <r>    7.1714   -0.0000 </r>
       <r>    7.2326   -0.0000 </r>
       <r>    7.5088   -0.0000 </r>
       <r>    7.5386   -0.0000 </r>
       <r>    7.6037   -0.0000 </r>
       <r>    7.6223   -0.0000 </r>
       <r>    7.9491   -0.0000 </r>
       <r>    7.9683   -0.0000 </r>
       <r>    8.1529   -0.0000 </r>
       <r>    8.1727   -0.0000 </r>
       <r>    8.4842   -0.0000 </r>
       <r>    8.7681   -0.0000 </r>
       <r>    8.8472   -0.0000 </r>
       <r>    9.0301   -0.0000 </r>
       <r>    9.1925   -0.0000 </r>
       <r>    9.2573   -0.0000 </r>
       <r>    9.3145   -0.0000 </r>
       <r>    9.4706   -0.0000 </r>
       <r>    9.7449   -0.0000 </r>
       <r>    9.8078   -0.0000 </r>
      </set>
      <set comment="kpoint 17">
       <r>   -3.0586    1.0000 </r>
       <r>   -2.7850    1.0000 </r>
       <r>   -1.6897    1.0000 </r>
       <r>   -1.5184    1.0000 </r>
       <r>   -1.4093    1.0000 </r>
       <r>   -0.8411    1.0000 </r>
       <r>   -0.7141    1.0000 </r>
       <r>   -0.5505    1.0000 </r>
       <r>   -0.1086    1.0000 </r>
       <r>    0.4889    1.0000 </r>
       <r>    0.6099    1.0000 </r>
       <r>    0.7264    1.0000 </r>
       <r>    0.8425    1.0000 </r>
       <r>    1.4526    1.0000 </r>
       <r>    1.8184    1.0000 </r>
       <r>    1.9287    1.0000 </r>
       <r>    2.0641    1.0000 </r>
       <r>    2.1216    1.0000 </r>
       <r>    2.7432    1.0000 </r>
       <r>    2.7725    1.0000 </r>
       <r>    2.8989    1.0000 </r>
       <r>    3.0296    1.0000 </r>
       <r>    3.1188    1.0000 </r>
       <r>    3.2224    1.0000 </r>
       <r>    3.3739    1.0000 </r>
       <r>    3.4954    1.0000 </r>
       <r>    4.0294    1.0000 </r>
       <r>    4.0439    1.0000 </r>
       <r>    4.2730    1.0000 </r>
       <r>    4.2967    1.0000 </r>
       <r>    4.7138    1.0000 </r>
       <r>    4.8318    1.0000 </r>
       <r>    4.9432    1.0000 </r>
       <r>    5.0898    1.0000 </r>
       <r>    5.2175    1.0000 </r>
       <r>    5.3655    1.0000 </r>
       <r>    5.3867    1.0000 </r>
       <r>    6.3923    0.9116 </r>
       <r>    6.4223    0.8304 </r>
       <r>    6.6218    0.0961 </r>
       <r>    6.7637   -0.0351 </r>
       <r>    6.9846   -0.0019 </r>
       <r>    6.9983   -0.0015 </r>
       <r>    7.0614   -0.0003 </r>
       <r>    7.3915   -0.0000 </r>
       <r>    7.5239   -0.0000 </r>
       <r>    7.6328   -0.0000 </r>
       <r>    7.7375   -0.0000 </r>
       <r>    7.9336   -0.0000 </r>
       <r>    8.2103   -0.0000 </r>
       <r>    8.3222   -0.0000 </r>
       <r>    8.4420   -0.0000 </r>
       <r>    8.4630   -0.0000 </r>
       <r>    8.5428   -0.0000 </r>
       <r>    8.6755   -0.0000 </r>
       <r>    8.8460   -0.0000 </r>
       <r>    8.9186   -0.0000 </r>
       <r>    8.9571   -0.0000 </r>
       <r>    9.0033   -0.0000 </r>
       <r>    9.1146   -0.0000 </r>
       <r>    9.1503   -0.0000 </r>
       <r>    9.5773   -0.0000 </r>
       <r>    9.5911   -0.0000 </r>
       <r>    9.7528   -0.0000 </r>
      </set>
      <set comment="kpoint 18">
       <r>   -3.0413    1.0000 </r>
       <r>   -2.8104    1.0000 </r>
       <r>   -1.7030    1.0000 </r>
       <r>   -1.4841    1.0000 </r>
       <r>   -1.4109    1.0000 </r>
       <r>   -0.8322    1.0000 </r>
       <r>   -0.7432    1.0000 </r>
       <r>   -0.5358    1.0000 </r>
       <r>   -0.1090    1.0000 </r>
       <r>    0.5067    1.0000 </r>
       <r>    0.5924    1.0000 </r>
       <r>    0.7488    1.0000 </r>
       <r>    0.8152    1.0000 </r>
       <r>    1.4342    1.0000 </r>
       <r>    1.8150    1.0000 </r>
       <r>    1.9115    1.0000 </r>
       <r>    2.0966    1.0000 </r>
       <r>    2.1210    1.0000 </r>
       <r>    2.7240    1.0000 </r>
       <r>    2.7626    1.0000 </r>
       <r>    2.9328    1.0000 </r>
       <r>    3.0018    1.0000 </r>
       <r>    3.1613    1.0000 </r>
       <r>    3.2389    1.0000 </r>
       <r>    3.3813    1.0000 </r>
       <r>    3.4473    1.0000 </r>
       <r>    4.0593    1.0000 </r>
       <r>    4.0727    1.0000 </r>
       <r>    4.2551    1.0000 </r>
       <r>    4.2647    1.0000 </r>
       <r>    4.7185    1.0000 </r>
       <r>    4.8674    1.0000 </r>
       <r>    4.9422    1.0000 </r>
       <r>    5.0977    1.0000 </r>
       <r>    5.1733    1.0000 </r>
       <r>    5.3566    1.0000 </r>
       <r>    5.3810    1.0000 </r>
       <r>    6.4029    0.8856 </r>
       <r>    6.4250    0.8219 </r>
       <r>    6.6210    0.0980 </r>
       <r>    6.7652   -0.0350 </r>
       <r>    6.9874   -0.0018 </r>
       <r>    7.0035   -0.0013 </r>
       <r>    7.0612   -0.0003 </r>
       <r>    7.4284   -0.0000 </r>
       <r>    7.4996   -0.0000 </r>
       <r>    7.6447   -0.0000 </r>
       <r>    7.7318   -0.0000 </r>
       <r>    7.9062   -0.0000 </r>
       <r>    8.2348   -0.0000 </r>
       <r>    8.3112   -0.0000 </r>
       <r>    8.4451   -0.0000 </r>
       <r>    8.4559   -0.0000 </r>
       <r>    8.5326   -0.0000 </r>
       <r>    8.6778   -0.0000 </r>
       <r>    8.8383   -0.0000 </r>
       <r>    8.9018   -0.0000 </r>
       <r>    8.9697   -0.0000 </r>
       <r>    9.0301   -0.0000 </r>
       <r>    9.1153   -0.0000 </r>
       <r>    9.1357   -0.0000 </r>
       <r>    9.5694   -0.0000 </r>
       <r>    9.5932   -0.0000 </r>
       <r>    9.7385   -0.0000 </r>
      </set>
      <set comment="kpoint 19">
       <r>   -3.0409    1.0000 </r>
       <r>   -2.8098    1.0000 </r>
       <r>   -1.7105    1.0000 </r>
       <r>   -1.4784    1.0000 </r>
       <r>   -1.4162    1.0000 </r>
       <r>   -0.8086    1.0000 </r>
       <r>   -0.7590    1.0000 </r>
       <r>   -0.5346    1.0000 </r>
       <r>   -0.1115    1.0000 </r>
       <r>    0.5101    1.0000 </r>
       <r>    0.5792    1.0000 </r>
       <r>    0.7666    1.0000 </r>
       <r>    0.8100    1.0000 </r>
       <r>    1.4512    1.0000 </r>
       <r>    1.8270    1.0000 </r>
       <r>    1.8817    1.0000 </r>
       <r>    2.0814    1.0000 </r>
       <r>    2.1263    1.0000 </r>
       <r>    2.7246    1.0000 </r>
       <r>    2.7653    1.0000 </r>
       <r>    2.9367    1.0000 </r>
       <r>    3.0063    1.0000 </r>
       <r>    3.1639    1.0000 </r>
       <r>    3.2139    1.0000 </r>
       <r>    3.3953    1.0000 </r>
       <r>    3.4324    1.0000 </r>
       <r>    4.0603    1.0000 </r>
       <r>    4.0748    1.0000 </r>
       <r>    4.2573    1.0000 </r>
       <r>    4.2667    1.0000 </r>
       <r>    4.7219    1.0000 </r>
       <r>    4.8876    1.0000 </r>
       <r>    4.9431    1.0000 </r>
       <r>    5.1077    1.0000 </r>
       <r>    5.1598    1.0000 </r>
       <r>    5.3635    1.0000 </r>
       <r>    5.3786    1.0000 </r>
       <r>    6.4029    0.8856 </r>
       <r>    6.4204    0.8360 </r>
       <r>    6.6190    0.1028 </r>
       <r>    6.7684   -0.0347 </r>
       <r>    6.9866   -0.0019 </r>
       <r>    7.0030   -0.0013 </r>
       <r>    7.0589   -0.0004 </r>
       <r>    7.4383   -0.0000 </r>
       <r>    7.4961   -0.0000 </r>
       <r>    7.6464   -0.0000 </r>
       <r>    7.7102   -0.0000 </r>
       <r>    7.9042   -0.0000 </r>
       <r>    8.2430   -0.0000 </r>
       <r>    8.2937   -0.0000 </r>
       <r>    8.4576   -0.0000 </r>
       <r>    8.4701   -0.0000 </r>
       <r>    8.5305   -0.0000 </r>
       <r>    8.6942   -0.0000 </r>
       <r>    8.8488   -0.0000 </r>
       <r>    8.8804   -0.0000 </r>
       <r>    8.9659   -0.0000 </r>
       <r>    9.0115   -0.0000 </r>
       <r>    9.1215   -0.0000 </r>
       <r>    9.1354   -0.0000 </r>
       <r>    9.5691   -0.0000 </r>
       <r>    9.5917   -0.0000 </r>
       <r>    9.7298   -0.0000 </r>
      </set>
      <set comment="kpoint 20">
       <r>   -3.0412    1.0000 </r>
       <r>   -2.8099    1.0000 </r>
       <r>   -1.6892    1.0000 </r>
       <r>   -1.5416    1.0000 </r>
       <r>   -1.3666    1.0000 </r>
       <r>   -0.8606    1.0000 </r>
       <r>   -0.7004    1.0000 </r>
       <r>   -0.5501    1.0000 </r>
       <r>   -0.1010    1.0000 </r>
       <r>    0.4568    1.0000 </r>
       <r>    0.6271    1.0000 </r>
       <r>    0.7123    1.0000 </r>
       <r>    0.8700    1.0000 </r>
       <r>    1.4397    1.0000 </r>
       <r>    1.7840    1.0000 </r>
       <r>    1.9461    1.0000 </r>
       <r>    2.0619    1.0000 </r>
       <r>    2.1344    1.0000 </r>
       <r>    2.7306    1.0000 </r>
       <r>    2.7675    1.0000 </r>
       <r>    2.8834    1.0000 </r>
       <r>    3.0338    1.0000 </r>
       <r>    3.1135    1.0000 </r>
       <r>    3.2797    1.0000 </r>
       <r>    3.3456    1.0000 </r>
       <r>    3.4997    1.0000 </r>
       <r>    4.0472    1.0000 </r>
       <r>    4.0814    1.0000 </r>
       <r>    4.2500    1.0000 </r>
       <r>    4.2696    1.0000 </r>
       <r>    4.7176    1.0000 </r>
       <r>    4.8202    1.0000 </r>
       <r>    5.0007    1.0000 </r>
       <r>    5.0569    1.0000 </r>
       <r>    5.2046    1.0000 </r>
       <r>    5.3667    1.0000 </r>
       <r>    5.3849    1.0000 </r>
       <r>    6.4006    0.8914 </r>
       <r>    6.4233    0.8273 </r>
       <r>    6.6248    0.0887 </r>
       <r>    6.7650   -0.0350 </r>
       <r>    6.9842   -0.0020 </r>
       <r>    7.0030   -0.0013 </r>
       <r>    7.0626   -0.0003 </r>
       <r>    7.3776   -0.0000 </r>
       <r>    7.5462   -0.0000 </r>
       <r>    7.6017   -0.0000 </r>
       <r>    7.7682   -0.0000 </r>
       <r>    7.9080   -0.0000 </r>
       <r>    8.1856   -0.0000 </r>
       <r>    8.3531   -0.0000 </r>
       <r>    8.4481   -0.0000 </r>
       <r>    8.4701   -0.0000 </r>
       <r>    8.5488   -0.0000 </r>
       <r>    8.6756   -0.0000 </r>
       <r>    8.8248   -0.0000 </r>
       <r>    8.8986   -0.0000 </r>
       <r>    8.9595   -0.0000 </r>
       <r>    9.0280   -0.0000 </r>
       <r>    9.1075   -0.0000 </r>
       <r>    9.1255   -0.0000 </r>
       <r>    9.5843   -0.0000 </r>
       <r>    9.6092   -0.0000 </r>
       <r>    9.7205   -0.0000 </r>
      </set>
      <set comment="kpoint 21">
       <r>   -3.0499    1.0000 </r>
       <r>   -2.7991    1.0000 </r>
       <r>   -1.6791    1.0000 </r>
       <r>   -1.5190    1.0000 </r>
       <r>   -1.4084    1.0000 </r>
       <r>   -0.8378    1.0000 </r>
       <r>   -0.7207    1.0000 </r>
       <r>   -0.5590    1.0000 </r>
       <r>   -0.0989    1.0000 </r>
       <r>    0.4869    1.0000 </r>
       <r>    0.6102    1.0000 </r>
       <r>    0.7265    1.0000 </r>
       <r>    0.8400    1.0000 </r>
       <r>    1.4457    1.0000 </r>
       <r>    1.8213    1.0000 </r>
       <r>    1.9301    1.0000 </r>
       <r>    2.0737    1.0000 </r>
       <r>    2.1142    1.0000 </r>
       <r>    2.7387    1.0000 </r>
       <r>    2.7786    1.0000 </r>
       <r>    2.8924    1.0000 </r>
       <r>    3.0182    1.0000 </r>
       <r>    3.1309    1.0000 </r>
       <r>    3.2287    1.0000 </r>
       <r>    3.3714    1.0000 </r>
       <r>    3.4996    1.0000 </r>
       <r>    4.0445    1.0000 </r>
       <r>    4.0498    1.0000 </r>
       <r>    4.2566    1.0000 </r>
       <r>    4.2897    1.0000 </r>
       <r>    4.7125    1.0000 </r>
       <r>    4.8424    1.0000 </r>
       <r>    4.9458    1.0000 </r>
       <r>    5.0750    1.0000 </r>
       <r>    5.2127    1.0000 </r>
       <r>    5.3611    1.0000 </r>
       <r>    5.3856    1.0000 </r>
       <r>    6.3957    0.9036 </r>
       <r>    6.4198    0.8380 </r>
       <r>    6.6289    0.0794 </r>
       <r>    6.7645   -0.0350 </r>
       <r>    6.9933   -0.0016 </r>
       <r>    7.0107   -0.0011 </r>
       <r>    7.0540   -0.0004 </r>
       <r>    7.3980   -0.0000 </r>
       <r>    7.5208   -0.0000 </r>
       <r>    7.6298   -0.0000 </r>
       <r>    7.7495   -0.0000 </r>
       <r>    7.9245   -0.0000 </r>
       <r>    8.2127   -0.0000 </r>
       <r>    8.3238   -0.0000 </r>
       <r>    8.4215   -0.0000 </r>
       <r>    8.4677   -0.0000 </r>
       <r>    8.5520   -0.0000 </r>
       <r>    8.6826   -0.0000 </r>
       <r>    8.8472   -0.0000 </r>
       <r>    8.9171   -0.0000 </r>
       <r>    8.9613   -0.0000 </r>
       <r>    9.0020   -0.0000 </r>
       <r>    9.1082   -0.0000 </r>
       <r>    9.1345   -0.0000 </r>
       <r>    9.5929   -0.0000 </r>
       <r>    9.5983   -0.0000 </r>
       <r>    9.7275   -0.0000 </r>
      </set>
      <set comment="kpoint 22">
       <r>   -3.0405    1.0000 </r>
       <r>   -2.8116    1.0000 </r>
       <r>   -1.6936    1.0000 </r>
       <r>   -1.4872    1.0000 </r>
       <r>   -1.4263    1.0000 </r>
       <r>   -0.8186    1.0000 </r>
       <r>   -0.7346    1.0000 </r>
       <r>   -0.5499    1.0000 </r>
       <r>   -0.1022    1.0000 </r>
       <r>    0.5083    1.0000 </r>
       <r>    0.5793    1.0000 </r>
       <r>    0.7462    1.0000 </r>
       <r>    0.8203    1.0000 </r>
       <r>    1.4414    1.0000 </r>
       <r>    1.8229    1.0000 </r>
       <r>    1.9095    1.0000 </r>
       <r>    2.0965    1.0000 </r>
       <r>    2.1070    1.0000 </r>
       <r>    2.7367    1.0000 </r>
       <r>    2.7681    1.0000 </r>
       <r>    2.9218    1.0000 </r>
       <r>    3.0019    1.0000 </r>
       <r>    3.1487    1.0000 </r>
       <r>    3.2259    1.0000 </r>
       <r>    3.3937    1.0000 </r>
       <r>    3.4567    1.0000 </r>
       <r>    4.0585    1.0000 </r>
       <r>    4.0727    1.0000 </r>
       <r>    4.2522    1.0000 </r>
       <r>    4.2719    1.0000 </r>
       <r>    4.7113    1.0000 </r>
       <r>    4.8674    1.0000 </r>
       <r>    4.9446    1.0000 </r>
       <r>    5.0956    1.0000 </r>
       <r>    5.1693    1.0000 </r>
       <r>    5.3611    1.0000 </r>
       <r>    5.3863    1.0000 </r>
       <r>    6.3977    0.8988 </r>
       <r>    6.4251    0.8216 </r>
       <r>    6.6276    0.0824 </r>
       <r>    6.7665   -0.0349 </r>
       <r>    6.9935   -0.0016 </r>
       <r>    7.0128   -0.0011 </r>
       <r>    7.0583   -0.0004 </r>
       <r>    7.4240   -0.0000 </r>
       <r>    7.4972   -0.0000 </r>
       <r>    7.6389   -0.0000 </r>
       <r>    7.7167   -0.0000 </r>
       <r>    7.9192   -0.0000 </r>
       <r>    8.2343   -0.0000 </r>
       <r>    8.3032   -0.0000 </r>
       <r>    8.4251   -0.0000 </r>
       <r>    8.4589   -0.0000 </r>
       <r>    8.5530   -0.0000 </r>
       <r>    8.6879   -0.0000 </r>
       <r>    8.8567   -0.0000 </r>
       <r>    8.9038   -0.0000 </r>
       <r>    8.9678   -0.0000 </r>
       <r>    8.9973   -0.0000 </r>
       <r>    9.1178   -0.0000 </r>
       <r>    9.1217   -0.0000 </r>
       <r>    9.5918   -0.0000 </r>
       <r>    9.6116   -0.0000 </r>
       <r>    9.7336   -0.0000 </r>
      </set>
      <set comment="kpoint 23">
       <r>   -3.0419    1.0000 </r>
       <r>   -2.8093    1.0000 </r>
       <r>   -1.7123    1.0000 </r>
       <r>   -1.4730    1.0000 </r>
       <r>   -1.4078    1.0000 </r>
       <r>   -0.8531    1.0000 </r>
       <r>   -0.7316    1.0000 </r>
       <r>   -0.5302    1.0000 </r>
       <r>   -0.1130    1.0000 </r>
       <r>    0.5120    1.0000 </r>
       <r>    0.5878    1.0000 </r>
       <r>    0.7362    1.0000 </r>
       <r>    0.8335    1.0000 </r>
       <r>    1.4355    1.0000 </r>
       <r>    1.7992    1.0000 </r>
       <r>    1.9188    1.0000 </r>
       <r>    2.1010    1.0000 </r>
       <r>    2.1260    1.0000 </r>
       <r>    2.7084    1.0000 </r>
       <r>    2.7631    1.0000 </r>
       <r>    2.9463    1.0000 </r>
       <r>    2.9968    1.0000 </r>
       <r>    3.1517    1.0000 </r>
       <r>    3.2418    1.0000 </r>
       <r>    3.3712    1.0000 </r>
       <r>    3.4577    1.0000 </r>
       <r>    4.0584    1.0000 </r>
       <r>    4.0748    1.0000 </r>
       <r>    4.2642    1.0000 </r>
       <r>    4.2686    1.0000 </r>
       <r>    4.7128    1.0000 </r>
       <r>    4.8608    1.0000 </r>
       <r>    4.9527    1.0000 </r>
       <r>    5.0858    1.0000 </r>
       <r>    5.1731    1.0000 </r>
       <r>    5.3690    1.0000 </r>
       <r>    5.3790    1.0000 </r>
       <r>    6.3955    0.9040 </r>
       <r>    6.4248    0.8227 </r>
       <r>    6.6255    0.0873 </r>
       <r>    6.7642   -0.0351 </r>
       <r>    6.9899   -0.0017 </r>
       <r>    6.9977   -0.0015 </r>
       <r>    7.0660   -0.0003 </r>
       <r>    7.4196   -0.0000 </r>
       <r>    7.5040   -0.0000 </r>
       <r>    7.6452   -0.0000 </r>
       <r>    7.7316   -0.0000 </r>
       <r>    7.8996   -0.0000 </r>
       <r>    8.2360   -0.0000 </r>
       <r>    8.3054   -0.0000 </r>
       <r>    8.4549   -0.0000 </r>
       <r>    8.4756   -0.0000 </r>
       <r>    8.5234   -0.0000 </r>
       <r>    8.6815   -0.0000 </r>
       <r>    8.8296   -0.0000 </r>
       <r>    8.9073   -0.0000 </r>
       <r>    8.9765   -0.0000 </r>
       <r>    9.0106   -0.0000 </r>
       <r>    9.1209   -0.0000 </r>
       <r>    9.1460   -0.0000 </r>
       <r>    9.5719   -0.0000 </r>
       <r>    9.5899   -0.0000 </r>
       <r>    9.7321   -0.0000 </r>
      </set>
      <set comment="kpoint 24">
       <r>   -3.0588    1.0000 </r>
       <r>   -2.7843    1.0000 </r>
       <r>   -1.6985    1.0000 </r>
       <r>   -1.5375    1.0000 </r>
       <r>   -1.3654    1.0000 </r>
       <r>   -0.8713    1.0000 </r>
       <r>   -0.7111    1.0000 </r>
       <r>   -0.5363    1.0000 </r>
       <r>   -0.1162    1.0000 </r>
       <r>    0.4762    1.0000 </r>
       <r>    0.6321    1.0000 </r>
       <r>    0.7065    1.0000 </r>
       <r>    0.8688    1.0000 </r>
       <r>    1.4385    1.0000 </r>
       <r>    1.7912    1.0000 </r>
       <r>    1.9432    1.0000 </r>
       <r>    2.0820    1.0000 </r>
       <r>    2.1296    1.0000 </r>
       <r>    2.7224    1.0000 </r>
       <r>    2.7844    1.0000 </r>
       <r>    2.8814    1.0000 </r>
       <r>    3.0471    1.0000 </r>
       <r>    3.0935    1.0000 </r>
       <r>    3.2544    1.0000 </r>
       <r>    3.3514    1.0000 </r>
       <r>    3.5060    1.0000 </r>
       <r>    4.0270    1.0000 </r>
       <r>    4.0646    1.0000 </r>
       <r>    4.2741    1.0000 </r>
       <r>    4.2948    1.0000 </r>
       <r>    4.7119    1.0000 </r>
       <r>    4.7997    1.0000 </r>
       <r>    4.9766    1.0000 </r>
       <r>    5.0704    1.0000 </r>
       <r>    5.2228    1.0000 </r>
       <r>    5.3643    1.0000 </r>
       <r>    5.3818    1.0000 </r>
       <r>    6.4023    0.8870 </r>
       <r>    6.4282    0.8117 </r>
       <r>    6.6212    0.0975 </r>
       <r>    6.7717   -0.0343 </r>
       <r>    6.9773   -0.0023 </r>
       <r>    6.9916   -0.0017 </r>
       <r>    7.0540   -0.0004 </r>
       <r>    7.3747   -0.0000 </r>
       <r>    7.5504   -0.0000 </r>
       <r>    7.6017   -0.0000 </r>
       <r>    7.7706   -0.0000 </r>
       <r>    7.9164   -0.0000 </r>
       <r>    8.1896   -0.0000 </r>
       <r>    8.3520   -0.0000 </r>
       <r>    8.4427   -0.0000 </r>
       <r>    8.4670   -0.0000 </r>
       <r>    8.5292   -0.0000 </r>
       <r>    8.6794   -0.0000 </r>
       <r>    8.8288   -0.0000 </r>
       <r>    8.9060   -0.0000 </r>
       <r>    8.9825   -0.0000 </r>
       <r>    9.0224   -0.0000 </r>
       <r>    9.1294   -0.0000 </r>
       <r>    9.1518   -0.0000 </r>
       <r>    9.5766   -0.0000 </r>
       <r>    9.6049   -0.0000 </r>
       <r>    9.7340   -0.0000 </r>
      </set>
      <set comment="kpoint 25">
       <r>   -3.0499    1.0000 </r>
       <r>   -2.7982    1.0000 </r>
       <r>   -1.7096    1.0000 </r>
       <r>   -1.4715    1.0000 </r>
       <r>   -1.4168    1.0000 </r>
       <r>   -0.8267    1.0000 </r>
       <r>   -0.7620    1.0000 </r>
       <r>   -0.5334    1.0000 </r>
       <r>   -0.1144    1.0000 </r>
       <r>    0.5254    1.0000 </r>
       <r>    0.5801    1.0000 </r>
       <r>    0.7611    1.0000 </r>
       <r>    0.8101    1.0000 </r>
       <r>    1.4445    1.0000 </r>
       <r>    1.8403    1.0000 </r>
       <r>    1.8864    1.0000 </r>
       <r>    2.0816    1.0000 </r>
       <r>    2.1342    1.0000 </r>
       <r>    2.7290    1.0000 </r>
       <r>    2.7558    1.0000 </r>
       <r>    2.9421    1.0000 </r>
       <r>    3.0035    1.0000 </r>
       <r>    3.1512    1.0000 </r>
       <r>    3.2146    1.0000 </r>
       <r>    3.3938    1.0000 </r>
       <r>    3.4378    1.0000 </r>
       <r>    4.0546    1.0000 </r>
       <r>    4.0648    1.0000 </r>
       <r>    4.2666    1.0000 </r>
       <r>    4.2834    1.0000 </r>
       <r>    4.7212    1.0000 </r>
       <r>    4.8656    1.0000 </r>
       <r>    4.9271    1.0000 </r>
       <r>    5.1112    1.0000 </r>
       <r>    5.1614    1.0000 </r>
       <r>    5.3655    1.0000 </r>
       <r>    5.3753    1.0000 </r>
       <r>    6.4095    0.8678 </r>
       <r>    6.4183    0.8425 </r>
       <r>    6.6282    0.0810 </r>
       <r>    6.7681   -0.0347 </r>
       <r>    6.9818   -0.0021 </r>
       <r>    7.0003   -0.0014 </r>
       <r>    7.0555   -0.0004 </r>
       <r>    7.4371   -0.0000 </r>
       <r>    7.4971   -0.0000 </r>
       <r>    7.6549   -0.0000 </r>
       <r>    7.7119   -0.0000 </r>
       <r>    7.9053   -0.0000 </r>
       <r>    8.2502   -0.0000 </r>
       <r>    8.2906   -0.0000 </r>
       <r>    8.4513   -0.0000 </r>
       <r>    8.4741   -0.0000 </r>
       <r>    8.5343   -0.0000 </r>
       <r>    8.6957   -0.0000 </r>
       <r>    8.8476   -0.0000 </r>
       <r>    8.8997   -0.0000 </r>
       <r>    8.9631   -0.0000 </r>
       <r>    9.0213   -0.0000 </r>
       <r>    9.1253   -0.0000 </r>
       <r>    9.1331   -0.0000 </r>
       <r>    9.5708   -0.0000 </r>
       <r>    9.5833   -0.0000 </r>
       <r>    9.7410   -0.0000 </r>
      </set>
      <set comment="kpoint 26">
       <r>   -3.0503    1.0000 </r>
       <r>   -2.7979    1.0000 </r>
       <r>   -1.7063    1.0000 </r>
       <r>   -1.4801    1.0000 </r>
       <r>   -1.4102    1.0000 </r>
       <r>   -0.8357    1.0000 </r>
       <r>   -0.7543    1.0000 </r>
       <r>   -0.5328    1.0000 </r>
       <r>   -0.1120    1.0000 </r>
       <r>    0.4974    1.0000 </r>
       <r>    0.5919    1.0000 </r>
       <r>    0.7581    1.0000 </r>
       <r>    0.8310    1.0000 </r>
       <r>    1.4370    1.0000 </r>
       <r>    1.8276    1.0000 </r>
       <r>    1.9050    1.0000 </r>
       <r>    2.0845    1.0000 </r>
       <r>    2.1270    1.0000 </r>
       <r>    2.7353    1.0000 </r>
       <r>    2.7534    1.0000 </r>
       <r>    2.9325    1.0000 </r>
       <r>    3.0084    1.0000 </r>
       <r>    3.1553    1.0000 </r>
       <r>    3.2162    1.0000 </r>
       <r>    3.3750    1.0000 </r>
       <r>    3.4662    1.0000 </r>
       <r>    4.0506    1.0000 </r>
       <r>    4.0589    1.0000 </r>
       <r>    4.2586    1.0000 </r>
       <r>    4.2829    1.0000 </r>
       <r>    4.7200    1.0000 </r>
       <r>    4.8681    1.0000 </r>
       <r>    4.9212    1.0000 </r>
       <r>    5.0935    1.0000 </r>
       <r>    5.1946    1.0000 </r>
       <r>    5.3602    1.0000 </r>
       <r>    5.3777    1.0000 </r>
       <r>    6.4049    0.8803 </r>
       <r>    6.4189    0.8405 </r>
       <r>    6.6190    0.1028 </r>
       <r>    6.7734   -0.0341 </r>
       <r>    6.9844   -0.0020 </r>
       <r>    6.9940   -0.0016 </r>
       <r>    7.0602   -0.0003 </r>
       <r>    7.4221   -0.0000 </r>
       <r>    7.5099   -0.0000 </r>
       <r>    7.6539   -0.0000 </r>
       <r>    7.7269   -0.0000 </r>
       <r>    7.9047   -0.0000 </r>
       <r>    8.2291   -0.0000 </r>
       <r>    8.3132   -0.0000 </r>
       <r>    8.4425   -0.0000 </r>
       <r>    8.4685   -0.0000 </r>
       <r>    8.5460   -0.0000 </r>
       <r>    8.6765   -0.0000 </r>
       <r>    8.8422   -0.0000 </r>
       <r>    8.9014   -0.0000 </r>
       <r>    8.9660   -0.0000 </r>
       <r>    9.0284   -0.0000 </r>
       <r>    9.1217   -0.0000 </r>
       <r>    9.1378   -0.0000 </r>
       <r>    9.5708   -0.0000 </r>
       <r>    9.5905   -0.0000 </r>
       <r>    9.7402   -0.0000 </r>
      </set>
      <set comment="kpoint 27">
       <r>   -3.0419    1.0000 </r>
       <r>   -2.8084    1.0000 </r>
       <r>   -1.7181    1.0000 </r>
       <r>   -1.4714    1.0000 </r>
       <r>   -1.4073    1.0000 </r>
       <r>   -0.8487    1.0000 </r>
       <r>   -0.7337    1.0000 </r>
       <r>   -0.5239    1.0000 </r>
       <r>   -0.1237    1.0000 </r>
       <r>    0.5129    1.0000 </r>
       <r>    0.5935    1.0000 </r>
       <r>    0.7466    1.0000 </r>
       <r>    0.8267    1.0000 </r>
       <r>    1.4459    1.0000 </r>
       <r>    1.7976    1.0000 </r>
       <r>    1.9109    1.0000 </r>
       <r>    2.0764    1.0000 </r>
       <r>    2.1351    1.0000 </r>
       <r>    2.7184    1.0000 </r>
       <r>    2.7523    1.0000 </r>
       <r>    2.9489    1.0000 </r>
       <r>    3.0116    1.0000 </r>
       <r>    3.1477    1.0000 </r>
       <r>    3.2242    1.0000 </r>
       <r>    3.3723    1.0000 </r>
       <r>    3.4601    1.0000 </r>
       <r>    4.0575    1.0000 </r>
       <r>    4.0830    1.0000 </r>
       <r>    4.2590    1.0000 </r>
       <r>    4.2739    1.0000 </r>
       <r>    4.7195    1.0000 </r>
       <r>    4.8558    1.0000 </r>
       <r>    4.9439    1.0000 </r>
       <r>    5.0964    1.0000 </r>
       <r>    5.1860    1.0000 </r>
       <r>    5.3597    1.0000 </r>
       <r>    5.3822    1.0000 </r>
       <r>    6.4046    0.8811 </r>
       <r>    6.4251    0.8217 </r>
       <r>    6.6075    0.1331 </r>
       <r>    6.7722   -0.0343 </r>
       <r>    6.9950   -0.0016 </r>
       <r>    7.0015   -0.0014 </r>
       <r>    7.0581   -0.0004 </r>
       <r>    7.4077   -0.0000 </r>
       <r>    7.5110   -0.0000 </r>
       <r>    7.6522   -0.0000 </r>
       <r>    7.7269   -0.0000 </r>
       <r>    7.9022   -0.0000 </r>
       <r>    8.2377   -0.0000 </r>
       <r>    8.3180   -0.0000 </r>
       <r>    8.4119   -0.0000 </r>
       <r>    8.4582   -0.0000 </r>
       <r>    8.5637   -0.0000 </r>
       <r>    8.6830   -0.0000 </r>
       <r>    8.8363   -0.0000 </r>
       <r>    8.8882   -0.0000 </r>
       <r>    8.9700   -0.0000 </r>
       <r>    9.0003   -0.0000 </r>
       <r>    9.1354   -0.0000 </r>
       <r>    9.1603   -0.0000 </r>
       <r>    9.5549   -0.0000 </r>
       <r>    9.5907   -0.0000 </r>
       <r>    9.7292   -0.0000 </r>
      </set>
      <set comment="kpoint 28">
       <r>   -3.0583    1.0000 </r>
       <r>   -2.7849    1.0000 </r>
       <r>   -1.7070    1.0000 </r>
       <r>   -1.4829    1.0000 </r>
       <r>   -1.4265    1.0000 </r>
       <r>   -0.8281    1.0000 </r>
       <r>   -0.7381    1.0000 </r>
       <r>   -0.5367    1.0000 </r>
       <r>   -0.1163    1.0000 </r>
       <r>    0.5002    1.0000 </r>
       <r>    0.5820    1.0000 </r>
       <r>    0.7574    1.0000 </r>
       <r>    0.8357    1.0000 </r>
       <r>    1.4493    1.0000 </r>
       <r>    1.8291    1.0000 </r>
       <r>    1.9040    1.0000 </r>
       <r>    2.0876    1.0000 </r>
       <r>    2.1094    1.0000 </r>
       <r>    2.7432    1.0000 </r>
       <r>    2.7655    1.0000 </r>
       <r>    2.9368    1.0000 </r>
       <r>    3.0074    1.0000 </r>
       <r>    3.1276    1.0000 </r>
       <r>    3.1982    1.0000 </r>
       <r>    3.3887    1.0000 </r>
       <r>    3.4747    1.0000 </r>
       <r>    4.0342    1.0000 </r>
       <r>    4.0548    1.0000 </r>
       <r>    4.2730    1.0000 </r>
       <r>    4.2961    1.0000 </r>
       <r>    4.7126    1.0000 </r>
       <r>    4.8593    1.0000 </r>
       <r>    4.9223    1.0000 </r>
       <r>    5.1077    1.0000 </r>
       <r>    5.1942    1.0000 </r>
       <r>    5.3667    1.0000 </r>
       <r>    5.3816    1.0000 </r>
       <r>    6.4005    0.8916 </r>
       <r>    6.4219    0.8317 </r>
       <r>    6.6149    0.1132 </r>
       <r>    6.7696   -0.0346 </r>
       <r>    6.9811   -0.0021 </r>
       <r>    6.9978   -0.0015 </r>
       <r>    7.0606   -0.0003 </r>
       <r>    7.4234   -0.0000 </r>
       <r>    7.4981   -0.0000 </r>
       <r>    7.6479   -0.0000 </r>
       <r>    7.7193   -0.0000 </r>
       <r>    7.9185   -0.0000 </r>
       <r>    8.2238   -0.0000 </r>
       <r>    8.2972   -0.0000 </r>
       <r>    8.4429   -0.0000 </r>
       <r>    8.4677   -0.0000 </r>
       <r>    8.5600   -0.0000 </r>
       <r>    8.6740   -0.0000 </r>
       <r>    8.8627   -0.0000 </r>
       <r>    8.9119   -0.0000 </r>
       <r>    8.9735   -0.0000 </r>
       <r>    8.9970   -0.0000 </r>
       <r>    9.1156   -0.0000 </r>
       <r>    9.1389   -0.0000 </r>
       <r>    9.5824   -0.0000 </r>
       <r>    9.5946   -0.0000 </r>
       <r>    9.7324   -0.0000 </r>
      </set>
      <set comment="kpoint 29">
       <r>   -3.4901    1.0000 </r>
       <r>   -1.9159    1.0000 </r>
       <r>   -1.5192    1.0000 </r>
       <r>   -1.4189    1.0000 </r>
       <r>   -1.2430    1.0000 </r>
       <r>   -0.9918    1.0000 </r>
       <r>   -0.5574    1.0000 </r>
       <r>   -0.4056    1.0000 </r>
       <r>   -0.2910    1.0000 </r>
       <r>   -0.1476    1.0000 </r>
       <r>   -0.0211    1.0000 </r>
       <r>    0.3453    1.0000 </r>
       <r>    0.5055    1.0000 </r>
       <r>    0.6227    1.0000 </r>
       <r>    1.4471    1.0000 </r>
       <r>    1.8220    1.0000 </r>
       <r>    1.9361    1.0000 </r>
       <r>    2.6947    1.0000 </r>
       <r>    2.7672    1.0000 </r>
       <r>    2.8175    1.0000 </r>
       <r>    3.6055    1.0000 </r>
       <r>    3.6229    1.0000 </r>
       <r>    3.8126    1.0000 </r>
       <r>    4.1800    1.0000 </r>
       <r>    4.3164    1.0000 </r>
       <r>    4.4154    1.0000 </r>
       <r>    4.4925    1.0000 </r>
       <r>    4.5485    1.0000 </r>
       <r>    4.5732    1.0000 </r>
       <r>    4.6621    1.0000 </r>
       <r>    4.7037    1.0000 </r>
       <r>    4.9341    1.0000 </r>
       <r>    5.0218    1.0000 </r>
       <r>    5.0487    1.0000 </r>
       <r>    5.3037    1.0000 </r>
       <r>    5.4186    1.0000 </r>
       <r>    5.7672    1.0000 </r>
       <r>    5.7893    1.0000 </r>
       <r>    5.8507    1.0000 </r>
       <r>    5.9600    1.0004 </r>
       <r>    6.2030    1.0264 </r>
       <r>    6.2479    1.0346 </r>
       <r>    6.3236    1.0156 </r>
       <r>    6.3474    0.9917 </r>
       <r>    6.6152    0.1126 </r>
       <r>    6.6677    0.0112 </r>
       <r>    6.7364   -0.0342 </r>
       <r>    7.4864   -0.0000 </r>
       <r>    7.5148   -0.0000 </r>
       <r>    7.5414   -0.0000 </r>
       <r>    7.8403   -0.0000 </r>
       <r>    7.8962   -0.0000 </r>
       <r>    8.0056   -0.0000 </r>
       <r>    8.0548   -0.0000 </r>
       <r>    8.2354   -0.0000 </r>
       <r>    8.3122   -0.0000 </r>
       <r>    8.3641   -0.0000 </r>
       <r>    8.4078   -0.0000 </r>
       <r>    8.7162   -0.0000 </r>
       <r>    9.1995   -0.0000 </r>
       <r>    9.7273   -0.0000 </r>
       <r>    9.7420   -0.0000 </r>
       <r>   10.0303   -0.0000 </r>
       <r>   10.1521   -0.0000 </r>
      </set>
      <set comment="kpoint 30">
       <r>   -3.4896    1.0000 </r>
       <r>   -1.9274    1.0000 </r>
       <r>   -1.5062    1.0000 </r>
       <r>   -1.4347    1.0000 </r>
       <r>   -1.2124    1.0000 </r>
       <r>   -0.9994    1.0000 </r>
       <r>   -0.5770    1.0000 </r>
       <r>   -0.3672    1.0000 </r>
       <r>   -0.2889    1.0000 </r>
       <r>   -0.1445    1.0000 </r>
       <r>   -0.0710    1.0000 </r>
       <r>    0.3306    1.0000 </r>
       <r>    0.5390    1.0000 </r>
       <r>    0.6234    1.0000 </r>
       <r>    1.4477    1.0000 </r>
       <r>    1.8323    1.0000 </r>
       <r>    1.9108    1.0000 </r>
       <r>    2.7241    1.0000 </r>
       <r>    2.7599    1.0000 </r>
       <r>    2.8034    1.0000 </r>
       <r>    3.6112    1.0000 </r>
       <r>    3.6251    1.0000 </r>
       <r>    3.8135    1.0000 </r>
       <r>    4.2103    1.0000 </r>
       <r>    4.3057    1.0000 </r>
       <r>    4.4289    1.0000 </r>
       <r>    4.4960    1.0000 </r>
       <r>    4.5196    1.0000 </r>
       <r>    4.5746    1.0000 </r>
       <r>    4.6283    1.0000 </r>
       <r>    4.7039    1.0000 </r>
       <r>    4.9394    1.0000 </r>
       <r>    5.0367    1.0000 </r>
       <r>    5.0452    1.0000 </r>
       <r>    5.3244    1.0000 </r>
       <r>    5.3983    1.0000 </r>
       <r>    5.7769    1.0000 </r>
       <r>    5.7962    1.0000 </r>
       <r>    5.8620    1.0000 </r>
       <r>    5.9225    1.0001 </r>
       <r>    6.2064    1.0271 </r>
       <r>    6.2374    1.0332 </r>
       <r>    6.3359    1.0046 </r>
       <r>    6.3459    0.9935 </r>
       <r>    6.5857    0.1991 </r>
       <r>    6.6858   -0.0089 </r>
       <r>    6.7496   -0.0354 </r>
       <r>    7.4953   -0.0000 </r>
       <r>    7.5220   -0.0000 </r>
       <r>    7.5485   -0.0000 </r>
       <r>    7.8298   -0.0000 </r>
       <r>    7.9233   -0.0000 </r>
       <r>    8.0009   -0.0000 </r>
       <r>    8.0414   -0.0000 </r>
       <r>    8.2238   -0.0000 </r>
       <r>    8.2955   -0.0000 </r>
       <r>    8.3652   -0.0000 </r>
       <r>    8.4185   -0.0000 </r>
       <r>    8.7223   -0.0000 </r>
       <r>    9.2008   -0.0000 </r>
       <r>    9.7210   -0.0000 </r>
       <r>    9.7299   -0.0000 </r>
       <r>   10.0512   -0.0000 </r>
       <r>   10.1327   -0.0000 </r>
      </set>
      <set comment="kpoint 31">
       <r>   -3.4894    1.0000 </r>
       <r>   -1.9271    1.0000 </r>
       <r>   -1.5012    1.0000 </r>
       <r>   -1.4381    1.0000 </r>
       <r>   -1.2161    1.0000 </r>
       <r>   -1.0104    1.0000 </r>
       <r>   -0.5769    1.0000 </r>
       <r>   -0.3423    1.0000 </r>
       <r>   -0.2948    1.0000 </r>
       <r>   -0.1297    1.0000 </r>
       <r>   -0.0782    1.0000 </r>
       <r>    0.3272    1.0000 </r>
       <r>    0.5403    1.0000 </r>
       <r>    0.6078    1.0000 </r>
       <r>    1.4494    1.0000 </r>
       <r>    1.8449    1.0000 </r>
       <r>    1.9064    1.0000 </r>
       <r>    2.7317    1.0000 </r>
       <r>    2.7526    1.0000 </r>
       <r>    2.7902    1.0000 </r>
       <r>    3.6083    1.0000 </r>
       <r>    3.6253    1.0000 </r>
       <r>    3.8113    1.0000 </r>
       <r>    4.2222    1.0000 </r>
       <r>    4.2717    1.0000 </r>
       <r>    4.4457    1.0000 </r>
       <r>    4.4879    1.0000 </r>
       <r>    4.5174    1.0000 </r>
       <r>    4.5985    1.0000 </r>
       <r>    4.6229    1.0000 </r>
       <r>    4.7077    1.0000 </r>
       <r>    4.9559    1.0000 </r>
       <r>    5.0300    1.0000 </r>
       <r>    5.0517    1.0000 </r>
       <r>    5.3367    1.0000 </r>
       <r>    5.3799    1.0000 </r>
       <r>    5.7852    1.0000 </r>
       <r>    5.7983    1.0000 </r>
       <r>    5.8653    1.0000 </r>
       <r>    5.9264    1.0002 </r>
       <r>    6.2097    1.0279 </r>
       <r>    6.2336    1.0326 </r>
       <r>    6.3247    1.0147 </r>
       <r>    6.3496    0.9888 </r>
       <r>    6.5929    0.1762 </r>
       <r>    6.6687    0.0098 </r>
       <r>    6.7515   -0.0354 </r>
       <r>    7.4860   -0.0000 </r>
       <r>    7.5250   -0.0000 </r>
       <r>    7.5323   -0.0000 </r>
       <r>    7.8366   -0.0000 </r>
       <r>    7.9306   -0.0000 </r>
       <r>    7.9845   -0.0000 </r>
       <r>    8.0519   -0.0000 </r>
       <r>    8.2393   -0.0000 </r>
       <r>    8.2807   -0.0000 </r>
       <r>    8.3675   -0.0000 </r>
       <r>    8.4180   -0.0000 </r>
       <r>    8.7232   -0.0000 </r>
       <r>    9.2020   -0.0000 </r>
       <r>    9.7280   -0.0000 </r>
       <r>    9.7364   -0.0000 </r>
       <r>   10.0528   -0.0000 </r>
       <r>   10.1237   -0.0000 </r>
      </set>
      <set comment="kpoint 32">
       <r>   -3.4895    1.0000 </r>
       <r>   -1.9249    1.0000 </r>
       <r>   -1.5493    1.0000 </r>
       <r>   -1.3828    1.0000 </r>
       <r>   -1.2166    1.0000 </r>
       <r>   -1.0092    1.0000 </r>
       <r>   -0.5568    1.0000 </r>
       <r>   -0.4144    1.0000 </r>
       <r>   -0.2430    1.0000 </r>
       <r>   -0.1873    1.0000 </r>
       <r>   -0.0310    1.0000 </r>
       <r>    0.3325    1.0000 </r>
       <r>    0.4886    1.0000 </r>
       <r>    0.6583    1.0000 </r>
       <r>    1.4477    1.0000 </r>
       <r>    1.7935    1.0000 </r>
       <r>    1.9636    1.0000 </r>
       <r>    2.6744    1.0000 </r>
       <r>    2.7581    1.0000 </r>
       <r>    2.8438    1.0000 </r>
       <r>    3.6080    1.0000 </r>
       <r>    3.6285    1.0000 </r>
       <r>    3.8167    1.0000 </r>
       <r>    4.1601    1.0000 </r>
       <r>    4.3348    1.0000 </r>
       <r>    4.3860    1.0000 </r>
       <r>    4.4882    1.0000 </r>
       <r>    4.5337    1.0000 </r>
       <r>    4.5767    1.0000 </r>
       <r>    4.6868    1.0000 </r>
       <r>    4.7221    1.0000 </r>
       <r>    4.9379    1.0000 </r>
       <r>    5.0181    1.0000 </r>
       <r>    5.0558    1.0000 </r>
       <r>    5.2731    1.0000 </r>
       <r>    5.4388    1.0000 </r>
       <r>    5.7861    1.0000 </r>
       <r>    5.7999    1.0000 </r>
       <r>    5.8165    1.0000 </r>
       <r>    5.9652    1.0004 </r>
       <r>    6.1967    1.0249 </r>
       <r>    6.2279    1.0316 </r>
       <r>    6.3218    1.0169 </r>
       <r>    6.3748    0.9488 </r>
       <r>    6.5953    0.1687 </r>
       <r>    6.6527    0.0332 </r>
       <r>    6.7693   -0.0346 </r>
       <r>    7.5021   -0.0000 </r>
       <r>    7.5136   -0.0000 </r>
       <r>    7.5384   -0.0000 </r>
       <r>    7.8374   -0.0000 </r>
       <r>    7.8910   -0.0000 </r>
       <r>    8.0222   -0.0000 </r>
       <r>    8.0410   -0.0000 </r>
       <r>    8.2102   -0.0000 </r>
       <r>    8.3044   -0.0000 </r>
       <r>    8.3747   -0.0000 </r>
       <r>    8.4282   -0.0000 </r>
       <r>    8.7079   -0.0000 </r>
       <r>    9.2064   -0.0000 </r>
       <r>    9.7210   -0.0000 </r>
       <r>    9.7363   -0.0000 </r>
       <r>   10.0050   -0.0000 </r>
       <r>   10.1810   -0.0000 </r>
      </set>
      <set comment="kpoint 33">
       <r>   -3.4898    1.0000 </r>
       <r>   -1.9242    1.0000 </r>
       <r>   -1.5181    1.0000 </r>
       <r>   -1.4133    1.0000 </r>
       <r>   -1.2280    1.0000 </r>
       <r>   -1.0009    1.0000 </r>
       <r>   -0.5579    1.0000 </r>
       <r>   -0.3989    1.0000 </r>
       <r>   -0.2908    1.0000 </r>
       <r>   -0.1643    1.0000 </r>
       <r>   -0.0273    1.0000 </r>
       <r>    0.3448    1.0000 </r>
       <r>    0.5130    1.0000 </r>
       <r>    0.6312    1.0000 </r>
       <r>    1.4423    1.0000 </r>
       <r>    1.8212    1.0000 </r>
       <r>    1.9413    1.0000 </r>
       <r>    2.6957    1.0000 </r>
       <r>    2.7581    1.0000 </r>
       <r>    2.8182    1.0000 </r>
       <r>    3.6095    1.0000 </r>
       <r>    3.6179    1.0000 </r>
       <r>    3.8213    1.0000 </r>
       <r>    4.1753    1.0000 </r>
       <r>    4.3134    1.0000 </r>
       <r>    4.4191    1.0000 </r>
       <r>    4.4923    1.0000 </r>
       <r>    4.5437    1.0000 </r>
       <r>    4.5754    1.0000 </r>
       <r>    4.6538    1.0000 </r>
       <r>    4.7193    1.0000 </r>
       <r>    4.9253    1.0000 </r>
       <r>    5.0238    1.0000 </r>
       <r>    5.0596    1.0000 </r>
       <r>    5.2969    1.0000 </r>
       <r>    5.4157    1.0000 </r>
       <r>    5.7713    1.0000 </r>
       <r>    5.8048    1.0000 </r>
       <r>    5.8386    1.0000 </r>
       <r>    5.9509    1.0003 </r>
       <r>    6.1963    1.0248 </r>
       <r>    6.2347    1.0328 </r>
       <r>    6.3358    1.0047 </r>
       <r>    6.3584    0.9764 </r>
       <r>    6.6198    0.1009 </r>
       <r>    6.6676    0.0114 </r>
       <r>    6.7342   -0.0338 </r>
       <r>    7.4911   -0.0000 </r>
       <r>    7.5174   -0.0000 </r>
       <r>    7.5360   -0.0000 </r>
       <r>    7.8384   -0.0000 </r>
       <r>    7.9069   -0.0000 </r>
       <r>    7.9867   -0.0000 </r>
       <r>    8.0583   -0.0000 </r>
       <r>    8.2398   -0.0000 </r>
       <r>    8.3134   -0.0000 </r>
       <r>    8.3652   -0.0000 </r>
       <r>    8.4032   -0.0000 </r>
       <r>    8.7098   -0.0000 </r>
       <r>    9.2057   -0.0000 </r>
       <r>    9.7262   -0.0000 </r>
       <r>    9.7419   -0.0000 </r>
       <r>   10.0313   -0.0000 </r>
       <r>   10.1627   -0.0000 </r>
      </set>
      <set comment="kpoint 34">
       <r>   -3.4893    1.0000 </r>
       <r>   -1.9308    1.0000 </r>
       <r>   -1.5013    1.0000 </r>
       <r>   -1.4283    1.0000 </r>
       <r>   -1.2237    1.0000 </r>
       <r>   -1.0046    1.0000 </r>
       <r>   -0.5663    1.0000 </r>
       <r>   -0.3563    1.0000 </r>
       <r>   -0.2990    1.0000 </r>
       <r>   -0.1459    1.0000 </r>
       <r>   -0.0700    1.0000 </r>
       <r>    0.3374    1.0000 </r>
       <r>    0.5338    1.0000 </r>
       <r>    0.6176    1.0000 </r>
       <r>    1.4471    1.0000 </r>
       <r>    1.8390    1.0000 </r>
       <r>    1.9152    1.0000 </r>
       <r>    2.7095    1.0000 </r>
       <r>    2.7547    1.0000 </r>
       <r>    2.8047    1.0000 </r>
       <r>    3.6075    1.0000 </r>
       <r>    3.6283    1.0000 </r>
       <r>    3.8130    1.0000 </r>
       <r>    4.2055    1.0000 </r>
       <r>    4.2943    1.0000 </r>
       <r>    4.4385    1.0000 </r>
       <r>    4.4840    1.0000 </r>
       <r>    4.5262    1.0000 </r>
       <r>    4.5855    1.0000 </r>
       <r>    4.6529    1.0000 </r>
       <r>    4.7130    1.0000 </r>
       <r>    4.9279    1.0000 </r>
       <r>    5.0276    1.0000 </r>
       <r>    5.0593    1.0000 </r>
       <r>    5.3219    1.0000 </r>
       <r>    5.3911    1.0000 </r>
       <r>    5.7772    1.0000 </r>
       <r>    5.7975    1.0000 </r>
       <r>    5.8619    1.0000 </r>
       <r>    5.9255    1.0001 </r>
       <r>    6.1862    1.0225 </r>
       <r>    6.2244    1.0310 </r>
       <r>    6.3452    0.9944 </r>
       <r>    6.3636    0.9683 </r>
       <r>    6.6072    0.1338 </r>
       <r>    6.6965   -0.0176 </r>
       <r>    6.7235   -0.0312 </r>
       <r>    7.4967   -0.0000 </r>
       <r>    7.5133   -0.0000 </r>
       <r>    7.5248   -0.0000 </r>
       <r>    7.8350   -0.0000 </r>
       <r>    7.9212   -0.0000 </r>
       <r>    7.9885   -0.0000 </r>
       <r>    8.0552   -0.0000 </r>
       <r>    8.2488   -0.0000 </r>
       <r>    8.3055   -0.0000 </r>
       <r>    8.3688   -0.0000 </r>
       <r>    8.3985   -0.0000 </r>
       <r>    8.7135   -0.0000 </r>
       <r>    9.2075   -0.0000 </r>
       <r>    9.7212   -0.0000 </r>
       <r>    9.7369   -0.0000 </r>
       <r>   10.0461   -0.0000 </r>
       <r>   10.1274   -0.0000 </r>
      </set>
      <set comment="kpoint 35">
       <r>   -3.4897    1.0000 </r>
       <r>   -1.9230    1.0000 </r>
       <r>   -1.5298    1.0000 </r>
       <r>   -1.4115    1.0000 </r>
       <r>   -1.2078    1.0000 </r>
       <r>   -1.0090    1.0000 </r>
       <r>   -0.5946    1.0000 </r>
       <r>   -0.3493    1.0000 </r>
       <r>   -0.2899    1.0000 </r>
       <r>   -0.1468    1.0000 </r>
       <r>   -0.0599    1.0000 </r>
       <r>    0.3172    1.0000 </r>
       <r>    0.5570    1.0000 </r>
       <r>    0.6139    1.0000 </r>
       <r>    1.4426    1.0000 </r>
       <r>    1.8302    1.0000 </r>
       <r>    1.9267    1.0000 </r>
       <r>    2.7113    1.0000 </r>
       <r>    2.7524    1.0000 </r>
       <r>    2.8034    1.0000 </r>
       <r>    3.6205    1.0000 </r>
       <r>    3.6284    1.0000 </r>
       <r>    3.8163    1.0000 </r>
       <r>    4.2012    1.0000 </r>
       <r>    4.2995    1.0000 </r>
       <r>    4.4376    1.0000 </r>
       <r>    4.4905    1.0000 </r>
       <r>    4.5085    1.0000 </r>
       <r>    4.5539    1.0000 </r>
       <r>    4.6579    1.0000 </r>
       <r>    4.7017    1.0000 </r>
       <r>    4.9467    1.0000 </r>
       <r>    5.0373    1.0000 </r>
       <r>    5.0614    1.0000 </r>
       <r>    5.3145    1.0000 </r>
       <r>    5.4014    1.0000 </r>
       <r>    5.7820    1.0000 </r>
       <r>    5.8004    1.0000 </r>
       <r>    5.8549    1.0000 </r>
       <r>    5.9313    1.0002 </r>
       <r>    6.2099    1.0279 </r>
       <r>    6.2346    1.0328 </r>
       <r>    6.3153    1.0214 </r>
       <r>    6.3453    0.9942 </r>
       <r>    6.5707    0.2508 </r>
       <r>    6.7073   -0.0244 </r>
       <r>    6.7428   -0.0350 </r>
       <r>    7.4940   -0.0000 </r>
       <r>    7.5325   -0.0000 </r>
       <r>    7.5380   -0.0000 </r>
       <r>    7.8350   -0.0000 </r>
       <r>    7.9247   -0.0000 </r>
       <r>    7.9861   -0.0000 </r>
       <r>    8.0533   -0.0000 </r>
       <r>    8.2186   -0.0000 </r>
       <r>    8.2913   -0.0000 </r>
       <r>    8.3796   -0.0000 </r>
       <r>    8.4085   -0.0000 </r>
       <r>    8.7238   -0.0000 </r>
       <r>    9.2024   -0.0000 </r>
       <r>    9.7303   -0.0000 </r>
       <r>    9.7360   -0.0000 </r>
       <r>   10.0446   -0.0000 </r>
       <r>   10.1464   -0.0000 </r>
      </set>
      <set comment="kpoint 36">
       <r>   -3.4902    1.0000 </r>
       <r>   -1.9135    1.0000 </r>
       <r>   -1.5489    1.0000 </r>
       <r>   -1.3883    1.0000 </r>
       <r>   -1.2363    1.0000 </r>
       <r>   -0.9887    1.0000 </r>
       <r>   -0.5741    1.0000 </r>
       <r>   -0.4334    1.0000 </r>
       <r>   -0.2579    1.0000 </r>
       <r>   -0.1625    1.0000 </r>
       <r>   -0.0009    1.0000 </r>
       <r>    0.3389    1.0000 </r>
       <r>    0.4817    1.0000 </r>
       <r>    0.6464    1.0000 </r>
       <r>    1.4465    1.0000 </r>
       <r>    1.8008    1.0000 </r>
       <r>    1.9667    1.0000 </r>
       <r>    2.6679    1.0000 </r>
       <r>    2.7585    1.0000 </r>
       <r>    2.8414    1.0000 </r>
       <r>    3.6104    1.0000 </r>
       <r>    3.6305    1.0000 </r>
       <r>    3.8203    1.0000 </r>
       <r>    4.1689    1.0000 </r>
       <r>    4.3454    1.0000 </r>
       <r>    4.3947    1.0000 </r>
       <r>    4.4852    1.0000 </r>
       <r>    4.5166    1.0000 </r>
       <r>    4.5744    1.0000 </r>
       <r>    4.6655    1.0000 </r>
       <r>    4.7146    1.0000 </r>
       <r>    4.9418    1.0000 </r>
       <r>    5.0188    1.0000 </r>
       <r>    5.0672    1.0000 </r>
       <r>    5.2728    1.0000 </r>
       <r>    5.4404    1.0000 </r>
       <r>    5.7661    1.0000 </r>
       <r>    5.7736    1.0000 </r>
       <r>    5.8283    1.0000 </r>
       <r>    5.9832    1.0006 </r>
       <r>    6.2270    1.0315 </r>
       <r>    6.2475    1.0346 </r>
       <r>    6.2993    1.0293 </r>
       <r>    6.3547    0.9819 </r>
       <r>    6.5973    0.1628 </r>
       <r>    6.6522    0.0340 </r>
       <r>    6.7687   -0.0347 </r>
       <r>    7.4799   -0.0000 </r>
       <r>    7.5227   -0.0000 </r>
       <r>    7.5495   -0.0000 </r>
       <r>    7.8421   -0.0000 </r>
       <r>    7.8907   -0.0000 </r>
       <r>    8.0280   -0.0000 </r>
       <r>    8.0545   -0.0000 </r>
       <r>    8.2079   -0.0000 </r>
       <r>    8.3010   -0.0000 </r>
       <r>    8.3683   -0.0000 </r>
       <r>    8.4229   -0.0000 </r>
       <r>    8.7191   -0.0000 </r>
       <r>    9.1969   -0.0000 </r>
       <r>    9.7216   -0.0000 </r>
       <r>    9.7368   -0.0000 </r>
       <r>   10.0125   -0.0000 </r>
       <r>   10.1830   -0.0000 </r>
      </set>
      <set comment="kpoint 37">
       <r>   -3.4898    1.0000 </r>
       <r>   -1.9241    1.0000 </r>
       <r>   -1.4975    1.0000 </r>
       <r>   -1.4393    1.0000 </r>
       <r>   -1.2211    1.0000 </r>
       <r>   -0.9997    1.0000 </r>
       <r>   -0.5935    1.0000 </r>
       <r>   -0.3696    1.0000 </r>
       <r>   -0.2937    1.0000 </r>
       <r>   -0.1101    1.0000 </r>
       <r>   -0.0686    1.0000 </r>
       <r>    0.3325    1.0000 </r>
       <r>    0.5432    1.0000 </r>
       <r>    0.6031    1.0000 </r>
       <r>    1.4465    1.0000 </r>
       <r>    1.8580    1.0000 </r>
       <r>    1.9037    1.0000 </r>
       <r>    2.7168    1.0000 </r>
       <r>    2.7559    1.0000 </r>
       <r>    2.7900    1.0000 </r>
       <r>    3.6126    1.0000 </r>
       <r>    3.6245    1.0000 </r>
       <r>    3.8167    1.0000 </r>
       <r>    4.2280    1.0000 </r>
       <r>    4.2788    1.0000 </r>
       <r>    4.4404    1.0000 </r>
       <r>    4.4937    1.0000 </r>
       <r>    4.5251    1.0000 </r>
       <r>    4.5767    1.0000 </r>
       <r>    4.6141    1.0000 </r>
       <r>    4.7083    1.0000 </r>
       <r>    4.9443    1.0000 </r>
       <r>    5.0437    1.0000 </r>
       <r>    5.0538    1.0000 </r>
       <r>    5.3295    1.0000 </r>
       <r>    5.3907    1.0000 </r>
       <r>    5.7744    1.0000 </r>
       <r>    5.7785    1.0000 </r>
       <r>    5.8754    1.0000 </r>
       <r>    5.9201    1.0001 </r>
       <r>    6.2261    1.0313 </r>
       <r>    6.2498    1.0348 </r>
       <r>    6.3111    1.0238 </r>
       <r>    6.3367    1.0038 </r>
       <r>    6.6052    0.1396 </r>
       <r>    6.6743    0.0031 </r>
       <r>    6.7443   -0.0351 </r>
       <r>    7.4833   -0.0000 </r>
       <r>    7.5226   -0.0000 </r>
       <r>    7.5400   -0.0000 </r>
       <r>    7.8432   -0.0000 </r>
       <r>    7.9400   -0.0000 </r>
       <r>    7.9717   -0.0000 </r>
       <r>    8.0622   -0.0000 </r>
       <r>    8.2394   -0.0000 </r>
       <r>    8.2839   -0.0000 </r>
       <r>    8.3611   -0.0000 </r>
       <r>    8.4084   -0.0000 </r>
       <r>    8.7274   -0.0000 </r>
       <r>    9.1993   -0.0000 </r>
       <r>    9.7239   -0.0000 </r>
       <r>    9.7363   -0.0000 </r>
       <r>   10.0738   -0.0000 </r>
       <r>   10.1225   -0.0000 </r>
      </set>
      <set comment="kpoint 38">
       <r>   -3.4900    1.0000 </r>
       <r>   -1.9221    1.0000 </r>
       <r>   -1.5104    1.0000 </r>
       <r>   -1.4318    1.0000 </r>
       <r>   -1.2182    1.0000 </r>
       <r>   -0.9920    1.0000 </r>
       <r>   -0.5929    1.0000 </r>
       <r>   -0.3677    1.0000 </r>
       <r>   -0.3055    1.0000 </r>
       <r>   -0.1382    1.0000 </r>
       <r>   -0.0434    1.0000 </r>
       <r>    0.3323    1.0000 </r>
       <r>    0.5394    1.0000 </r>
       <r>    0.6133    1.0000 </r>
       <r>    1.4465    1.0000 </r>
       <r>    1.8396    1.0000 </r>
       <r>    1.9141    1.0000 </r>
       <r>    2.7186    1.0000 </r>
       <r>    2.7649    1.0000 </r>
       <r>    2.7981    1.0000 </r>
       <r>    3.6157    1.0000 </r>
       <r>    3.6257    1.0000 </r>
       <r>    3.8114    1.0000 </r>
       <r>    4.2132    1.0000 </r>
       <r>    4.3050    1.0000 </r>
       <r>    4.4163    1.0000 </r>
       <r>    4.4712    1.0000 </r>
       <r>    4.5078    1.0000 </r>
       <r>    4.5722    1.0000 </r>
       <r>    4.6494    1.0000 </r>
       <r>    4.7177    1.0000 </r>
       <r>    4.9385    1.0000 </r>
       <r>    5.0289    1.0000 </r>
       <r>    5.0610    1.0000 </r>
       <r>    5.3303    1.0000 </r>
       <r>    5.3984    1.0000 </r>
       <r>    5.7706    1.0000 </r>
       <r>    5.7912    1.0000 </r>
       <r>    5.8629    1.0000 </r>
       <r>    5.9369    1.0002 </r>
       <r>    6.2293    1.0319 </r>
       <r>    6.2486    1.0347 </r>
       <r>    6.3106    1.0241 </r>
       <r>    6.3275    1.0124 </r>
       <r>    6.5979    0.1609 </r>
       <r>    6.6721    0.0057 </r>
       <r>    6.7459   -0.0352 </r>
       <r>    7.4872   -0.0000 </r>
       <r>    7.5366   -0.0000 </r>
       <r>    7.5529   -0.0000 </r>
       <r>    7.8349   -0.0000 </r>
       <r>    7.9269   -0.0000 </r>
       <r>    8.0013   -0.0000 </r>
       <r>    8.0377   -0.0000 </r>
       <r>    8.2184   -0.0000 </r>
       <r>    8.2882   -0.0000 </r>
       <r>    8.3634   -0.0000 </r>
       <r>    8.4158   -0.0000 </r>
       <r>    8.7264   -0.0000 </r>
       <r>    9.2023   -0.0000 </r>
       <r>    9.7270   -0.0000 </r>
       <r>    9.7347   -0.0000 </r>
       <r>   10.0543   -0.0000 </r>
       <r>   10.1353   -0.0000 </r>
      </set>
      <set comment="kpoint 39">
       <r>   -3.4897    1.0000 </r>
       <r>   -1.9211    1.0000 </r>
       <r>   -1.5333    1.0000 </r>
       <r>   -1.4110    1.0000 </r>
       <r>   -1.2106    1.0000 </r>
       <r>   -1.0093    1.0000 </r>
       <r>   -0.5871    1.0000 </r>
       <r>   -0.3581    1.0000 </r>
       <r>   -0.2985    1.0000 </r>
       <r>   -0.1309    1.0000 </r>
       <r>   -0.0504    1.0000 </r>
       <r>    0.3140    1.0000 </r>
       <r>    0.5508    1.0000 </r>
       <r>    0.6090    1.0000 </r>
       <r>    1.4468    1.0000 </r>
       <r>    1.8289    1.0000 </r>
       <r>    1.9253    1.0000 </r>
       <r>    2.7078    1.0000 </r>
       <r>    2.7590    1.0000 </r>
       <r>    2.8042    1.0000 </r>
       <r>    3.6136    1.0000 </r>
       <r>    3.6341    1.0000 </r>
       <r>    3.8105    1.0000 </r>
       <r>    4.2071    1.0000 </r>
       <r>    4.2998    1.0000 </r>
       <r>    4.4373    1.0000 </r>
       <r>    4.4732    1.0000 </r>
       <r>    4.5105    1.0000 </r>
       <r>    4.5666    1.0000 </r>
       <r>    4.6576    1.0000 </r>
       <r>    4.7096    1.0000 </r>
       <r>    4.9149    1.0000 </r>
       <r>    5.0385    1.0000 </r>
       <r>    5.0791    1.0000 </r>
       <r>    5.3205    1.0000 </r>
       <r>    5.3929    1.0000 </r>
       <r>    5.7745    1.0000 </r>
       <r>    5.7961    1.0000 </r>
       <r>    5.8569    1.0000 </r>
       <r>    5.9502    1.0003 </r>
       <r>    6.2344    1.0328 </r>
       <r>    6.2407    1.0337 </r>
       <r>    6.3175    1.0199 </r>
       <r>    6.3384    1.0020 </r>
       <r>    6.5637    0.2765 </r>
       <r>    6.6984   -0.0190 </r>
       <r>    6.7455   -0.0352 </r>
       <r>    7.4823   -0.0000 </r>
       <r>    7.5309   -0.0000 </r>
       <r>    7.5394   -0.0000 </r>
       <r>    7.8229   -0.0000 </r>
       <r>    7.9299   -0.0000 </r>
       <r>    7.9879   -0.0000 </r>
       <r>    8.0615   -0.0000 </r>
       <r>    8.2138   -0.0000 </r>
       <r>    8.2888   -0.0000 </r>
       <r>    8.3623   -0.0000 </r>
       <r>    8.4143   -0.0000 </r>
       <r>    8.7394   -0.0000 </r>
       <r>    9.1983   -0.0000 </r>
       <r>    9.7276   -0.0000 </r>
       <r>    9.7372   -0.0000 </r>
       <r>   10.0423   -0.0000 </r>
       <r>   10.1464   -0.0000 </r>
      </set>
      <set comment="kpoint 40">
       <r>   -3.4901    1.0000 </r>
       <r>   -1.9175    1.0000 </r>
       <r>   -1.5067    1.0000 </r>
       <r>   -1.4288    1.0000 </r>
       <r>   -1.2467    1.0000 </r>
       <r>   -0.9876    1.0000 </r>
       <r>   -0.5825    1.0000 </r>
       <r>   -0.3618    1.0000 </r>
       <r>   -0.3145    1.0000 </r>
       <r>   -0.1302    1.0000 </r>
       <r>   -0.0309    1.0000 </r>
       <r>    0.3384    1.0000 </r>
       <r>    0.5312    1.0000 </r>
       <r>    0.5961    1.0000 </r>
       <r>    1.4488    1.0000 </r>
       <r>    1.8474    1.0000 </r>
       <r>    1.9150    1.0000 </r>
       <r>    2.7109    1.0000 </r>
       <r>    2.7574    1.0000 </r>
       <r>    2.7994    1.0000 </r>
       <r>    3.6121    1.0000 </r>
       <r>    3.6298    1.0000 </r>
       <r>    3.8049    1.0000 </r>
       <r>    4.2063    1.0000 </r>
       <r>    4.3012    1.0000 </r>
       <r>    4.4260    1.0000 </r>
       <r>    4.4806    1.0000 </r>
       <r>    4.5202    1.0000 </r>
       <r>    4.5773    1.0000 </r>
       <r>    4.6554    1.0000 </r>
       <r>    4.7137    1.0000 </r>
       <r>    4.9285    1.0000 </r>
       <r>    5.0233    1.0000 </r>
       <r>    5.0742    1.0000 </r>
       <r>    5.3235    1.0000 </r>
       <r>    5.4017    1.0000 </r>
       <r>    5.7652    1.0000 </r>
       <r>    5.7767    1.0000 </r>
       <r>    5.8729    1.0000 </r>
       <r>    5.9442    1.0002 </r>
       <r>    6.2178    1.0296 </r>
       <r>    6.2486    1.0347 </r>
       <r>    6.3096    1.0246 </r>
       <r>    6.3404    0.9999 </r>
       <r>    6.6061    0.1369 </r>
       <r>    6.6904   -0.0129 </r>
       <r>    6.7203   -0.0302 </r>
       <r>    7.4804   -0.0000 </r>
       <r>    7.5243   -0.0000 </r>
       <r>    7.5404   -0.0000 </r>
       <r>    7.8488   -0.0000 </r>
       <r>    7.9315   -0.0000 </r>
       <r>    7.9754   -0.0000 </r>
       <r>    8.0538   -0.0000 </r>
       <r>    8.2478   -0.0000 </r>
       <r>    8.2951   -0.0000 </r>
       <r>    8.3684   -0.0000 </r>
       <r>    8.3857   -0.0000 </r>
       <r>    8.7334   -0.0000 </r>
       <r>    9.1986   -0.0000 </r>
       <r>    9.7276   -0.0000 </r>
       <r>    9.7402   -0.0000 </r>
       <r>   10.0487   -0.0000 </r>
       <r>   10.1244   -0.0000 </r>
      </set>
      <set comment="kpoint 41">
       <r>   -3.2650    1.0000 </r>
       <r>   -2.1483    1.0000 </r>
       <r>   -1.9277    1.0000 </r>
       <r>   -1.6925    1.0000 </r>
       <r>   -1.6370    1.0000 </r>
       <r>   -1.2215    1.0000 </r>
       <r>   -0.1656    1.0000 </r>
       <r>   -0.0965    1.0000 </r>
       <r>    0.1194    1.0000 </r>
       <r>    0.5346    1.0000 </r>
       <r>    0.5817    1.0000 </r>
       <r>    0.7402    1.0000 </r>
       <r>    0.8022    1.0000 </r>
       <r>    1.0276    1.0000 </r>
       <r>    1.2123    1.0000 </r>
       <r>    1.2509    1.0000 </r>
       <r>    2.0664    1.0000 </r>
       <r>    2.1286    1.0000 </r>
       <r>    2.5261    1.0000 </r>
       <r>    2.7434    1.0000 </r>
       <r>    2.9687    1.0000 </r>
       <r>    3.1585    1.0000 </r>
       <r>    3.2129    1.0000 </r>
       <r>    3.6379    1.0000 </r>
       <r>    3.8521    1.0000 </r>
       <r>    3.8669    1.0000 </r>
       <r>    4.2546    1.0000 </r>
       <r>    4.3736    1.0000 </r>
       <r>    4.4302    1.0000 </r>
       <r>    4.7106    1.0000 </r>
       <r>    4.8141    1.0000 </r>
       <r>    4.8328    1.0000 </r>
       <r>    5.1448    1.0000 </r>
       <r>    5.1583    1.0000 </r>
       <r>    5.5206    1.0000 </r>
       <r>    5.5772    1.0000 </r>
       <r>    5.9638    1.0004 </r>
       <r>    6.0082    1.0011 </r>
       <r>    6.0393    1.0022 </r>
       <r>    6.3441    0.9957 </r>
       <r>    6.4211    0.8341 </r>
       <r>    6.4564    0.7130 </r>
       <r>    6.4869    0.5913 </r>
       <r>    6.5235    0.4376 </r>
       <r>    6.5558    0.3067 </r>
       <r>    6.6044    0.1417 </r>
       <r>    6.9508   -0.0038 </r>
       <r>    6.9744   -0.0024 </r>
       <r>    8.1575   -0.0000 </r>
       <r>    8.1702   -0.0000 </r>
       <r>    8.5260   -0.0000 </r>
       <r>    8.5730   -0.0000 </r>
       <r>    8.6133   -0.0000 </r>
       <r>    9.0255   -0.0000 </r>
       <r>    9.0729   -0.0000 </r>
       <r>    9.2842   -0.0000 </r>
       <r>    9.3600   -0.0000 </r>
       <r>    9.3731   -0.0000 </r>
       <r>    9.4487   -0.0000 </r>
       <r>    9.4842   -0.0000 </r>
       <r>    9.5193   -0.0000 </r>
       <r>    9.5882   -0.0000 </r>
       <r>    9.7120   -0.0000 </r>
       <r>    9.7788   -0.0000 </r>
      </set>
      <set comment="kpoint 42">
       <r>   -3.2652    1.0000 </r>
       <r>   -2.1592    1.0000 </r>
       <r>   -1.8847    1.0000 </r>
       <r>   -1.7384    1.0000 </r>
       <r>   -1.6253    1.0000 </r>
       <r>   -1.2203    1.0000 </r>
       <r>   -0.1754    1.0000 </r>
       <r>   -0.0688    1.0000 </r>
       <r>    0.1118    1.0000 </r>
       <r>    0.4770    1.0000 </r>
       <r>    0.5968    1.0000 </r>
       <r>    0.7376    1.0000 </r>
       <r>    0.8647    1.0000 </r>
       <r>    1.0060    1.0000 </r>
       <r>    1.1712    1.0000 </r>
       <r>    1.2866    1.0000 </r>
       <r>    2.0458    1.0000 </r>
       <r>    2.1570    1.0000 </r>
       <r>    2.5230    1.0000 </r>
       <r>    2.7460    1.0000 </r>
       <r>    2.9716    1.0000 </r>
       <r>    3.1272    1.0000 </r>
       <r>    3.2486    1.0000 </r>
       <r>    3.6366    1.0000 </r>
       <r>    3.8375    1.0000 </r>
       <r>    3.8569    1.0000 </r>
       <r>    4.2839    1.0000 </r>
       <r>    4.3323    1.0000 </r>
       <r>    4.4521    1.0000 </r>
       <r>    4.7206    1.0000 </r>
       <r>    4.7953    1.0000 </r>
       <r>    4.8236    1.0000 </r>
       <r>    5.1546    1.0000 </r>
       <r>    5.1783    1.0000 </r>
       <r>    5.4840    1.0000 </r>
       <r>    5.6076    1.0000 </r>
       <r>    5.9643    1.0004 </r>
       <r>    6.0107    1.0012 </r>
       <r>    6.0518    1.0029 </r>
       <r>    6.3233    1.0157 </r>
       <r>    6.4062    0.8768 </r>
       <r>    6.4476    0.7455 </r>
       <r>    6.4898    0.5794 </r>
       <r>    6.5000    0.5366 </r>
       <r>    6.5923    0.1779 </r>
       <r>    6.6114    0.1226 </r>
       <r>    6.9449   -0.0043 </r>
       <r>    6.9843   -0.0020 </r>
       <r>    8.1509   -0.0000 </r>
       <r>    8.1719   -0.0000 </r>
       <r>    8.5245   -0.0000 </r>
       <r>    8.5435   -0.0000 </r>
       <r>    8.6404   -0.0000 </r>
       <r>    8.9872   -0.0000 </r>
       <r>    9.1100   -0.0000 </r>
       <r>    9.2659   -0.0000 </r>
       <r>    9.3672   -0.0000 </r>
       <r>    9.3902   -0.0000 </r>
       <r>    9.4570   -0.0000 </r>
       <r>    9.4728   -0.0000 </r>
       <r>    9.5214   -0.0000 </r>
       <r>    9.6051   -0.0000 </r>
       <r>    9.6937   -0.0000 </r>
       <r>    9.8083   -0.0000 </r>
      </set>
      <set comment="kpoint 43">
       <r>   -3.2656    1.0000 </r>
       <r>   -2.1445    1.0000 </r>
       <r>   -1.9292    1.0000 </r>
       <r>   -1.7017    1.0000 </r>
       <r>   -1.6300    1.0000 </r>
       <r>   -1.2155    1.0000 </r>
       <r>   -0.1758    1.0000 </r>
       <r>   -0.0985    1.0000 </r>
       <r>    0.1223    1.0000 </r>
       <r>    0.5107    1.0000 </r>
       <r>    0.5951    1.0000 </r>
       <r>    0.7361    1.0000 </r>
       <r>    0.8186    1.0000 </r>
       <r>    1.0277    1.0000 </r>
       <r>    1.1961    1.0000 </r>
       <r>    1.2613    1.0000 </r>
       <r>    2.0722    1.0000 </r>
       <r>    2.1433    1.0000 </r>
       <r>    2.5215    1.0000 </r>
       <r>    2.7422    1.0000 </r>
       <r>    2.9662    1.0000 </r>
       <r>    3.1551    1.0000 </r>
       <r>    3.2264    1.0000 </r>
       <r>    3.6320    1.0000 </r>
       <r>    3.8533    1.0000 </r>
       <r>    3.8684    1.0000 </r>
       <r>    4.2518    1.0000 </r>
       <r>    4.3593    1.0000 </r>
       <r>    4.4356    1.0000 </r>
       <r>    4.7121    1.0000 </r>
       <r>    4.8113    1.0000 </r>
       <r>    4.8291    1.0000 </r>
       <r>    5.1477    1.0000 </r>
       <r>    5.1610    1.0000 </r>
       <r>    5.5038    1.0000 </r>
       <r>    5.5780    1.0000 </r>
       <r>    5.9648    1.0004 </r>
       <r>    6.0087    1.0012 </r>
       <r>    6.0513    1.0028 </r>
       <r>    6.3594    0.9750 </r>
       <r>    6.4206    0.8357 </r>
       <r>    6.4252    0.8214 </r>
       <r>    6.4967    0.5504 </r>
       <r>    6.5076    0.5044 </r>
       <r>    6.5826    0.2097 </r>
       <r>    6.6016    0.1499 </r>
       <r>    6.9489   -0.0040 </r>
       <r>    6.9642   -0.0029 </r>
       <r>    8.1614   -0.0000 </r>
       <r>    8.1813   -0.0000 </r>
       <r>    8.5314   -0.0000 </r>
       <r>    8.5635   -0.0000 </r>
       <r>    8.6271   -0.0000 </r>
       <r>    9.0100   -0.0000 </r>
       <r>    9.0904   -0.0000 </r>
       <r>    9.2642   -0.0000 </r>
       <r>    9.3508   -0.0000 </r>
       <r>    9.3887   -0.0000 </r>
       <r>    9.4325   -0.0000 </r>
       <r>    9.4828   -0.0000 </r>
       <r>    9.5194   -0.0000 </r>
       <r>    9.6037   -0.0000 </r>
       <r>    9.7049   -0.0000 </r>
       <r>    9.7832   -0.0000 </r>
      </set>
      <set comment="kpoint 44">
       <r>   -3.2655    1.0000 </r>
       <r>   -2.1412    1.0000 </r>
       <r>   -1.9264    1.0000 </r>
       <r>   -1.6998    1.0000 </r>
       <r>   -1.6446    1.0000 </r>
       <r>   -1.2160    1.0000 </r>
       <r>   -0.1696    1.0000 </r>
       <r>   -0.0836    1.0000 </r>
       <r>    0.1170    1.0000 </r>
       <r>    0.5139    1.0000 </r>
       <r>    0.5956    1.0000 </r>
       <r>    0.7300    1.0000 </r>
       <r>    0.8213    1.0000 </r>
       <r>    1.0151    1.0000 </r>
       <r>    1.2056    1.0000 </r>
       <r>    1.2661    1.0000 </r>
       <r>    2.0566    1.0000 </r>
       <r>    2.1337    1.0000 </r>
       <r>    2.5234    1.0000 </r>
       <r>    2.7360    1.0000 </r>
       <r>    2.9773    1.0000 </r>
       <r>    3.1540    1.0000 </r>
       <r>    3.2330    1.0000 </r>
       <r>    3.6275    1.0000 </r>
       <r>    3.8496    1.0000 </r>
       <r>    3.8686    1.0000 </r>
       <r>    4.2546    1.0000 </r>
       <r>    4.3679    1.0000 </r>
       <r>    4.4279    1.0000 </r>
       <r>    4.7135    1.0000 </r>
       <r>    4.8114    1.0000 </r>
       <r>    4.8415    1.0000 </r>
       <r>    5.1408    1.0000 </r>
       <r>    5.1552    1.0000 </r>
       <r>    5.5135    1.0000 </r>
       <r>    5.5846    1.0000 </r>
       <r>    5.9525    1.0003 </r>
       <r>    6.0184    1.0014 </r>
       <r>    6.0541    1.0030 </r>
       <r>    6.3391    1.0013 </r>
       <r>    6.3921    0.9121 </r>
       <r>    6.4666    0.6735 </r>
       <r>    6.4999    0.5371 </r>
       <r>    6.5175    0.4627 </r>
       <r>    6.5806    0.2164 </r>
       <r>    6.5995    0.1562 </r>
       <r>    6.9406   -0.0046 </r>
       <r>    6.9737   -0.0024 </r>
       <r>    8.1578   -0.0000 </r>
       <r>    8.1703   -0.0000 </r>
       <r>    8.5181   -0.0000 </r>
       <r>    8.5694   -0.0000 </r>
       <r>    8.6194   -0.0000 </r>
       <r>    9.0101   -0.0000 </r>
       <r>    9.0826   -0.0000 </r>
       <r>    9.2641   -0.0000 </r>
       <r>    9.3603   -0.0000 </r>
       <r>    9.3848   -0.0000 </r>
       <r>    9.4601   -0.0000 </r>
       <r>    9.4892   -0.0000 </r>
       <r>    9.5249   -0.0000 </r>
       <r>    9.5773   -0.0000 </r>
       <r>    9.7218   -0.0000 </r>
       <r>    9.7839   -0.0000 </r>
      </set>
      <set comment="kpoint 45">
       <r>   -3.2662    1.0000 </r>
       <r>   -2.1358    1.0000 </r>
       <r>   -1.9221    1.0000 </r>
       <r>   -1.7574    1.0000 </r>
       <r>   -1.5863    1.0000 </r>
       <r>   -1.2187    1.0000 </r>
       <r>   -0.2144    1.0000 </r>
       <r>   -0.0465    1.0000 </r>
       <r>    0.1191    1.0000 </r>
       <r>    0.4745    1.0000 </r>
       <r>    0.6448    1.0000 </r>
       <r>    0.6971    1.0000 </r>
       <r>    0.8402    1.0000 </r>
       <r>    1.0180    1.0000 </r>
       <r>    1.1564    1.0000 </r>
       <r>    1.3190    1.0000 </r>
       <r>    2.0153    1.0000 </r>
       <r>    2.1836    1.0000 </r>
       <r>    2.5186    1.0000 </r>
       <r>    2.7410    1.0000 </r>
       <r>    2.9797    1.0000 </r>
       <r>    3.1186    1.0000 </r>
       <r>    3.2653    1.0000 </r>
       <r>    3.6339    1.0000 </r>
       <r>    3.8413    1.0000 </r>
       <r>    3.8691    1.0000 </r>
       <r>    4.2589    1.0000 </r>
       <r>    4.3204    1.0000 </r>
       <r>    4.4728    1.0000 </r>
       <r>    4.7133    1.0000 </r>
       <r>    4.8030    1.0000 </r>
       <r>    4.8435    1.0000 </r>
       <r>    5.1403    1.0000 </r>
       <r>    5.1601    1.0000 </r>
       <r>    5.4577    1.0000 </r>
       <r>    5.6316    1.0000 </r>
       <r>    5.9735    1.0005 </r>
       <r>    6.0045    1.0011 </r>
       <r>    6.0424    1.0024 </r>
       <r>    6.2820    1.0340 </r>
       <r>    6.4088    0.8697 </r>
       <r>    6.4445    0.7564 </r>
       <r>    6.4880    0.5870 </r>
       <r>    6.5479    0.3375 </r>
       <r>    6.5799    0.2186 </r>
       <r>    6.6370    0.0622 </r>
       <r>    6.9362   -0.0050 </r>
       <r>    6.9840   -0.0020 </r>
       <r>    8.1570   -0.0000 </r>
       <r>    8.1764   -0.0000 </r>
       <r>    8.5127   -0.0000 </r>
       <r>    8.5373   -0.0000 </r>
       <r>    8.6597   -0.0000 </r>
       <r>    8.9725   -0.0000 </r>
       <r>    9.1327   -0.0000 </r>
       <r>    9.2807   -0.0000 </r>
       <r>    9.3493   -0.0000 </r>
       <r>    9.3926   -0.0000 </r>
       <r>    9.4438   -0.0000 </r>
       <r>    9.4626   -0.0000 </r>
       <r>    9.5128   -0.0000 </r>
       <r>    9.6183   -0.0000 </r>
       <r>    9.6729   -0.0000 </r>
       <r>    9.8274   -0.0000 </r>
      </set>
      <set comment="kpoint 46">
       <r>   -3.2660    1.0000 </r>
       <r>   -2.1450    1.0000 </r>
       <r>   -1.9017    1.0000 </r>
       <r>   -1.7381    1.0000 </r>
       <r>   -1.6253    1.0000 </r>
       <r>   -1.2184    1.0000 </r>
       <r>   -0.1817    1.0000 </r>
       <r>   -0.0619    1.0000 </r>
       <r>    0.1106    1.0000 </r>
       <r>    0.4931    1.0000 </r>
       <r>    0.6033    1.0000 </r>
       <r>    0.7211    1.0000 </r>
       <r>    0.8521    1.0000 </r>
       <r>    1.0078    1.0000 </r>
       <r>    1.1773    1.0000 </r>
       <r>    1.2900    1.0000 </r>
       <r>    2.0383    1.0000 </r>
       <r>    2.1570    1.0000 </r>
       <r>    2.5224    1.0000 </r>
       <r>    2.7430    1.0000 </r>
       <r>    2.9793    1.0000 </r>
       <r>    3.1297    1.0000 </r>
       <r>    3.2525    1.0000 </r>
       <r>    3.6316    1.0000 </r>
       <r>    3.8346    1.0000 </r>
       <r>    3.8623    1.0000 </r>
       <r>    4.2804    1.0000 </r>
       <r>    4.3367    1.0000 </r>
       <r>    4.4521    1.0000 </r>
       <r>    4.7140    1.0000 </r>
       <r>    4.8046    1.0000 </r>
       <r>    4.8281    1.0000 </r>
       <r>    5.1401    1.0000 </r>
       <r>    5.1710    1.0000 </r>
       <r>    5.4869    1.0000 </r>
       <r>    5.6087    1.0000 </r>
       <r>    5.9540    1.0003 </r>
       <r>    6.0179    1.0014 </r>
       <r>    6.0568    1.0032 </r>
       <r>    6.3276    1.0123 </r>
       <r>    6.3883    0.9207 </r>
       <r>    6.4552    0.7173 </r>
       <r>    6.4809    0.6163 </r>
       <r>    6.5160    0.4690 </r>
       <r>    6.5836    0.2062 </r>
       <r>    6.6344    0.0675 </r>
       <r>    6.9406   -0.0046 </r>
       <r>    6.9767   -0.0023 </r>
       <r>    8.1542   -0.0000 </r>
       <r>    8.1754   -0.0000 </r>
       <r>    8.5078   -0.0000 </r>
       <r>    8.5520   -0.0000 </r>
       <r>    8.6397   -0.0000 </r>
       <r>    8.9934   -0.0000 </r>
       <r>    9.0990   -0.0000 </r>
       <r>    9.2773   -0.0000 </r>
       <r>    9.3539   -0.0000 </r>
       <r>    9.3831   -0.0000 </r>
       <r>    9.4616   -0.0000 </r>
       <r>    9.4875   -0.0000 </r>
       <r>    9.5135   -0.0000 </r>
       <r>    9.6073   -0.0000 </r>
       <r>    9.6979   -0.0000 </r>
       <r>    9.7994   -0.0000 </r>
      </set>
      <set comment="kpoint 47">
       <r>   -3.2640    1.0000 </r>
       <r>   -2.1599    1.0000 </r>
       <r>   -1.9132    1.0000 </r>
       <r>   -1.6959    1.0000 </r>
       <r>   -1.6380    1.0000 </r>
       <r>   -1.2243    1.0000 </r>
       <r>   -0.1488    1.0000 </r>
       <r>   -0.0954    1.0000 </r>
       <r>    0.1211    1.0000 </r>
       <r>    0.5144    1.0000 </r>
       <r>    0.5744    1.0000 </r>
       <r>    0.7536    1.0000 </r>
       <r>    0.8082    1.0000 </r>
       <r>    1.0217    1.0000 </r>
       <r>    1.1927    1.0000 </r>
       <r>    1.2590    1.0000 </r>
       <r>    2.0812    1.0000 </r>
       <r>    2.1238    1.0000 </r>
       <r>    2.5292    1.0000 </r>
       <r>    2.7369    1.0000 </r>
       <r>    2.9680    1.0000 </r>
       <r>    3.1625    1.0000 </r>
       <r>    3.2080    1.0000 </r>
       <r>    3.6390    1.0000 </r>
       <r>    3.8521    1.0000 </r>
       <r>    3.8693    1.0000 </r>
       <r>    4.2468    1.0000 </r>
       <r>    4.3751    1.0000 </r>
       <r>    4.4349    1.0000 </r>
       <r>    4.7099    1.0000 </r>
       <r>    4.8135    1.0000 </r>
       <r>    4.8250    1.0000 </r>
       <r>    5.1498    1.0000 </r>
       <r>    5.1660    1.0000 </r>
       <r>    5.5275    1.0000 </r>
       <r>    5.5813    1.0000 </r>
       <r>    5.9714    1.0005 </r>
       <r>    6.0061    1.0011 </r>
       <r>    6.0349    1.0020 </r>
       <r>    6.3635    0.9685 </r>
       <r>    6.3977    0.8986 </r>
       <r>    6.4319    0.7997 </r>
       <r>    6.4902    0.5776 </r>
       <r>    6.5249    0.4316 </r>
       <r>    6.5693    0.2559 </r>
       <r>    6.6044    0.1418 </r>
       <r>    6.9548   -0.0035 </r>
       <r>    6.9728   -0.0025 </r>
       <r>    8.1543   -0.0000 </r>
       <r>    8.1648   -0.0000 </r>
       <r>    8.5227   -0.0000 </r>
       <r>    8.5727   -0.0000 </r>
       <r>    8.6228   -0.0000 </r>
       <r>    9.0036   -0.0000 </r>
       <r>    9.0688   -0.0000 </r>
       <r>    9.2917   -0.0000 </r>
       <r>    9.3542   -0.0000 </r>
       <r>    9.3827   -0.0000 </r>
       <r>    9.4401   -0.0000 </r>
       <r>    9.4868   -0.0000 </r>
       <r>    9.5174   -0.0000 </r>
       <r>    9.5845   -0.0000 </r>
       <r>    9.7304   -0.0000 </r>
       <r>    9.7775   -0.0000 </r>
      </set>
      <set comment="kpoint 48">
       <r>   -3.2651    1.0000 </r>
       <r>   -2.1454    1.0000 </r>
       <r>   -1.9343    1.0000 </r>
       <r>   -1.6926    1.0000 </r>
       <r>   -1.6289    1.0000 </r>
       <r>   -1.2266    1.0000 </r>
       <r>   -0.1902    1.0000 </r>
       <r>   -0.0719    1.0000 </r>
       <r>    0.1303    1.0000 </r>
       <r>    0.5145    1.0000 </r>
       <r>    0.5990    1.0000 </r>
       <r>    0.7159    1.0000 </r>
       <r>    0.8232    1.0000 </r>
       <r>    1.0316    1.0000 </r>
       <r>    1.1769    1.0000 </r>
       <r>    1.2750    1.0000 </r>
       <r>    2.0562    1.0000 </r>
       <r>    2.1451    1.0000 </r>
       <r>    2.5266    1.0000 </r>
       <r>    2.7446    1.0000 </r>
       <r>    2.9601    1.0000 </r>
       <r>    3.1506    1.0000 </r>
       <r>    3.2278    1.0000 </r>
       <r>    3.6387    1.0000 </r>
       <r>    3.8517    1.0000 </r>
       <r>    3.8711    1.0000 </r>
       <r>    4.2252    1.0000 </r>
       <r>    4.3922    1.0000 </r>
       <r>    4.4381    1.0000 </r>
       <r>    4.6977    1.0000 </r>
       <r>    4.8165    1.0000 </r>
       <r>    4.8383    1.0000 </r>
       <r>    5.1439    1.0000 </r>
       <r>    5.1610    1.0000 </r>
       <r>    5.5008    1.0000 </r>
       <r>    5.5924    1.0000 </r>
       <r>    5.9824    1.0006 </r>
       <r>    6.0155    1.0013 </r>
       <r>    6.0248    1.0016 </r>
       <r>    6.3556    0.9806 </r>
       <r>    6.3987    0.8963 </r>
       <r>    6.4263    0.8179 </r>
       <r>    6.4777    0.6293 </r>
       <r>    6.5142    0.4766 </r>
       <r>    6.5919    0.1794 </r>
       <r>    6.6255    0.0873 </r>
       <r>    6.9490   -0.0040 </r>
       <r>    6.9748   -0.0024 </r>
       <r>    8.1547   -0.0000 </r>
       <r>    8.1710   -0.0000 </r>
       <r>    8.5287   -0.0000 </r>
       <r>    8.5489   -0.0000 </r>
       <r>    8.6259   -0.0000 </r>
       <r>    9.0036   -0.0000 </r>
       <r>    9.0927   -0.0000 </r>
       <r>    9.2903   -0.0000 </r>
       <r>    9.3548   -0.0000 </r>
       <r>    9.3751   -0.0000 </r>
       <r>    9.4353   -0.0000 </r>
       <r>    9.4763   -0.0000 </r>
       <r>    9.5222   -0.0000 </r>
       <r>    9.6049   -0.0000 </r>
       <r>    9.7047   -0.0000 </r>
       <r>    9.7859   -0.0000 </r>
      </set>
      <set comment="kpoint 49">
       <r>   -3.2645    1.0000 </r>
       <r>   -2.1623    1.0000 </r>
       <r>   -1.8889    1.0000 </r>
       <r>   -1.7610    1.0000 </r>
       <r>   -1.5882    1.0000 </r>
       <r>   -1.2239    1.0000 </r>
       <r>   -0.1990    1.0000 </r>
       <r>   -0.0392    1.0000 </r>
       <r>    0.1190    1.0000 </r>
       <r>    0.4475    1.0000 </r>
       <r>    0.6116    1.0000 </r>
       <r>    0.7181    1.0000 </r>
       <r>    0.8722    1.0000 </r>
       <r>    1.0097    1.0000 </r>
       <r>    1.1516    1.0000 </r>
       <r>    1.3095    1.0000 </r>
       <r>    2.0238    1.0000 </r>
       <r>    2.1887    1.0000 </r>
       <r>    2.5234    1.0000 </r>
       <r>    2.7443    1.0000 </r>
       <r>    2.9666    1.0000 </r>
       <r>    3.1120    1.0000 </r>
       <r>    3.2607    1.0000 </r>
       <r>    3.6377    1.0000 </r>
       <r>    3.8402    1.0000 </r>
       <r>    3.8711    1.0000 </r>
       <r>    4.2635    1.0000 </r>
       <r>    4.3206    1.0000 </r>
       <r>    4.4756    1.0000 </r>
       <r>    4.7161    1.0000 </r>
       <r>    4.7877    1.0000 </r>
       <r>    4.8289    1.0000 </r>
       <r>    5.1581    1.0000 </r>
       <r>    5.1769    1.0000 </r>
       <r>    5.4677    1.0000 </r>
       <r>    5.6421    1.0000 </r>
       <r>    5.9753    1.0005 </r>
       <r>    6.0053    1.0011 </r>
       <r>    6.0283    1.0018 </r>
       <r>    6.2989    1.0295 </r>
       <r>    6.3732    0.9516 </r>
       <r>    6.4502    0.7361 </r>
       <r>    6.5041    0.5194 </r>
       <r>    6.5228    0.4402 </r>
       <r>    6.5855    0.2001 </r>
       <r>    6.6251    0.0880 </r>
       <r>    6.9458   -0.0042 </r>
       <r>    6.9906   -0.0017 </r>
       <r>    8.1511   -0.0000 </r>
       <r>    8.1743   -0.0000 </r>
       <r>    8.5215   -0.0000 </r>
       <r>    8.5433   -0.0000 </r>
       <r>    8.6615   -0.0000 </r>
       <r>    8.9576   -0.0000 </r>
       <r>    9.1186   -0.0000 </r>
       <r>    9.2841   -0.0000 </r>
       <r>    9.3530   -0.0000 </r>
       <r>    9.3683   -0.0000 </r>
       <r>    9.4481   -0.0000 </r>
       <r>    9.4695   -0.0000 </r>
       <r>    9.5139   -0.0000 </r>
       <r>    9.6226   -0.0000 </r>
       <r>    9.6807   -0.0000 </r>
       <r>    9.8356   -0.0000 </r>
      </set>
      <set comment="kpoint 50">
       <r>   -3.2638    1.0000 </r>
       <r>   -2.1689    1.0000 </r>
       <r>   -1.8915    1.0000 </r>
       <r>   -1.7057    1.0000 </r>
       <r>   -1.6442    1.0000 </r>
       <r>   -1.2195    1.0000 </r>
       <r>   -0.1616    1.0000 </r>
       <r>   -0.0759    1.0000 </r>
       <r>    0.1158    1.0000 </r>
       <r>    0.4961    1.0000 </r>
       <r>    0.5652    1.0000 </r>
       <r>    0.7487    1.0000 </r>
       <r>    0.8515    1.0000 </r>
       <r>    1.0080    1.0000 </r>
       <r>    1.1882    1.0000 </r>
       <r>    1.2650    1.0000 </r>
       <r>    2.0692    1.0000 </r>
       <r>    2.1369    1.0000 </r>
       <r>    2.5295    1.0000 </r>
       <r>    2.7267    1.0000 </r>
       <r>    2.9735    1.0000 </r>
       <r>    3.1530    1.0000 </r>
       <r>    3.2270    1.0000 </r>
       <r>    3.6358    1.0000 </r>
       <r>    3.8464    1.0000 </r>
       <r>    3.8665    1.0000 </r>
       <r>    4.2631    1.0000 </r>
       <r>    4.3732    1.0000 </r>
       <r>    4.4223    1.0000 </r>
       <r>    4.7181    1.0000 </r>
       <r>    4.7988    1.0000 </r>
       <r>    4.8247    1.0000 </r>
       <r>    5.1555    1.0000 </r>
       <r>    5.1769    1.0000 </r>
       <r>    5.5136    1.0000 </r>
       <r>    5.5915    1.0000 </r>
       <r>    5.9502    1.0003 </r>
       <r>    6.0001    1.0010 </r>
       <r>    6.0585    1.0033 </r>
       <r>    6.3383    1.0022 </r>
       <r>    6.4103    0.8655 </r>
       <r>    6.4492    0.7397 </r>
       <r>    6.4946    0.5593 </r>
       <r>    6.5108    0.4908 </r>
       <r>    6.5660    0.2682 </r>
       <r>    6.6066    0.1356 </r>
       <r>    6.9565   -0.0034 </r>
       <r>    6.9786   -0.0022 </r>
       <r>    8.1494   -0.0000 </r>
       <r>    8.1631   -0.0000 </r>
       <r>    8.5237   -0.0000 </r>
       <r>    8.5720   -0.0000 </r>
       <r>    8.6288   -0.0000 </r>
       <r>    9.0033   -0.0000 </r>
       <r>    9.0683   -0.0000 </r>
       <r>    9.2570   -0.0000 </r>
       <r>    9.3415   -0.0000 </r>
       <r>    9.4064   -0.0000 </r>
       <r>    9.4592   -0.0000 </r>
       <r>    9.4952   -0.0000 </r>
       <r>    9.5267   -0.0000 </r>
       <r>    9.5972   -0.0000 </r>
       <r>    9.7158   -0.0000 </r>
       <r>    9.7739   -0.0000 </r>
      </set>
      <set comment="kpoint 51">
       <r>   -3.2648    1.0000 </r>
       <r>   -2.1584    1.0000 </r>
       <r>   -1.9106    1.0000 </r>
       <r>   -1.7069    1.0000 </r>
       <r>   -1.6300    1.0000 </r>
       <r>   -1.2170    1.0000 </r>
       <r>   -0.1757    1.0000 </r>
       <r>   -0.0879    1.0000 </r>
       <r>    0.1273    1.0000 </r>
       <r>    0.5082    1.0000 </r>
       <r>    0.5677    1.0000 </r>
       <r>    0.7403    1.0000 </r>
       <r>    0.8378    1.0000 </r>
       <r>    1.0255    1.0000 </r>
       <r>    1.1889    1.0000 </r>
       <r>    1.2547    1.0000 </r>
       <r>    2.0754    1.0000 </r>
       <r>    2.1496    1.0000 </r>
       <r>    2.5245    1.0000 </r>
       <r>    2.7325    1.0000 </r>
       <r>    2.9716    1.0000 </r>
       <r>    3.1504    1.0000 </r>
       <r>    3.2233    1.0000 </r>
       <r>    3.6449    1.0000 </r>
       <r>    3.8541    1.0000 </r>
       <r>    3.8630    1.0000 </r>
       <r>    4.2504    1.0000 </r>
       <r>    4.3672    1.0000 </r>
       <r>    4.4396    1.0000 </r>
       <r>    4.7093    1.0000 </r>
       <r>    4.8069    1.0000 </r>
       <r>    4.8195    1.0000 </r>
       <r>    5.1478    1.0000 </r>
       <r>    5.1691    1.0000 </r>
       <r>    5.5046    1.0000 </r>
       <r>    5.5868    1.0000 </r>
       <r>    5.9534    1.0003 </r>
       <r>    6.0071    1.0011 </r>
       <r>    6.0571    1.0032 </r>
       <r>    6.3258    1.0138 </r>
       <r>    6.4080    0.8718 </r>
       <r>    6.4407    0.7700 </r>
       <r>    6.5034    0.5224 </r>
       <r>    6.5396    0.3707 </r>
       <r>    6.5737    0.2401 </r>
       <r>    6.5892    0.1878 </r>
       <r>    6.9522   -0.0037 </r>
       <r>    6.9759   -0.0023 </r>
       <r>    8.1595   -0.0000 </r>
       <r>    8.1753   -0.0000 </r>
       <r>    8.5300   -0.0000 </r>
       <r>    8.5646   -0.0000 </r>
       <r>    8.6343   -0.0000 </r>
       <r>    9.0045   -0.0000 </r>
       <r>    9.0777   -0.0000 </r>
       <r>    9.2518   -0.0000 </r>
       <r>    9.3531   -0.0000 </r>
       <r>    9.3957   -0.0000 </r>
       <r>    9.4190   -0.0000 </r>
       <r>    9.4844   -0.0000 </r>
       <r>    9.5312   -0.0000 </r>
       <r>    9.6033   -0.0000 </r>
       <r>    9.7092   -0.0000 </r>
       <r>    9.7907   -0.0000 </r>
      </set>
      <set comment="kpoint 52">
       <r>   -3.2652    1.0000 </r>
       <r>   -2.1471    1.0000 </r>
       <r>   -1.9309    1.0000 </r>
       <r>   -1.6945    1.0000 </r>
       <r>   -1.6281    1.0000 </r>
       <r>   -1.2265    1.0000 </r>
       <r>   -0.1862    1.0000 </r>
       <r>   -0.0682    1.0000 </r>
       <r>    0.1220    1.0000 </r>
       <r>    0.5040    1.0000 </r>
       <r>    0.5852    1.0000 </r>
       <r>    0.7280    1.0000 </r>
       <r>    0.8362    1.0000 </r>
       <r>    1.0272    1.0000 </r>
       <r>    1.1826    1.0000 </r>
       <r>    1.2715    1.0000 </r>
       <r>    2.0629    1.0000 </r>
       <r>    2.1471    1.0000 </r>
       <r>    2.5249    1.0000 </r>
       <r>    2.7461    1.0000 </r>
       <r>    2.9569    1.0000 </r>
       <r>    3.1408    1.0000 </r>
       <r>    3.2321    1.0000 </r>
       <r>    3.6326    1.0000 </r>
       <r>    3.8511    1.0000 </r>
       <r>    3.8730    1.0000 </r>
       <r>    4.2362    1.0000 </r>
       <r>    4.3905    1.0000 </r>
       <r>    4.4333    1.0000 </r>
       <r>    4.7030    1.0000 </r>
       <r>    4.8148    1.0000 </r>
       <r>    4.8391    1.0000 </r>
       <r>    5.1452    1.0000 </r>
       <r>    5.1637    1.0000 </r>
       <r>    5.5036    1.0000 </r>
       <r>    5.5945    1.0000 </r>
       <r>    5.9319    1.0002 </r>
       <r>    6.0119    1.0012 </r>
       <r>    6.0742    1.0044 </r>
       <r>    6.3221    1.0166 </r>
       <r>    6.4016    0.8889 </r>
       <r>    6.4501    0.7365 </r>
       <r>    6.5029    0.5243 </r>
       <r>    6.5136    0.4790 </r>
       <r>    6.5835    0.2067 </r>
       <r>    6.6022    0.1482 </r>
       <r>    6.9429   -0.0044 </r>
       <r>    6.9744   -0.0024 </r>
       <r>    8.1638   -0.0000 </r>
       <r>    8.1721   -0.0000 </r>
       <r>    8.5226   -0.0000 </r>
       <r>    8.5711   -0.0000 </r>
       <r>    8.6264   -0.0000 </r>
       <r>    9.0042   -0.0000 </r>
       <r>    9.0906   -0.0000 </r>
       <r>    9.2446   -0.0000 </r>
       <r>    9.3601   -0.0000 </r>
       <r>    9.3844   -0.0000 </r>
       <r>    9.4448   -0.0000 </r>
       <r>    9.4888   -0.0000 </r>
       <r>    9.5384   -0.0000 </r>
       <r>    9.5898   -0.0000 </r>
       <r>    9.7103   -0.0000 </r>
       <r>    9.8014   -0.0000 </r>
      </set>
      <set comment="kpoint 53">
       <r>   -2.8370    1.0000 </r>
       <r>   -2.5630    1.0000 </r>
       <r>   -2.3610    1.0000 </r>
       <r>   -2.1215    1.0000 </r>
       <r>   -1.2378    1.0000 </r>
       <r>   -0.7777    1.0000 </r>
       <r>   -0.5589    1.0000 </r>
       <r>   -0.1143    1.0000 </r>
       <r>    0.3340    1.0000 </r>
       <r>    0.5460    1.0000 </r>
       <r>    0.7683    1.0000 </r>
       <r>    1.0010    1.0000 </r>
       <r>    1.2148    1.0000 </r>
       <r>    1.4395    1.0000 </r>
       <r>    1.6382    1.0000 </r>
       <r>    1.8683    1.0000 </r>
       <r>    1.9195    1.0000 </r>
       <r>    2.1075    1.0000 </r>
       <r>    2.3132    1.0000 </r>
       <r>    2.4918    1.0000 </r>
       <r>    2.5536    1.0000 </r>
       <r>    2.7839    1.0000 </r>
       <r>    2.9916    1.0000 </r>
       <r>    3.1722    1.0000 </r>
       <r>    3.2112    1.0000 </r>
       <r>    3.4125    1.0000 </r>
       <r>    3.6361    1.0000 </r>
       <r>    3.7587    1.0000 </r>
       <r>    3.8597    1.0000 </r>
       <r>    3.9728    1.0000 </r>
       <r>    5.1047    1.0000 </r>
       <r>    5.2599    1.0000 </r>
       <r>    5.3656    1.0000 </r>
       <r>    5.5530    1.0000 </r>
       <r>    5.5903    1.0000 </r>
       <r>    5.8686    1.0000 </r>
       <r>    6.0044    1.0011 </r>
       <r>    6.2017    1.0261 </r>
       <r>    6.4440    0.7585 </r>
       <r>    6.6167    0.1086 </r>
       <r>    6.7256   -0.0318 </r>
       <r>    6.8810   -0.0122 </r>
       <r>    6.9670   -0.0028 </r>
       <r>    7.0492   -0.0004 </r>
       <r>    7.2012   -0.0000 </r>
       <r>    7.4756   -0.0000 </r>
       <r>    7.5262   -0.0000 </r>
       <r>    7.5676   -0.0000 </r>
       <r>    7.6608   -0.0000 </r>
       <r>    7.8057   -0.0000 </r>
       <r>    8.2119   -0.0000 </r>
       <r>    8.3636   -0.0000 </r>
       <r>    8.4479   -0.0000 </r>
       <r>    8.5887   -0.0000 </r>
       <r>    8.6783   -0.0000 </r>
       <r>    8.8596   -0.0000 </r>
       <r>    9.0634   -0.0000 </r>
       <r>    9.1019   -0.0000 </r>
       <r>    9.1987   -0.0000 </r>
       <r>    9.4103   -0.0000 </r>
       <r>    9.4802   -0.0000 </r>
       <r>    9.6947   -0.0000 </r>
       <r>    9.8565   -0.0000 </r>
       <r>   10.0032   -0.0000 </r>
      </set>
      <set comment="kpoint 54">
       <r>   -2.8246    1.0000 </r>
       <r>   -2.5892    1.0000 </r>
       <r>   -2.3633    1.0000 </r>
       <r>   -2.1013    1.0000 </r>
       <r>   -1.2335    1.0000 </r>
       <r>   -0.7885    1.0000 </r>
       <r>   -0.5593    1.0000 </r>
       <r>   -0.1130    1.0000 </r>
       <r>    0.3172    1.0000 </r>
       <r>    0.5630    1.0000 </r>
       <r>    0.7759    1.0000 </r>
       <r>    1.0019    1.0000 </r>
       <r>    1.2116    1.0000 </r>
       <r>    1.4355    1.0000 </r>
       <r>    1.6543    1.0000 </r>
       <r>    1.8654    1.0000 </r>
       <r>    1.8973    1.0000 </r>
       <r>    2.0904    1.0000 </r>
       <r>    2.3415    1.0000 </r>
       <r>    2.5169    1.0000 </r>
       <r>    2.5434    1.0000 </r>
       <r>    2.7507    1.0000 </r>
       <r>    2.9768    1.0000 </r>
       <r>    3.1925    1.0000 </r>
       <r>    3.2201    1.0000 </r>
       <r>    3.4214    1.0000 </r>
       <r>    3.6238    1.0000 </r>
       <r>    3.7561    1.0000 </r>
       <r>    3.8758    1.0000 </r>
       <r>    3.9706    1.0000 </r>
       <r>    5.1361    1.0000 </r>
       <r>    5.2392    1.0000 </r>
       <r>    5.3547    1.0000 </r>
       <r>    5.5648    1.0000 </r>
       <r>    5.5911    1.0000 </r>
       <r>    5.8784    1.0000 </r>
       <r>    5.9898    1.0008 </r>
       <r>    6.1884    1.0230 </r>
       <r>    6.4219    0.8315 </r>
       <r>    6.6234    0.0922 </r>
       <r>    6.7319   -0.0334 </r>
       <r>    6.8796   -0.0124 </r>
       <r>    6.9546   -0.0036 </r>
       <r>    7.0392   -0.0006 </r>
       <r>    7.2169   -0.0000 </r>
       <r>    7.4311   -0.0000 </r>
       <r>    7.5515   -0.0000 </r>
       <r>    7.5797   -0.0000 </r>
       <r>    7.6628   -0.0000 </r>
       <r>    7.8163   -0.0000 </r>
       <r>    8.2279   -0.0000 </r>
       <r>    8.3726   -0.0000 </r>
       <r>    8.4304   -0.0000 </r>
       <r>    8.5794   -0.0000 </r>
       <r>    8.6840   -0.0000 </r>
       <r>    8.8672   -0.0000 </r>
       <r>    9.0567   -0.0000 </r>
       <r>    9.1020   -0.0000 </r>
       <r>    9.1885   -0.0000 </r>
       <r>    9.4426   -0.0000 </r>
       <r>    9.4886   -0.0000 </r>
       <r>    9.6849   -0.0000 </r>
       <r>    9.8564   -0.0000 </r>
       <r>   10.0087   -0.0000 </r>
      </set>
      <set comment="kpoint 55">
       <r>   -2.8241    1.0000 </r>
       <r>   -2.5991    1.0000 </r>
       <r>   -2.3287    1.0000 </r>
       <r>   -2.1343    1.0000 </r>
       <r>   -1.2209    1.0000 </r>
       <r>   -0.7846    1.0000 </r>
       <r>   -0.5650    1.0000 </r>
       <r>   -0.1241    1.0000 </r>
       <r>    0.3374    1.0000 </r>
       <r>    0.5601    1.0000 </r>
       <r>    0.7783    1.0000 </r>
       <r>    0.9712    1.0000 </r>
       <r>    1.2176    1.0000 </r>
       <r>    1.4459    1.0000 </r>
       <r>    1.6562    1.0000 </r>
       <r>    1.8628    1.0000 </r>
       <r>    1.8838    1.0000 </r>
       <r>    2.1178    1.0000 </r>
       <r>    2.3148    1.0000 </r>
       <r>    2.5161    1.0000 </r>
       <r>    2.5611    1.0000 </r>
       <r>    2.7688    1.0000 </r>
       <r>    2.9952    1.0000 </r>
       <r>    3.1616    1.0000 </r>
       <r>    3.2264    1.0000 </r>
       <r>    3.4199    1.0000 </r>
       <r>    3.5950    1.0000 </r>
       <r>    3.7493    1.0000 </r>
       <r>    3.8880    1.0000 </r>
       <r>    3.9810    1.0000 </r>
       <r>    5.1284    1.0000 </r>
       <r>    5.2314    1.0000 </r>
       <r>    5.3556    1.0000 </r>
       <r>    5.5667    1.0000 </r>
       <r>    5.6079    1.0000 </r>
       <r>    5.8689    1.0000 </r>
       <r>    5.9994    1.0009 </r>
       <r>    6.1843    1.0221 </r>
       <r>    6.4327    0.7972 </r>
       <r>    6.6131    0.1181 </r>
       <r>    6.7586   -0.0354 </r>
       <r>    6.8667   -0.0148 </r>
       <r>    6.9609   -0.0031 </r>
       <r>    7.0368   -0.0006 </r>
       <r>    7.2067   -0.0000 </r>
       <r>    7.4667   -0.0000 </r>
       <r>    7.5196   -0.0000 </r>
       <r>    7.5770   -0.0000 </r>
       <r>    7.6589   -0.0000 </r>
       <r>    7.8027   -0.0000 </r>
       <r>    8.2234   -0.0000 </r>
       <r>    8.3774   -0.0000 </r>
       <r>    8.4313   -0.0000 </r>
       <r>    8.5871   -0.0000 </r>
       <r>    8.6788   -0.0000 </r>
       <r>    8.8659   -0.0000 </r>
       <r>    9.0621   -0.0000 </r>
       <r>    9.1030   -0.0000 </r>
       <r>    9.1943   -0.0000 </r>
       <r>    9.4174   -0.0000 </r>
       <r>    9.4907   -0.0000 </r>
       <r>    9.7035   -0.0000 </r>
       <r>    9.8408   -0.0000 </r>
       <r>   10.0210   -0.0000 </r>
      </set>
      <set comment="kpoint 56">
       <r>   -2.8216    1.0000 </r>
       <r>   -2.5965    1.0000 </r>
       <r>   -2.3487    1.0000 </r>
       <r>   -2.1164    1.0000 </r>
       <r>   -1.2312    1.0000 </r>
       <r>   -0.7838    1.0000 </r>
       <r>   -0.5553    1.0000 </r>
       <r>   -0.1231    1.0000 </r>
       <r>    0.3403    1.0000 </r>
       <r>    0.5542    1.0000 </r>
       <r>    0.7643    1.0000 </r>
       <r>    0.9952    1.0000 </r>
       <r>    1.2178    1.0000 </r>
       <r>    1.4354    1.0000 </r>
       <r>    1.6570    1.0000 </r>
       <r>    1.8702    1.0000 </r>
       <r>    1.8811    1.0000 </r>
       <r>    2.1118    1.0000 </r>
       <r>    2.3254    1.0000 </r>
       <r>    2.5122    1.0000 </r>
       <r>    2.5465    1.0000 </r>
       <r>    2.7547    1.0000 </r>
       <r>    2.9927    1.0000 </r>
       <r>    3.1730    1.0000 </r>
       <r>    3.2183    1.0000 </r>
       <r>    3.4312    1.0000 </r>
       <r>    3.6162    1.0000 </r>
       <r>    3.7595    1.0000 </r>
       <r>    3.8735    1.0000 </r>
       <r>    3.9735    1.0000 </r>
       <r>    5.1299    1.0000 </r>
       <r>    5.2381    1.0000 </r>
       <r>    5.3405    1.0000 </r>
       <r>    5.5708    1.0000 </r>
       <r>    5.6016    1.0000 </r>
       <r>    5.8769    1.0000 </r>
       <r>    5.9953    1.0009 </r>
       <r>    6.1920    1.0238 </r>
       <r>    6.4298    0.8068 </r>
       <r>    6.6318    0.0731 </r>
       <r>    6.7406   -0.0347 </r>
       <r>    6.8734   -0.0135 </r>
       <r>    6.9683   -0.0027 </r>
       <r>    7.0391   -0.0006 </r>
       <r>    7.2054   -0.0000 </r>
       <r>    7.4670   -0.0000 </r>
       <r>    7.5173   -0.0000 </r>
       <r>    7.5775   -0.0000 </r>
       <r>    7.6651   -0.0000 </r>
       <r>    7.7902   -0.0000 </r>
       <r>    8.2170   -0.0000 </r>
       <r>    8.3660   -0.0000 </r>
       <r>    8.4427   -0.0000 </r>
       <r>    8.5815   -0.0000 </r>
       <r>    8.6761   -0.0000 </r>
       <r>    8.8788   -0.0000 </r>
       <r>    9.0544   -0.0000 </r>
       <r>    9.1092   -0.0000 </r>
       <r>    9.2013   -0.0000 </r>
       <r>    9.4032   -0.0000 </r>
       <r>    9.5061   -0.0000 </r>
       <r>    9.6995   -0.0000 </r>
       <r>    9.8401   -0.0000 </r>
       <r>   10.0040   -0.0000 </r>
      </set>
      <set comment="kpoint 57">
       <r>   -2.8345    1.0000 </r>
       <r>   -2.5755    1.0000 </r>
       <r>   -2.3536    1.0000 </r>
       <r>   -2.1158    1.0000 </r>
       <r>   -1.2347    1.0000 </r>
       <r>   -0.7783    1.0000 </r>
       <r>   -0.5678    1.0000 </r>
       <r>   -0.1166    1.0000 </r>
       <r>    0.3306    1.0000 </r>
       <r>    0.5434    1.0000 </r>
       <r>    0.7780    1.0000 </r>
       <r>    1.0019    1.0000 </r>
       <r>    1.2125    1.0000 </r>
       <r>    1.4420    1.0000 </r>
       <r>    1.6499    1.0000 </r>
       <r>    1.8601    1.0000 </r>
       <r>    1.9114    1.0000 </r>
       <r>    2.1050    1.0000 </r>
       <r>    2.3147    1.0000 </r>
       <r>    2.5030    1.0000 </r>
       <r>    2.5573    1.0000 </r>
       <r>    2.7706    1.0000 </r>
       <r>    2.9923    1.0000 </r>
       <r>    3.1778    1.0000 </r>
       <r>    3.2204    1.0000 </r>
       <r>    3.4177    1.0000 </r>
       <r>    3.6190    1.0000 </r>
       <r>    3.7590    1.0000 </r>
       <r>    3.8701    1.0000 </r>
       <r>    3.9726    1.0000 </r>
       <r>    5.1111    1.0000 </r>
       <r>    5.2466    1.0000 </r>
       <r>    5.3510    1.0000 </r>
       <r>    5.5687    1.0000 </r>
       <r>    5.5987    1.0000 </r>
       <r>    5.8617    1.0000 </r>
       <r>    6.0002    1.0010 </r>
       <r>    6.1876    1.0228 </r>
       <r>    6.4327    0.7970 </r>
       <r>    6.6197    0.1011 </r>
       <r>    6.7329   -0.0336 </r>
       <r>    6.8747   -0.0133 </r>
       <r>    6.9594   -0.0032 </r>
       <r>    7.0540   -0.0004 </r>
       <r>    7.2091   -0.0000 </r>
       <r>    7.4648   -0.0000 </r>
       <r>    7.5188   -0.0000 </r>
       <r>    7.5811   -0.0000 </r>
       <r>    7.6729   -0.0000 </r>
       <r>    7.8051   -0.0000 </r>
       <r>    8.2125   -0.0000 </r>
       <r>    8.3551   -0.0000 </r>
       <r>    8.4336   -0.0000 </r>
       <r>    8.5903   -0.0000 </r>
       <r>    8.6821   -0.0000 </r>
       <r>    8.8716   -0.0000 </r>
       <r>    9.0726   -0.0000 </r>
       <r>    9.1148   -0.0000 </r>
       <r>    9.2043   -0.0000 </r>
       <r>    9.4227   -0.0000 </r>
       <r>    9.4812   -0.0000 </r>
       <r>    9.6910   -0.0000 </r>
       <r>    9.8481   -0.0000 </r>
       <r>    9.9935   -0.0000 </r>
      </set>
      <set comment="kpoint 58">
       <r>   -2.8261    1.0000 </r>
       <r>   -2.5856    1.0000 </r>
       <r>   -2.3573    1.0000 </r>
       <r>   -2.1139    1.0000 </r>
       <r>   -1.2264    1.0000 </r>
       <r>   -0.7942    1.0000 </r>
       <r>   -0.5538    1.0000 </r>
       <r>   -0.1177    1.0000 </r>
       <r>    0.3323    1.0000 </r>
       <r>    0.5583    1.0000 </r>
       <r>    0.7691    1.0000 </r>
       <r>    0.9949    1.0000 </r>
       <r>    1.2025    1.0000 </r>
       <r>    1.4503    1.0000 </r>
       <r>    1.6525    1.0000 </r>
       <r>    1.8628    1.0000 </r>
       <r>    1.9049    1.0000 </r>
       <r>    2.1035    1.0000 </r>
       <r>    2.3211    1.0000 </r>
       <r>    2.5052    1.0000 </r>
       <r>    2.5510    1.0000 </r>
       <r>    2.7592    1.0000 </r>
       <r>    2.9846    1.0000 </r>
       <r>    3.1858    1.0000 </r>
       <r>    3.2273    1.0000 </r>
       <r>    3.4180    1.0000 </r>
       <r>    3.6172    1.0000 </r>
       <r>    3.7504    1.0000 </r>
       <r>    3.8729    1.0000 </r>
       <r>    3.9739    1.0000 </r>
       <r>    5.1319    1.0000 </r>
       <r>    5.2347    1.0000 </r>
       <r>    5.3512    1.0000 </r>
       <r>    5.5681    1.0000 </r>
       <r>    5.6053    1.0000 </r>
       <r>    5.8775    1.0000 </r>
       <r>    5.9925    1.0008 </r>
       <r>    6.1936    1.0242 </r>
       <r>    6.4288    0.8099 </r>
       <r>    6.6202    0.1000 </r>
       <r>    6.7262   -0.0320 </r>
       <r>    6.8849   -0.0115 </r>
       <r>    6.9540   -0.0036 </r>
       <r>    7.0601   -0.0003 </r>
       <r>    7.2128   -0.0000 </r>
       <r>    7.4504   -0.0000 </r>
       <r>    7.5321   -0.0000 </r>
       <r>    7.5816   -0.0000 </r>
       <r>    7.6445   -0.0000 </r>
       <r>    7.8155   -0.0000 </r>
       <r>    8.2052   -0.0000 </r>
       <r>    8.3578   -0.0000 </r>
       <r>    8.4476   -0.0000 </r>
       <r>    8.5920   -0.0000 </r>
       <r>    8.6683   -0.0000 </r>
       <r>    8.8793   -0.0000 </r>
       <r>    9.0665   -0.0000 </r>
       <r>    9.1029   -0.0000 </r>
       <r>    9.1920   -0.0000 </r>
       <r>    9.4201   -0.0000 </r>
       <r>    9.4840   -0.0000 </r>
       <r>    9.6873   -0.0000 </r>
       <r>    9.8561   -0.0000 </r>
       <r>   10.0161   -0.0000 </r>
      </set>
      <set comment="kpoint 59">
       <r>   -2.8171    1.0000 </r>
       <r>   -2.6085    1.0000 </r>
       <r>   -2.3386    1.0000 </r>
       <r>   -2.1172    1.0000 </r>
       <r>   -1.2397    1.0000 </r>
       <r>   -0.7786    1.0000 </r>
       <r>   -0.5506    1.0000 </r>
       <r>   -0.1177    1.0000 </r>
       <r>    0.3229    1.0000 </r>
       <r>    0.5614    1.0000 </r>
       <r>    0.7681    1.0000 </r>
       <r>    0.9849    1.0000 </r>
       <r>    1.2330    1.0000 </r>
       <r>    1.4336    1.0000 </r>
       <r>    1.6553    1.0000 </r>
       <r>    1.8427    1.0000 </r>
       <r>    1.8840    1.0000 </r>
       <r>    2.1257    1.0000 </r>
       <r>    2.3247    1.0000 </r>
       <r>    2.5073    1.0000 </r>
       <r>    2.5732    1.0000 </r>
       <r>    2.7588    1.0000 </r>
       <r>    2.9807    1.0000 </r>
       <r>    3.1735    1.0000 </r>
       <r>    3.2255    1.0000 </r>
       <r>    3.4294    1.0000 </r>
       <r>    3.5983    1.0000 </r>
       <r>    3.7524    1.0000 </r>
       <r>    3.8799    1.0000 </r>
       <r>    3.9743    1.0000 </r>
       <r>    5.1313    1.0000 </r>
       <r>    5.2293    1.0000 </r>
       <r>    5.3562    1.0000 </r>
       <r>    5.5546    1.0000 </r>
       <r>    5.6027    1.0000 </r>
       <r>    5.8829    1.0000 </r>
       <r>    6.0233    1.0016 </r>
       <r>    6.1794    1.0209 </r>
       <r>    6.4326    0.7975 </r>
       <r>    6.6316    0.0734 </r>
       <r>    6.7399   -0.0347 </r>
       <r>    6.8819   -0.0120 </r>
       <r>    6.9488   -0.0040 </r>
       <r>    7.0334   -0.0007 </r>
       <r>    7.2037   -0.0000 </r>
       <r>    7.4512   -0.0000 </r>
       <r>    7.5392   -0.0000 </r>
       <r>    7.5961   -0.0000 </r>
       <r>    7.6458   -0.0000 </r>
       <r>    7.7966   -0.0000 </r>
       <r>    8.2225   -0.0000 </r>
       <r>    8.3749   -0.0000 </r>
       <r>    8.4327   -0.0000 </r>
       <r>    8.5915   -0.0000 </r>
       <r>    8.6782   -0.0000 </r>
       <r>    8.8505   -0.0000 </r>
       <r>    9.0619   -0.0000 </r>
       <r>    9.1001   -0.0000 </r>
       <r>    9.1969   -0.0000 </r>
       <r>    9.4249   -0.0000 </r>
       <r>    9.4784   -0.0000 </r>
       <r>    9.7044   -0.0000 </r>
       <r>    9.8488   -0.0000 </r>
       <r>   10.0011   -0.0000 </r>
      </set>
      <set comment="kpoint 60">
       <r>   -2.8399    1.0000 </r>
       <r>   -2.5679    1.0000 </r>
       <r>   -2.3437    1.0000 </r>
       <r>   -2.1280    1.0000 </r>
       <r>   -1.2399    1.0000 </r>
       <r>   -0.7807    1.0000 </r>
       <r>   -0.5640    1.0000 </r>
       <r>   -0.1086    1.0000 </r>
       <r>    0.3295    1.0000 </r>
       <r>    0.5473    1.0000 </r>
       <r>    0.7790    1.0000 </r>
       <r>    0.9982    1.0000 </r>
       <r>    1.2229    1.0000 </r>
       <r>    1.4296    1.0000 </r>
       <r>    1.6441    1.0000 </r>
       <r>    1.8461    1.0000 </r>
       <r>    1.9172    1.0000 </r>
       <r>    2.1096    1.0000 </r>
       <r>    2.3171    1.0000 </r>
       <r>    2.5188    1.0000 </r>
       <r>    2.5432    1.0000 </r>
       <r>    2.7806    1.0000 </r>
       <r>    2.9975    1.0000 </r>
       <r>    3.1704    1.0000 </r>
       <r>    3.2119    1.0000 </r>
       <r>    3.4023    1.0000 </r>
       <r>    3.6357    1.0000 </r>
       <r>    3.7624    1.0000 </r>
       <r>    3.8697    1.0000 </r>
       <r>    3.9741    1.0000 </r>
       <r>    5.0887    1.0000 </r>
       <r>    5.2685    1.0000 </r>
       <r>    5.3588    1.0000 </r>
       <r>    5.5663    1.0000 </r>
       <r>    5.5849    1.0000 </r>
       <r>    5.8570    1.0000 </r>
       <r>    6.0036    1.0010 </r>
       <r>    6.1998    1.0257 </r>
       <r>    6.4378    0.7800 </r>
       <r>    6.6155    0.1118 </r>
       <r>    6.7249   -0.0316 </r>
       <r>    6.8721   -0.0138 </r>
       <r>    6.9762   -0.0023 </r>
       <r>    7.0409   -0.0005 </r>
       <r>    7.2149   -0.0000 </r>
       <r>    7.4773   -0.0000 </r>
       <r>    7.5189   -0.0000 </r>
       <r>    7.5690   -0.0000 </r>
       <r>    7.6708   -0.0000 </r>
       <r>    7.8087   -0.0000 </r>
       <r>    8.2139   -0.0000 </r>
       <r>    8.3705   -0.0000 </r>
       <r>    8.4236   -0.0000 </r>
       <r>    8.6001   -0.0000 </r>
       <r>    8.6810   -0.0000 </r>
       <r>    8.8511   -0.0000 </r>
       <r>    9.0690   -0.0000 </r>
       <r>    9.1108   -0.0000 </r>
       <r>    9.1926   -0.0000 </r>
       <r>    9.4121   -0.0000 </r>
       <r>    9.5082   -0.0000 </r>
       <r>    9.7025   -0.0000 </r>
       <r>    9.8414   -0.0000 </r>
       <r>   10.0022   -0.0000 </r>
      </set>
      <set comment="kpoint 61">
       <r>   -2.8302    1.0000 </r>
       <r>   -2.5741    1.0000 </r>
       <r>   -2.3693    1.0000 </r>
       <r>   -2.1091    1.0000 </r>
       <r>   -1.2264    1.0000 </r>
       <r>   -0.7812    1.0000 </r>
       <r>   -0.5626    1.0000 </r>
       <r>   -0.1198    1.0000 </r>
       <r>    0.2995    1.0000 </r>
       <r>    0.5682    1.0000 </r>
       <r>    0.7862    1.0000 </r>
       <r>    1.0017    1.0000 </r>
       <r>    1.2142    1.0000 </r>
       <r>    1.4427    1.0000 </r>
       <r>    1.6435    1.0000 </r>
       <r>    1.8627    1.0000 </r>
       <r>    1.9112    1.0000 </r>
       <r>    2.0778    1.0000 </r>
       <r>    2.3293    1.0000 </r>
       <r>    2.5153    1.0000 </r>
       <r>    2.5593    1.0000 </r>
       <r>    2.7728    1.0000 </r>
       <r>    2.9783    1.0000 </r>
       <r>    3.1958    1.0000 </r>
       <r>    3.2206    1.0000 </r>
       <r>    3.4092    1.0000 </r>
       <r>    3.6173    1.0000 </r>
       <r>    3.7457    1.0000 </r>
       <r>    3.8703    1.0000 </r>
       <r>    3.9724    1.0000 </r>
       <r>    5.1172    1.0000 </r>
       <r>    5.2440    1.0000 </r>
       <r>    5.3728    1.0000 </r>
       <r>    5.5669    1.0000 </r>
       <r>    5.5940    1.0000 </r>
       <r>    5.8726    1.0000 </r>
       <r>    5.9939    1.0008 </r>
       <r>    6.2028    1.0263 </r>
       <r>    6.4287    0.8101 </r>
       <r>    6.6007    0.1526 </r>
       <r>    6.7287   -0.0326 </r>
       <r>    6.8834   -0.0118 </r>
       <r>    6.9622   -0.0031 </r>
       <r>    7.0449   -0.0005 </r>
       <r>    7.2179   -0.0000 </r>
       <r>    7.4232   -0.0000 </r>
       <r>    7.5355   -0.0000 </r>
       <r>    7.5939   -0.0000 </r>
       <r>    7.6608   -0.0000 </r>
       <r>    7.8185   -0.0000 </r>
       <r>    8.2127   -0.0000 </r>
       <r>    8.3639   -0.0000 </r>
       <r>    8.4320   -0.0000 </r>
       <r>    8.5822   -0.0000 </r>
       <r>    8.6873   -0.0000 </r>
       <r>    8.8680   -0.0000 </r>
       <r>    9.0624   -0.0000 </r>
       <r>    9.0997   -0.0000 </r>
       <r>    9.1896   -0.0000 </r>
       <r>    9.4367   -0.0000 </r>
       <r>    9.4883   -0.0000 </r>
       <r>    9.6979   -0.0000 </r>
       <r>    9.8516   -0.0000 </r>
       <r>   10.0115   -0.0000 </r>
      </set>
      <set comment="kpoint 62">
       <r>   -2.8263    1.0000 </r>
       <r>   -2.5791    1.0000 </r>
       <r>   -2.3727    1.0000 </r>
       <r>   -2.1034    1.0000 </r>
       <r>   -1.2315    1.0000 </r>
       <r>   -0.7823    1.0000 </r>
       <r>   -0.5595    1.0000 </r>
       <r>   -0.1138    1.0000 </r>
       <r>    0.3076    1.0000 </r>
       <r>    0.5539    1.0000 </r>
       <r>    0.7909    1.0000 </r>
       <r>    1.0023    1.0000 </r>
       <r>    1.2248    1.0000 </r>
       <r>    1.4229    1.0000 </r>
       <r>    1.6534    1.0000 </r>
       <r>    1.8720    1.0000 </r>
       <r>    1.8892    1.0000 </r>
       <r>    2.0915    1.0000 </r>
       <r>    2.3301    1.0000 </r>
       <r>    2.5095    1.0000 </r>
       <r>    2.5627    1.0000 </r>
       <r>    2.7634    1.0000 </r>
       <r>    2.9724    1.0000 </r>
       <r>    3.1700    1.0000 </r>
       <r>    3.2250    1.0000 </r>
       <r>    3.4360    1.0000 </r>
       <r>    3.6263    1.0000 </r>
       <r>    3.7563    1.0000 </r>
       <r>    3.8646    1.0000 </r>
       <r>    3.9650    1.0000 </r>
       <r>    5.1267    1.0000 </r>
       <r>    5.2469    1.0000 </r>
       <r>    5.3702    1.0000 </r>
       <r>    5.5486    1.0000 </r>
       <r>    5.5900    1.0000 </r>
       <r>    5.8780    1.0000 </r>
       <r>    6.0073    1.0011 </r>
       <r>    6.1912    1.0236 </r>
       <r>    6.4314    0.8013 </r>
       <r>    6.6202    0.0997 </r>
       <r>    6.7327   -0.0335 </r>
       <r>    6.8749   -0.0133 </r>
       <r>    6.9577   -0.0033 </r>
       <r>    7.0435   -0.0005 </r>
       <r>    7.2040   -0.0000 </r>
       <r>    7.4357   -0.0000 </r>
       <r>    7.5544   -0.0000 </r>
       <r>    7.5809   -0.0000 </r>
       <r>    7.6640   -0.0000 </r>
       <r>    7.8051   -0.0000 </r>
       <r>    8.2157   -0.0000 </r>
       <r>    8.3771   -0.0000 </r>
       <r>    8.4361   -0.0000 </r>
       <r>    8.5868   -0.0000 </r>
       <r>    8.6845   -0.0000 </r>
       <r>    8.8504   -0.0000 </r>
       <r>    9.0634   -0.0000 </r>
       <r>    9.1031   -0.0000 </r>
       <r>    9.1844   -0.0000 </r>
       <r>    9.4315   -0.0000 </r>
       <r>    9.4900   -0.0000 </r>
       <r>    9.7007   -0.0000 </r>
       <r>    9.8519   -0.0000 </r>
       <r>   10.0064   -0.0000 </r>
      </set>
      <set comment="kpoint 63">
       <r>   -2.8222    1.0000 </r>
       <r>   -2.6038    1.0000 </r>
       <r>   -2.3332    1.0000 </r>
       <r>   -2.1222    1.0000 </r>
       <r>   -1.2296    1.0000 </r>
       <r>   -0.7891    1.0000 </r>
       <r>   -0.5573    1.0000 </r>
       <r>   -0.1180    1.0000 </r>
       <r>    0.3262    1.0000 </r>
       <r>    0.5540    1.0000 </r>
       <r>    0.7905    1.0000 </r>
       <r>    0.9837    1.0000 </r>
       <r>    1.2191    1.0000 </r>
       <r>    1.4353    1.0000 </r>
       <r>    1.6553    1.0000 </r>
       <r>    1.8460    1.0000 </r>
       <r>    1.8898    1.0000 </r>
       <r>    2.1137    1.0000 </r>
       <r>    2.3139    1.0000 </r>
       <r>    2.5351    1.0000 </r>
       <r>    2.5607    1.0000 </r>
       <r>    2.7542    1.0000 </r>
       <r>    2.9942    1.0000 </r>
       <r>    3.1757    1.0000 </r>
       <r>    3.2239    1.0000 </r>
       <r>    3.4203    1.0000 </r>
       <r>    3.5993    1.0000 </r>
       <r>    3.7561    1.0000 </r>
       <r>    3.8819    1.0000 </r>
       <r>    3.9791    1.0000 </r>
       <r>    5.1278    1.0000 </r>
       <r>    5.2234    1.0000 </r>
       <r>    5.3630    1.0000 </r>
       <r>    5.5615    1.0000 </r>
       <r>    5.6061    1.0000 </r>
       <r>    5.8720    1.0000 </r>
       <r>    5.9983    1.0009 </r>
       <r>    6.1834    1.0219 </r>
       <r>    6.4316    0.8007 </r>
       <r>    6.6137    0.1164 </r>
       <r>    6.7549   -0.0355 </r>
       <r>    6.8733   -0.0135 </r>
       <r>    6.9580   -0.0033 </r>
       <r>    7.0241   -0.0008 </r>
       <r>    7.2019   -0.0000 </r>
       <r>    7.4542   -0.0000 </r>
       <r>    7.5232   -0.0000 </r>
       <r>    7.5905   -0.0000 </r>
       <r>    7.6599   -0.0000 </r>
       <r>    7.8222   -0.0000 </r>
       <r>    8.2278   -0.0000 </r>
       <r>    8.3745   -0.0000 </r>
       <r>    8.4274   -0.0000 </r>
       <r>    8.5942   -0.0000 </r>
       <r>    8.6850   -0.0000 </r>
       <r>    8.8533   -0.0000 </r>
       <r>    9.0603   -0.0000 </r>
       <r>    9.1092   -0.0000 </r>
       <r>    9.1872   -0.0000 </r>
       <r>    9.4305   -0.0000 </r>
       <r>    9.4884   -0.0000 </r>
       <r>    9.6913   -0.0000 </r>
       <r>    9.8557   -0.0000 </r>
       <r>   10.0182   -0.0000 </r>
      </set>
      <set comment="kpoint 64">
       <r>   -2.8397    1.0000 </r>
       <r>   -2.5651    1.0000 </r>
       <r>   -2.3441    1.0000 </r>
       <r>   -2.1342    1.0000 </r>
       <r>   -1.2332    1.0000 </r>
       <r>   -0.7904    1.0000 </r>
       <r>   -0.5509    1.0000 </r>
       <r>   -0.1128    1.0000 </r>
       <r>    0.3251    1.0000 </r>
       <r>    0.5531    1.0000 </r>
       <r>    0.7786    1.0000 </r>
       <r>    0.9864    1.0000 </r>
       <r>    1.2194    1.0000 </r>
       <r>    1.4342    1.0000 </r>
       <r>    1.6444    1.0000 </r>
       <r>    1.8774    1.0000 </r>
       <r>    1.9003    1.0000 </r>
       <r>    2.1155    1.0000 </r>
       <r>    2.3137    1.0000 </r>
       <r>    2.5177    1.0000 </r>
       <r>    2.5391    1.0000 </r>
       <r>    2.7751    1.0000 </r>
       <r>    3.0064    1.0000 </r>
       <r>    3.1686    1.0000 </r>
       <r>    3.2118    1.0000 </r>
       <r>    3.3982    1.0000 </r>
       <r>    3.6281    1.0000 </r>
       <r>    3.7565    1.0000 </r>
       <r>    3.8700    1.0000 </r>
       <r>    3.9746    1.0000 </r>
       <r>    5.0926    1.0000 </r>
       <r>    5.2717    1.0000 </r>
       <r>    5.3616    1.0000 </r>
       <r>    5.5532    1.0000 </r>
       <r>    5.5974    1.0000 </r>
       <r>    5.8695    1.0000 </r>
       <r>    5.9966    1.0009 </r>
       <r>    6.2047    1.0268 </r>
       <r>    6.4463    0.7502 </r>
       <r>    6.6051    0.1399 </r>
       <r>    6.7316   -0.0333 </r>
       <r>    6.8798   -0.0124 </r>
       <r>    6.9688   -0.0027 </r>
       <r>    7.0499   -0.0004 </r>
       <r>    7.2111   -0.0000 </r>
       <r>    7.4759   -0.0000 </r>
       <r>    7.5231   -0.0000 </r>
       <r>    7.5576   -0.0000 </r>
       <r>    7.6538   -0.0000 </r>
       <r>    7.8127   -0.0000 </r>
       <r>    8.2027   -0.0000 </r>
       <r>    8.3801   -0.0000 </r>
       <r>    8.4442   -0.0000 </r>
       <r>    8.5915   -0.0000 </r>
       <r>    8.6734   -0.0000 </r>
       <r>    8.8580   -0.0000 </r>
       <r>    9.0640   -0.0000 </r>
       <r>    9.0991   -0.0000 </r>
       <r>    9.1977   -0.0000 </r>
       <r>    9.4120   -0.0000 </r>
       <r>    9.4856   -0.0000 </r>
       <r>    9.6886   -0.0000 </r>
       <r>    9.8669   -0.0000 </r>
       <r>   10.0060   -0.0000 </r>
      </set>
      <set comment="kpoint 65">
       <r>   -2.8264    1.0000 </r>
       <r>   -2.5871    1.0000 </r>
       <r>   -2.3582    1.0000 </r>
       <r>   -2.1078    1.0000 </r>
       <r>   -1.2323    1.0000 </r>
       <r>   -0.7879    1.0000 </r>
       <r>   -0.5631    1.0000 </r>
       <r>   -0.1140    1.0000 </r>
       <r>    0.3288    1.0000 </r>
       <r>    0.5616    1.0000 </r>
       <r>    0.7748    1.0000 </r>
       <r>    1.0043    1.0000 </r>
       <r>    1.2098    1.0000 </r>
       <r>    1.4286    1.0000 </r>
       <r>    1.6574    1.0000 </r>
       <r>    1.8591    1.0000 </r>
       <r>    1.8911    1.0000 </r>
       <r>    2.1070    1.0000 </r>
       <r>    2.3245    1.0000 </r>
       <r>    2.5131    1.0000 </r>
       <r>    2.5501    1.0000 </r>
       <r>    2.7515    1.0000 </r>
       <r>    2.9874    1.0000 </r>
       <r>    3.1799    1.0000 </r>
       <r>    3.2238    1.0000 </r>
       <r>    3.4316    1.0000 </r>
       <r>    3.6228    1.0000 </r>
       <r>    3.7585    1.0000 </r>
       <r>    3.8734    1.0000 </r>
       <r>    3.9711    1.0000 </r>
       <r>    5.1305    1.0000 </r>
       <r>    5.2383    1.0000 </r>
       <r>    5.3455    1.0000 </r>
       <r>    5.5709    1.0000 </r>
       <r>    5.5959    1.0000 </r>
       <r>    5.8717    1.0000 </r>
       <r>    5.9856    1.0007 </r>
       <r>    6.1849    1.0222 </r>
       <r>    6.4304    0.8045 </r>
       <r>    6.6316    0.0734 </r>
       <r>    6.7396   -0.0346 </r>
       <r>    6.8761   -0.0130 </r>
       <r>    6.9576   -0.0034 </r>
       <r>    7.0421   -0.0005 </r>
       <r>    7.2149   -0.0000 </r>
       <r>    7.4478   -0.0000 </r>
       <r>    7.5270   -0.0000 </r>
       <r>    7.5858   -0.0000 </r>
       <r>    7.6686   -0.0000 </r>
       <r>    7.8084   -0.0000 </r>
       <r>    8.2126   -0.0000 </r>
       <r>    8.3590   -0.0000 </r>
       <r>    8.4414   -0.0000 </r>
       <r>    8.5851   -0.0000 </r>
       <r>    8.6769   -0.0000 </r>
       <r>    8.8720   -0.0000 </r>
       <r>    9.0677   -0.0000 </r>
       <r>    9.1174   -0.0000 </r>
       <r>    9.1937   -0.0000 </r>
       <r>    9.4274   -0.0000 </r>
       <r>    9.4881   -0.0000 </r>
       <r>    9.6855   -0.0000 </r>
       <r>    9.8437   -0.0000 </r>
       <r>    9.9948   -0.0000 </r>
      </set>
      <set comment="kpoint 66">
       <r>   -2.8255    1.0000 </r>
       <r>   -2.5934    1.0000 </r>
       <r>   -2.3420    1.0000 </r>
       <r>   -2.1229    1.0000 </r>
       <r>   -1.2251    1.0000 </r>
       <r>   -0.7808    1.0000 </r>
       <r>   -0.5683    1.0000 </r>
       <r>   -0.1168    1.0000 </r>
       <r>    0.3315    1.0000 </r>
       <r>    0.5525    1.0000 </r>
       <r>    0.7751    1.0000 </r>
       <r>    0.9811    1.0000 </r>
       <r>    1.2155    1.0000 </r>
       <r>    1.4433    1.0000 </r>
       <r>    1.6612    1.0000 </r>
       <r>    1.8527    1.0000 </r>
       <r>    1.9037    1.0000 </r>
       <r>    2.1152    1.0000 </r>
       <r>    2.3065    1.0000 </r>
       <r>    2.5259    1.0000 </r>
       <r>    2.5543    1.0000 </r>
       <r>    2.7589    1.0000 </r>
       <r>    2.9940    1.0000 </r>
       <r>    3.1824    1.0000 </r>
       <r>    3.2252    1.0000 </r>
       <r>    3.4154    1.0000 </r>
       <r>    3.6046    1.0000 </r>
       <r>    3.7509    1.0000 </r>
       <r>    3.8768    1.0000 </r>
       <r>    3.9750    1.0000 </r>
       <r>    5.1235    1.0000 </r>
       <r>    5.2324    1.0000 </r>
       <r>    5.3502    1.0000 </r>
       <r>    5.5712    1.0000 </r>
       <r>    5.6096    1.0000 </r>
       <r>    5.8730    1.0000 </r>
       <r>    5.9942    1.0008 </r>
       <r>    6.1927    1.0240 </r>
       <r>    6.4308    0.8034 </r>
       <r>    6.6177    0.1060 </r>
       <r>    6.7365   -0.0342 </r>
       <r>    6.8803   -0.0123 </r>
       <r>    6.9483   -0.0040 </r>
       <r>    7.0482   -0.0005 </r>
       <r>    7.2189   -0.0000 </r>
       <r>    7.4525   -0.0000 </r>
       <r>    7.5233   -0.0000 </r>
       <r>    7.5848   -0.0000 </r>
       <r>    7.6567   -0.0000 </r>
       <r>    7.8068   -0.0000 </r>
       <r>    8.2128   -0.0000 </r>
       <r>    8.3619   -0.0000 </r>
       <r>    8.4281   -0.0000 </r>
       <r>    8.5860   -0.0000 </r>
       <r>    8.6714   -0.0000 </r>
       <r>    8.8904   -0.0000 </r>
       <r>    9.0683   -0.0000 </r>
       <r>    9.1039   -0.0000 </r>
       <r>    9.2077   -0.0000 </r>
       <r>    9.4249   -0.0000 </r>
       <r>    9.4844   -0.0000 </r>
       <r>    9.6938   -0.0000 </r>
       <r>    9.8464   -0.0000 </r>
       <r>    9.9976   -0.0000 </r>
      </set>
      <set comment="kpoint 67">
       <r>   -2.8305    1.0000 </r>
       <r>   -2.5766    1.0000 </r>
       <r>   -2.3595    1.0000 </r>
       <r>   -2.1158    1.0000 </r>
       <r>   -1.2306    1.0000 </r>
       <r>   -0.7920    1.0000 </r>
       <r>   -0.5521    1.0000 </r>
       <r>   -0.1167    1.0000 </r>
       <r>    0.3346    1.0000 </r>
       <r>    0.5520    1.0000 </r>
       <r>    0.7607    1.0000 </r>
       <r>    1.0065    1.0000 </r>
       <r>    1.2164    1.0000 </r>
       <r>    1.4453    1.0000 </r>
       <r>    1.6383    1.0000 </r>
       <r>    1.8754    1.0000 </r>
       <r>    1.8920    1.0000 </r>
       <r>    2.1094    1.0000 </r>
       <r>    2.3244    1.0000 </r>
       <r>    2.5054    1.0000 </r>
       <r>    2.5434    1.0000 </r>
       <r>    2.7591    1.0000 </r>
       <r>    2.9950    1.0000 </r>
       <r>    3.1811    1.0000 </r>
       <r>    3.2233    1.0000 </r>
       <r>    3.4186    1.0000 </r>
       <r>    3.6278    1.0000 </r>
       <r>    3.7603    1.0000 </r>
       <r>    3.8574    1.0000 </r>
       <r>    3.9692    1.0000 </r>
       <r>    5.1212    1.0000 </r>
       <r>    5.2386    1.0000 </r>
       <r>    5.3585    1.0000 </r>
       <r>    5.5499    1.0000 </r>
       <r>    5.6165    1.0000 </r>
       <r>    5.8672    1.0000 </r>
       <r>    6.0080    1.0011 </r>
       <r>    6.1950    1.0245 </r>
       <r>    6.4237    0.8260 </r>
       <r>    6.6278    0.0819 </r>
       <r>    6.7266   -0.0321 </r>
       <r>    6.8838   -0.0117 </r>
       <r>    6.9606   -0.0032 </r>
       <r>    7.0562   -0.0004 </r>
       <r>    7.2040   -0.0000 </r>
       <r>    7.4710   -0.0000 </r>
       <r>    7.5342   -0.0000 </r>
       <r>    7.5698   -0.0000 </r>
       <r>    7.6567   -0.0000 </r>
       <r>    7.8035   -0.0000 </r>
       <r>    8.2146   -0.0000 </r>
       <r>    8.3636   -0.0000 </r>
       <r>    8.4353   -0.0000 </r>
       <r>    8.5921   -0.0000 </r>
       <r>    8.6717   -0.0000 </r>
       <r>    8.8688   -0.0000 </r>
       <r>    9.0680   -0.0000 </r>
       <r>    9.1010   -0.0000 </r>
       <r>    9.1966   -0.0000 </r>
       <r>    9.4142   -0.0000 </r>
       <r>    9.4909   -0.0000 </r>
       <r>    9.6844   -0.0000 </r>
       <r>    9.8606   -0.0000 </r>
       <r>    9.9909   -0.0000 </r>
      </set>
      <set comment="kpoint 68">
       <r>   -2.8317    1.0000 </r>
       <r>   -2.5863    1.0000 </r>
       <r>   -2.3300    1.0000 </r>
       <r>   -2.1347    1.0000 </r>
       <r>   -1.2320    1.0000 </r>
       <r>   -0.7865    1.0000 </r>
       <r>   -0.5606    1.0000 </r>
       <r>   -0.1081    1.0000 </r>
       <r>    0.3278    1.0000 </r>
       <r>    0.5500    1.0000 </r>
       <r>    0.7760    1.0000 </r>
       <r>    0.9814    1.0000 </r>
       <r>    1.2317    1.0000 </r>
       <r>    1.4447    1.0000 </r>
       <r>    1.6501    1.0000 </r>
       <r>    1.8569    1.0000 </r>
       <r>    1.8799    1.0000 </r>
       <r>    2.1249    1.0000 </r>
       <r>    2.3089    1.0000 </r>
       <r>    2.5040    1.0000 </r>
       <r>    2.5749    1.0000 </r>
       <r>    2.7745    1.0000 </r>
       <r>    2.9985    1.0000 </r>
       <r>    3.1664    1.0000 </r>
       <r>    3.2227    1.0000 </r>
       <r>    3.4060    1.0000 </r>
       <r>    3.6102    1.0000 </r>
       <r>    3.7415    1.0000 </r>
       <r>    3.8870    1.0000 </r>
       <r>    3.9745    1.0000 </r>
       <r>    5.1054    1.0000 </r>
       <r>    5.2535    1.0000 </r>
       <r>    5.3520    1.0000 </r>
       <r>    5.5641    1.0000 </r>
       <r>    5.6001    1.0000 </r>
       <r>    5.8746    1.0000 </r>
       <r>    6.0150    1.0013 </r>
       <r>    6.1877    1.0229 </r>
       <r>    6.4361    0.7857 </r>
       <r>    6.6134    0.1172 </r>
       <r>    6.7391   -0.0346 </r>
       <r>    6.8775   -0.0128 </r>
       <r>    6.9645   -0.0029 </r>
       <r>    7.0451   -0.0005 </r>
       <r>    7.2094   -0.0000 </r>
       <r>    7.4651   -0.0000 </r>
       <r>    7.5321   -0.0000 </r>
       <r>    7.5709   -0.0000 </r>
       <r>    7.6499   -0.0000 </r>
       <r>    7.8083   -0.0000 </r>
       <r>    8.2226   -0.0000 </r>
       <r>    8.3721   -0.0000 </r>
       <r>    8.4284   -0.0000 </r>
       <r>    8.5958   -0.0000 </r>
       <r>    8.6749   -0.0000 </r>
       <r>    8.8532   -0.0000 </r>
       <r>    9.0643   -0.0000 </r>
       <r>    9.1054   -0.0000 </r>
       <r>    9.1884   -0.0000 </r>
       <r>    9.4208   -0.0000 </r>
       <r>    9.4863   -0.0000 </r>
       <r>    9.6989   -0.0000 </r>
       <r>    9.8507   -0.0000 </r>
       <r>    9.9999   -0.0000 </r>
      </set>
      <set comment="kpoint 69">
       <r>   -2.8347    1.0000 </r>
       <r>   -2.5644    1.0000 </r>
       <r>   -2.3677    1.0000 </r>
       <r>   -2.1160    1.0000 </r>
       <r>   -1.2356    1.0000 </r>
       <r>   -0.7793    1.0000 </r>
       <r>   -0.5548    1.0000 </r>
       <r>   -0.1179    1.0000 </r>
       <r>    0.3146    1.0000 </r>
       <r>    0.5606    1.0000 </r>
       <r>    0.7736    1.0000 </r>
       <r>    1.0109    1.0000 </r>
       <r>    1.2177    1.0000 </r>
       <r>    1.4318    1.0000 </r>
       <r>    1.6270    1.0000 </r>
       <r>    1.8801    1.0000 </r>
       <r>    1.9063    1.0000 </r>
       <r>    2.0974    1.0000 </r>
       <r>    2.3247    1.0000 </r>
       <r>    2.5021    1.0000 </r>
       <r>    2.5506    1.0000 </r>
       <r>    2.7782    1.0000 </r>
       <r>    2.9816    1.0000 </r>
       <r>    3.1855    1.0000 </r>
       <r>    3.2091    1.0000 </r>
       <r>    3.4140    1.0000 </r>
       <r>    3.6445    1.0000 </r>
       <r>    3.7613    1.0000 </r>
       <r>    3.8533    1.0000 </r>
       <r>    3.9717    1.0000 </r>
       <r>    5.0989    1.0000 </r>
       <r>    5.2690    1.0000 </r>
       <r>    5.3651    1.0000 </r>
       <r>    5.5541    1.0000 </r>
       <r>    5.5910    1.0000 </r>
       <r>    5.8710    1.0000 </r>
       <r>    5.9964    1.0009 </r>
       <r>    6.2066    1.0272 </r>
       <r>    6.4299    0.8063 </r>
       <r>    6.6224    0.0945 </r>
       <r>    6.7198   -0.0300 </r>
       <r>    6.8798   -0.0124 </r>
       <r>    6.9761   -0.0023 </r>
       <r>    7.0365   -0.0006 </r>
       <r>    7.2106   -0.0000 </r>
       <r>    7.4514   -0.0000 </r>
       <r>    7.5396   -0.0000 </r>
       <r>    7.5766   -0.0000 </r>
       <r>    7.6657   -0.0000 </r>
       <r>    7.8002   -0.0000 </r>
       <r>    8.2129   -0.0000 </r>
       <r>    8.3652   -0.0000 </r>
       <r>    8.4430   -0.0000 </r>
       <r>    8.5887   -0.0000 </r>
       <r>    8.6865   -0.0000 </r>
       <r>    8.8495   -0.0000 </r>
       <r>    9.0656   -0.0000 </r>
       <r>    9.1029   -0.0000 </r>
       <r>    9.1811   -0.0000 </r>
       <r>    9.4177   -0.0000 </r>
       <r>    9.5157   -0.0000 </r>
       <r>    9.7007   -0.0000 </r>
       <r>    9.8518   -0.0000 </r>
       <r>    9.9948   -0.0000 </r>
      </set>
      <set comment="kpoint 70">
       <r>   -2.8218    1.0000 </r>
       <r>   -2.5988    1.0000 </r>
       <r>   -2.3532    1.0000 </r>
       <r>   -2.1044    1.0000 </r>
       <r>   -1.2373    1.0000 </r>
       <r>   -0.7766    1.0000 </r>
       <r>   -0.5625    1.0000 </r>
       <r>   -0.1169    1.0000 </r>
       <r>    0.3055    1.0000 </r>
       <r>    0.5704    1.0000 </r>
       <r>    0.7815    1.0000 </r>
       <r>    0.9927    1.0000 </r>
       <r>    1.2223    1.0000 </r>
       <r>    1.4331    1.0000 </r>
       <r>    1.6601    1.0000 </r>
       <r>    1.8463    1.0000 </r>
       <r>    1.8852    1.0000 </r>
       <r>    2.1036    1.0000 </r>
       <r>    2.3333    1.0000 </r>
       <r>    2.5326    1.0000 </r>
       <r>    2.5557    1.0000 </r>
       <r>    2.7558    1.0000 </r>
       <r>    2.9773    1.0000 </r>
       <r>    3.1838    1.0000 </r>
       <r>    3.2347    1.0000 </r>
       <r>    3.4189    1.0000 </r>
       <r>    3.6056    1.0000 </r>
       <r>    3.7485    1.0000 </r>
       <r>    3.8795    1.0000 </r>
       <r>    3.9739    1.0000 </r>
       <r>    5.1277    1.0000 </r>
       <r>    5.2327    1.0000 </r>
       <r>    5.3643    1.0000 </r>
       <r>    5.5692    1.0000 </r>
       <r>    5.5890    1.0000 </r>
       <r>    5.8755    1.0000 </r>
       <r>    5.9968    1.0009 </r>
       <r>    6.1922    1.0239 </r>
       <r>    6.4286    0.8106 </r>
       <r>    6.6164    0.1093 </r>
       <r>    6.7359   -0.0341 </r>
       <r>    6.8786   -0.0126 </r>
       <r>    6.9491   -0.0039 </r>
       <r>    7.0368   -0.0006 </r>
       <r>    7.2072   -0.0000 </r>
       <r>    7.4304   -0.0000 </r>
       <r>    7.5659   -0.0000 </r>
       <r>    7.5875   -0.0000 </r>
       <r>    7.6506   -0.0000 </r>
       <r>    7.8129   -0.0000 </r>
       <r>    8.2211   -0.0000 </r>
       <r>    8.3782   -0.0000 </r>
       <r>    8.4242   -0.0000 </r>
       <r>    8.5867   -0.0000 </r>
       <r>    8.6862   -0.0000 </r>
       <r>    8.8619   -0.0000 </r>
       <r>    9.0583   -0.0000 </r>
       <r>    9.1085   -0.0000 </r>
       <r>    9.1920   -0.0000 </r>
       <r>    9.4431   -0.0000 </r>
       <r>    9.4743   -0.0000 </r>
       <r>    9.7012   -0.0000 </r>
       <r>    9.8482   -0.0000 </r>
       <r>   10.0140   -0.0000 </r>
      </set>
      <set comment="kpoint 71">
       <r>   -2.8384    1.0000 </r>
       <r>   -2.5596    1.0000 </r>
       <r>   -2.3612    1.0000 </r>
       <r>   -2.1266    1.0000 </r>
       <r>   -1.2212    1.0000 </r>
       <r>   -0.7820    1.0000 </r>
       <r>   -0.5720    1.0000 </r>
       <r>   -0.1140    1.0000 </r>
       <r>    0.3185    1.0000 </r>
       <r>    0.5520    1.0000 </r>
       <r>    0.8005    1.0000 </r>
       <r>    0.9894    1.0000 </r>
       <r>    1.2094    1.0000 </r>
       <r>    1.4345    1.0000 </r>
       <r>    1.6402    1.0000 </r>
       <r>    1.8862    1.0000 </r>
       <r>    1.8953    1.0000 </r>
       <r>    2.0948    1.0000 </r>
       <r>    2.3144    1.0000 </r>
       <r>    2.5209    1.0000 </r>
       <r>    2.5538    1.0000 </r>
       <r>    2.7843    1.0000 </r>
       <r>    2.9910    1.0000 </r>
       <r>    3.1691    1.0000 </r>
       <r>    3.2111    1.0000 </r>
       <r>    3.4120    1.0000 </r>
       <r>    3.6323    1.0000 </r>
       <r>    3.7526    1.0000 </r>
       <r>    3.8639    1.0000 </r>
       <r>    3.9765    1.0000 </r>
       <r>    5.1020    1.0000 </r>
       <r>    5.2641    1.0000 </r>
       <r>    5.3684    1.0000 </r>
       <r>    5.5619    1.0000 </r>
       <r>    5.5881    1.0000 </r>
       <r>    5.8633    1.0000 </r>
       <r>    5.9927    1.0008 </r>
       <r>    6.2008    1.0259 </r>
       <r>    6.4450    0.7550 </r>
       <r>    6.6017    0.1497 </r>
       <r>    6.7360   -0.0341 </r>
       <r>    6.8650   -0.0151 </r>
       <r>    6.9751   -0.0024 </r>
       <r>    7.0386   -0.0006 </r>
       <r>    7.2130   -0.0000 </r>
       <r>    7.4496   -0.0000 </r>
       <r>    7.5310   -0.0000 </r>
       <r>    7.5859   -0.0000 </r>
       <r>    7.6533   -0.0000 </r>
       <r>    7.8147   -0.0000 </r>
       <r>    8.2078   -0.0000 </r>
       <r>    8.3702   -0.0000 </r>
       <r>    8.4420   -0.0000 </r>
       <r>    8.6006   -0.0000 </r>
       <r>    8.6896   -0.0000 </r>
       <r>    8.8527   -0.0000 </r>
       <r>    9.0659   -0.0000 </r>
       <r>    9.1016   -0.0000 </r>
       <r>    9.1832   -0.0000 </r>
       <r>    9.4169   -0.0000 </r>
       <r>    9.4905   -0.0000 </r>
       <r>    9.7097   -0.0000 </r>
       <r>    9.8416   -0.0000 </r>
       <r>   10.0233   -0.0000 </r>
      </set>
      <set comment="kpoint 72">
       <r>   -2.8174    1.0000 </r>
       <r>   -2.5996    1.0000 </r>
       <r>   -2.3598    1.0000 </r>
       <r>   -2.1047    1.0000 </r>
       <r>   -1.2328    1.0000 </r>
       <r>   -0.7922    1.0000 </r>
       <r>   -0.5447    1.0000 </r>
       <r>   -0.1163    1.0000 </r>
       <r>    0.3134    1.0000 </r>
       <r>    0.5597    1.0000 </r>
       <r>    0.7842    1.0000 </r>
       <r>    0.9974    1.0000 </r>
       <r>    1.2199    1.0000 </r>
       <r>    1.4307    1.0000 </r>
       <r>    1.6523    1.0000 </r>
       <r>    1.8573    1.0000 </r>
       <r>    1.8851    1.0000 </r>
       <r>    2.0996    1.0000 </r>
       <r>    2.3290    1.0000 </r>
       <r>    2.5246    1.0000 </r>
       <r>    2.5628    1.0000 </r>
       <r>    2.7452    1.0000 </r>
       <r>    2.9809    1.0000 </r>
       <r>    3.1830    1.0000 </r>
       <r>    3.2327    1.0000 </r>
       <r>    3.4242    1.0000 </r>
       <r>    3.6111    1.0000 </r>
       <r>    3.7552    1.0000 </r>
       <r>    3.8703    1.0000 </r>
       <r>    3.9652    1.0000 </r>
       <r>    5.1378    1.0000 </r>
       <r>    5.2243    1.0000 </r>
       <r>    5.3698    1.0000 </r>
       <r>    5.5625    1.0000 </r>
       <r>    5.5970    1.0000 </r>
       <r>    5.8870    1.0001 </r>
       <r>    6.0036    1.0010 </r>
       <r>    6.1954    1.0246 </r>
       <r>    6.4267    0.8165 </r>
       <r>    6.6219    0.0956 </r>
       <r>    6.7356   -0.0340 </r>
       <r>    6.8911   -0.0105 </r>
       <r>    6.9451   -0.0043 </r>
       <r>    7.0327   -0.0007 </r>
       <r>    7.2032   -0.0000 </r>
       <r>    7.4380   -0.0000 </r>
       <r>    7.5563   -0.0000 </r>
       <r>    7.5923   -0.0000 </r>
       <r>    7.6536   -0.0000 </r>
       <r>    7.7960   -0.0000 </r>
       <r>    8.2204   -0.0000 </r>
       <r>    8.3691   -0.0000 </r>
       <r>    8.4279   -0.0000 </r>
       <r>    8.5930   -0.0000 </r>
       <r>    8.6787   -0.0000 </r>
       <r>    8.8558   -0.0000 </r>
       <r>    9.0601   -0.0000 </r>
       <r>    9.1094   -0.0000 </r>
       <r>    9.1867   -0.0000 </r>
       <r>    9.4290   -0.0000 </r>
       <r>    9.4917   -0.0000 </r>
       <r>    9.6909   -0.0000 </r>
       <r>    9.8583   -0.0000 </r>
       <r>    9.9962   -0.0000 </r>
      </set>
      <set comment="kpoint 73">
       <r>   -2.8321    1.0000 </r>
       <r>   -2.5893    1.0000 </r>
       <r>   -2.3292    1.0000 </r>
       <r>   -2.1281    1.0000 </r>
       <r>   -1.2397    1.0000 </r>
       <r>   -0.7867    1.0000 </r>
       <r>   -0.5538    1.0000 </r>
       <r>   -0.1121    1.0000 </r>
       <r>    0.3225    1.0000 </r>
       <r>    0.5522    1.0000 </r>
       <r>    0.7824    1.0000 </r>
       <r>    0.9800    1.0000 </r>
       <r>    1.2369    1.0000 </r>
       <r>    1.4216    1.0000 </r>
       <r>    1.6634    1.0000 </r>
       <r>    1.8547    1.0000 </r>
       <r>    1.8889    1.0000 </r>
       <r>    2.1265    1.0000 </r>
       <r>    2.3200    1.0000 </r>
       <r>    2.5283    1.0000 </r>
       <r>    2.5393    1.0000 </r>
       <r>    2.7579    1.0000 </r>
       <r>    3.0044    1.0000 </r>
       <r>    3.1677    1.0000 </r>
       <r>    3.2112    1.0000 </r>
       <r>    3.4122    1.0000 </r>
       <r>    3.6173    1.0000 </r>
       <r>    3.7584    1.0000 </r>
       <r>    3.8850    1.0000 </r>
       <r>    3.9733    1.0000 </r>
       <r>    5.1056    1.0000 </r>
       <r>    5.2497    1.0000 </r>
       <r>    5.3550    1.0000 </r>
       <r>    5.5668    1.0000 </r>
       <r>    5.5933    1.0000 </r>
       <r>    5.8657    1.0000 </r>
       <r>    6.0009    1.0010 </r>
       <r>    6.1883    1.0230 </r>
       <r>    6.4369    0.7829 </r>
       <r>    6.6169    0.1082 </r>
       <r>    6.7431   -0.0350 </r>
       <r>    6.8723   -0.0137 </r>
       <r>    6.9737   -0.0024 </r>
       <r>    7.0336   -0.0007 </r>
       <r>    7.2074   -0.0000 </r>
       <r>    7.4745   -0.0000 </r>
       <r>    7.5213   -0.0000 </r>
       <r>    7.5777   -0.0000 </r>
       <r>    7.6612   -0.0000 </r>
       <r>    7.7980   -0.0000 </r>
       <r>    8.2189   -0.0000 </r>
       <r>    8.3838   -0.0000 </r>
       <r>    8.4377   -0.0000 </r>
       <r>    8.5927   -0.0000 </r>
       <r>    8.6752   -0.0000 </r>
       <r>    8.8556   -0.0000 </r>
       <r>    9.0596   -0.0000 </r>
       <r>    9.1065   -0.0000 </r>
       <r>    9.1899   -0.0000 </r>
       <r>    9.4171   -0.0000 </r>
       <r>    9.5029   -0.0000 </r>
       <r>    9.6962   -0.0000 </r>
       <r>    9.8588   -0.0000 </r>
       <r>   10.0084   -0.0000 </r>
      </set>
      <set comment="kpoint 74">
       <r>   -2.8409    1.0000 </r>
       <r>   -2.5613    1.0000 </r>
       <r>   -2.3530    1.0000 </r>
       <r>   -2.1269    1.0000 </r>
       <r>   -1.2286    1.0000 </r>
       <r>   -0.7840    1.0000 </r>
       <r>   -0.5694    1.0000 </r>
       <r>   -0.1158    1.0000 </r>
       <r>    0.3314    1.0000 </r>
       <r>    0.5554    1.0000 </r>
       <r>    0.7827    1.0000 </r>
       <r>    0.9944    1.0000 </r>
       <r>    1.2102    1.0000 </r>
       <r>    1.4357    1.0000 </r>
       <r>    1.6372    1.0000 </r>
       <r>    1.8704    1.0000 </r>
       <r>    1.9088    1.0000 </r>
       <r>    2.1057    1.0000 </r>
       <r>    2.3238    1.0000 </r>
       <r>    2.5089    1.0000 </r>
       <r>    2.5444    1.0000 </r>
       <r>    2.7823    1.0000 </r>
       <r>    2.9983    1.0000 </r>
       <r>    3.1684    1.0000 </r>
       <r>    3.2152    1.0000 </r>
       <r>    3.4028    1.0000 </r>
       <r>    3.6388    1.0000 </r>
       <r>    3.7578    1.0000 </r>
       <r>    3.8621    1.0000 </r>
       <r>    3.9799    1.0000 </r>
       <r>    5.1016    1.0000 </r>
       <r>    5.2589    1.0000 </r>
       <r>    5.3620    1.0000 </r>
       <r>    5.5673    1.0000 </r>
       <r>    5.5912    1.0000 </r>
       <r>    5.8525    1.0000 </r>
       <r>    5.9910    1.0008 </r>
       <r>    6.1955    1.0247 </r>
       <r>    6.4364    0.7847 </r>
       <r>    6.6108    0.1240 </r>
       <r>    6.7356   -0.0340 </r>
       <r>    6.8618   -0.0158 </r>
       <r>    6.9852   -0.0019 </r>
       <r>    7.0399   -0.0006 </r>
       <r>    7.2110   -0.0000 </r>
       <r>    7.4667   -0.0000 </r>
       <r>    7.5169   -0.0000 </r>
       <r>    7.5936   -0.0000 </r>
       <r>    7.6585   -0.0000 </r>
       <r>    7.8134   -0.0000 </r>
       <r>    8.2150   -0.0000 </r>
       <r>    8.3624   -0.0000 </r>
       <r>    8.4403   -0.0000 </r>
       <r>    8.5938   -0.0000 </r>
       <r>    8.6812   -0.0000 </r>
       <r>    8.8620   -0.0000 </r>
       <r>    9.0700   -0.0000 </r>
       <r>    9.1120   -0.0000 </r>
       <r>    9.1864   -0.0000 </r>
       <r>    9.4195   -0.0000 </r>
       <r>    9.4902   -0.0000 </r>
       <r>    9.7012   -0.0000 </r>
       <r>    9.8459   -0.0000 </r>
       <r>    9.9998   -0.0000 </r>
      </set>
      <set comment="kpoint 75">
       <r>   -2.8194    1.0000 </r>
       <r>   -2.6064    1.0000 </r>
       <r>   -2.3339    1.0000 </r>
       <r>   -2.1228    1.0000 </r>
       <r>   -1.2344    1.0000 </r>
       <r>   -0.7794    1.0000 </r>
       <r>   -0.5583    1.0000 </r>
       <r>   -0.1157    1.0000 </r>
       <r>    0.3355    1.0000 </r>
       <r>    0.5486    1.0000 </r>
       <r>    0.7700    1.0000 </r>
       <r>    0.9782    1.0000 </r>
       <r>    1.2305    1.0000 </r>
       <r>    1.4336    1.0000 </r>
       <r>    1.6558    1.0000 </r>
       <r>    1.8609    1.0000 </r>
       <r>    1.8889    1.0000 </r>
       <r>    2.1302    1.0000 </r>
       <r>    2.3123    1.0000 </r>
       <r>    2.5172    1.0000 </r>
       <r>    2.5489    1.0000 </r>
       <r>    2.7612    1.0000 </r>
       <r>    2.9889    1.0000 </r>
       <r>    3.1789    1.0000 </r>
       <r>    3.2188    1.0000 </r>
       <r>    3.4196    1.0000 </r>
       <r>    3.6087    1.0000 </r>
       <r>    3.7545    1.0000 </r>
       <r>    3.8841    1.0000 </r>
       <r>    3.9707    1.0000 </r>
       <r>    5.1325    1.0000 </r>
       <r>    5.2268    1.0000 </r>
       <r>    5.3519    1.0000 </r>
       <r>    5.5705    1.0000 </r>
       <r>    5.5992    1.0000 </r>
       <r>    5.8731    1.0000 </r>
       <r>    6.0070    1.0011 </r>
       <r>    6.1911    1.0236 </r>
       <r>    6.4238    0.8256 </r>
       <r>    6.6330    0.0706 </r>
       <r>    6.7406   -0.0348 </r>
       <r>    6.8744   -0.0134 </r>
       <r>    6.9578   -0.0033 </r>
       <r>    7.0337   -0.0006 </r>
       <r>    7.2096   -0.0000 </r>
       <r>    7.4740   -0.0000 </r>
       <r>    7.5239   -0.0000 </r>
       <r>    7.5756   -0.0000 </r>
       <r>    7.6532   -0.0000 </r>
       <r>    7.7991   -0.0000 </r>
       <r>    8.2298   -0.0000 </r>
       <r>    8.3749   -0.0000 </r>
       <r>    8.4297   -0.0000 </r>
       <r>    8.5883   -0.0000 </r>
       <r>    8.6683   -0.0000 </r>
       <r>    8.8656   -0.0000 </r>
       <r>    9.0622   -0.0000 </r>
       <r>    9.1013   -0.0000 </r>
       <r>    9.1945   -0.0000 </r>
       <r>    9.4154   -0.0000 </r>
       <r>    9.5074   -0.0000 </r>
       <r>    9.6999   -0.0000 </r>
       <r>    9.8448   -0.0000 </r>
       <r>    9.9997   -0.0000 </r>
      </set>
      <set comment="kpoint 76">
       <r>   -2.8243    1.0000 </r>
       <r>   -2.5846    1.0000 </r>
       <r>   -2.3668    1.0000 </r>
       <r>   -2.1069    1.0000 </r>
       <r>   -1.2255    1.0000 </r>
       <r>   -0.7886    1.0000 </r>
       <r>   -0.5654    1.0000 </r>
       <r>   -0.1097    1.0000 </r>
       <r>    0.3135    1.0000 </r>
       <r>    0.5724    1.0000 </r>
       <r>    0.7783    1.0000 </r>
       <r>    0.9984    1.0000 </r>
       <r>    1.2096    1.0000 </r>
       <r>    1.4302    1.0000 </r>
       <r>    1.6615    1.0000 </r>
       <r>    1.8602    1.0000 </r>
       <r>    1.8966    1.0000 </r>
       <r>    2.0840    1.0000 </r>
       <r>    2.3318    1.0000 </r>
       <r>    2.5166    1.0000 </r>
       <r>    2.5587    1.0000 </r>
       <r>    2.7615    1.0000 </r>
       <r>    2.9724    1.0000 </r>
       <r>    3.1945    1.0000 </r>
       <r>    3.2200    1.0000 </r>
       <r>    3.4259    1.0000 </r>
       <r>    3.6124    1.0000 </r>
       <r>    3.7504    1.0000 </r>
       <r>    3.8713    1.0000 </r>
       <r>    3.9697    1.0000 </r>
       <r>    5.1375    1.0000 </r>
       <r>    5.2383    1.0000 </r>
       <r>    5.3604    1.0000 </r>
       <r>    5.5604    1.0000 </r>
       <r>    5.5975    1.0000 </r>
       <r>    5.8823    1.0000 </r>
       <r>    5.9947    1.0008 </r>
       <r>    6.1932    1.0241 </r>
       <r>    6.4318    0.8001 </r>
       <r>    6.6197    0.1012 </r>
       <r>    6.7327   -0.0335 </r>
       <r>    6.8881   -0.0110 </r>
       <r>    6.9492   -0.0039 </r>
       <r>    7.0399   -0.0006 </r>
       <r>    7.2105   -0.0000 </r>
       <r>    7.4371   -0.0000 </r>
       <r>    7.5529   -0.0000 </r>
       <r>    7.5888   -0.0000 </r>
       <r>    7.6492   -0.0000 </r>
       <r>    7.8050   -0.0000 </r>
       <r>    8.2167   -0.0000 </r>
       <r>    8.3583   -0.0000 </r>
       <r>    8.4451   -0.0000 </r>
       <r>    8.5806   -0.0000 </r>
       <r>    8.6824   -0.0000 </r>
       <r>    8.8639   -0.0000 </r>
       <r>    9.0660   -0.0000 </r>
       <r>    9.1093   -0.0000 </r>
       <r>    9.1811   -0.0000 </r>
       <r>    9.4367   -0.0000 </r>
       <r>    9.4734   -0.0000 </r>
       <r>    9.6982   -0.0000 </r>
       <r>    9.8494   -0.0000 </r>
       <r>    9.9917   -0.0000 </r>
      </set>
      <set comment="kpoint 77">
       <r>   -3.1536    1.0000 </r>
       <r>   -2.4751    1.0000 </r>
       <r>   -2.0262    1.0000 </r>
       <r>   -1.7856    1.0000 </r>
       <r>   -1.1232    1.0000 </r>
       <r>   -0.8977    1.0000 </r>
       <r>   -0.6633    1.0000 </r>
       <r>   -0.2265    1.0000 </r>
       <r>    0.0020    1.0000 </r>
       <r>    0.2213    1.0000 </r>
       <r>    0.4534    1.0000 </r>
       <r>    0.8700    1.0000 </r>
       <r>    1.1189    1.0000 </r>
       <r>    1.3255    1.0000 </r>
       <r>    1.5588    1.0000 </r>
       <r>    1.7749    1.0000 </r>
       <r>    2.1985    1.0000 </r>
       <r>    2.2137    1.0000 </r>
       <r>    2.4293    1.0000 </r>
       <r>    2.6275    1.0000 </r>
       <r>    2.8539    1.0000 </r>
       <r>    3.0733    1.0000 </r>
       <r>    3.1011    1.0000 </r>
       <r>    3.2860    1.0000 </r>
       <r>    3.5264    1.0000 </r>
       <r>    3.7168    1.0000 </r>
       <r>    3.7638    1.0000 </r>
       <r>    4.0780    1.0000 </r>
       <r>    4.1695    1.0000 </r>
       <r>    4.4100    1.0000 </r>
       <r>    4.7880    1.0000 </r>
       <r>    4.8295    1.0000 </r>
       <r>    5.3436    1.0000 </r>
       <r>    5.4456    1.0000 </r>
       <r>    5.6510    1.0000 </r>
       <r>    5.6658    1.0000 </r>
       <r>    5.7056    1.0000 </r>
       <r>    5.8827    1.0000 </r>
       <r>    6.1121    1.0084 </r>
       <r>    6.2135    1.0287 </r>
       <r>    6.5160    0.4691 </r>
       <r>    6.6693    0.0092 </r>
       <r>    6.9200   -0.0066 </r>
       <r>    7.0301   -0.0007 </r>
       <r>    7.3072   -0.0000 </r>
       <r>    7.3721   -0.0000 </r>
       <r>    7.4843   -0.0000 </r>
       <r>    7.7424   -0.0000 </r>
       <r>    7.8016   -0.0000 </r>
       <r>    7.8588   -0.0000 </r>
       <r>    8.0055   -0.0000 </r>
       <r>    8.3678   -0.0000 </r>
       <r>    8.4205   -0.0000 </r>
       <r>    8.6121   -0.0000 </r>
       <r>    8.7275   -0.0000 </r>
       <r>    8.8349   -0.0000 </r>
       <r>    8.9981   -0.0000 </r>
       <r>    9.1280   -0.0000 </r>
       <r>    9.4008   -0.0000 </r>
       <r>    9.4471   -0.0000 </r>
       <r>    9.5395   -0.0000 </r>
       <r>    9.6190   -0.0000 </r>
       <r>    9.6716   -0.0000 </r>
       <r>    9.8597   -0.0000 </r>
      </set>
      <set comment="kpoint 78">
       <r>   -3.1515    1.0000 </r>
       <r>   -2.4826    1.0000 </r>
       <r>   -2.0278    1.0000 </r>
       <r>   -1.7753    1.0000 </r>
       <r>   -1.1221    1.0000 </r>
       <r>   -0.9056    1.0000 </r>
       <r>   -0.6623    1.0000 </r>
       <r>   -0.2227    1.0000 </r>
       <r>    0.0168    1.0000 </r>
       <r>    0.2103    1.0000 </r>
       <r>    0.4456    1.0000 </r>
       <r>    0.8835    1.0000 </r>
       <r>    1.0942    1.0000 </r>
       <r>    1.3467    1.0000 </r>
       <r>    1.5426    1.0000 </r>
       <r>    1.7862    1.0000 </r>
       <r>    2.1897    1.0000 </r>
       <r>    2.2212    1.0000 </r>
       <r>    2.4154    1.0000 </r>
       <r>    2.6372    1.0000 </r>
       <r>    2.8443    1.0000 </r>
       <r>    3.0863    1.0000 </r>
       <r>    3.0998    1.0000 </r>
       <r>    3.2820    1.0000 </r>
       <r>    3.5327    1.0000 </r>
       <r>    3.7101    1.0000 </r>
       <r>    3.7601    1.0000 </r>
       <r>    4.0802    1.0000 </r>
       <r>    4.1899    1.0000 </r>
       <r>    4.4085    1.0000 </r>
       <r>    4.7861    1.0000 </r>
       <r>    4.8262    1.0000 </r>
       <r>    5.3209    1.0000 </r>
       <r>    5.4443    1.0000 </r>
       <r>    5.6462    1.0000 </r>
       <r>    5.6737    1.0000 </r>
       <r>    5.7041    1.0000 </r>
       <r>    5.9025    1.0001 </r>
       <r>    6.1192    1.0094 </r>
       <r>    6.2254    1.0312 </r>
       <r>    6.5087    0.4998 </r>
       <r>    6.6672    0.0118 </r>
       <r>    6.9278   -0.0058 </r>
       <r>    7.0166   -0.0010 </r>
       <r>    7.2615   -0.0000 </r>
       <r>    7.3915   -0.0000 </r>
       <r>    7.5055   -0.0000 </r>
       <r>    7.7506   -0.0000 </r>
       <r>    7.8126   -0.0000 </r>
       <r>    7.8498   -0.0000 </r>
       <r>    7.9714   -0.0000 </r>
       <r>    8.3657   -0.0000 </r>
       <r>    8.4202   -0.0000 </r>
       <r>    8.6299   -0.0000 </r>
       <r>    8.7662   -0.0000 </r>
       <r>    8.8008   -0.0000 </r>
       <r>    8.9988   -0.0000 </r>
       <r>    9.1090   -0.0000 </r>
       <r>    9.4046   -0.0000 </r>
       <r>    9.4392   -0.0000 </r>
       <r>    9.5652   -0.0000 </r>
       <r>    9.6167   -0.0000 </r>
       <r>    9.6843   -0.0000 </r>
       <r>    9.8555   -0.0000 </r>
      </set>
      <set comment="kpoint 79">
       <r>   -3.1556    1.0000 </r>
       <r>   -2.4672    1.0000 </r>
       <r>   -2.0267    1.0000 </r>
       <r>   -1.7925    1.0000 </r>
       <r>   -1.1294    1.0000 </r>
       <r>   -0.8892    1.0000 </r>
       <r>   -0.6650    1.0000 </r>
       <r>   -0.2374    1.0000 </r>
       <r>    0.0033    1.0000 </r>
       <r>    0.2388    1.0000 </r>
       <r>    0.4451    1.0000 </r>
       <r>    0.8873    1.0000 </r>
       <r>    1.1120    1.0000 </r>
       <r>    1.3283    1.0000 </r>
       <r>    1.5488    1.0000 </r>
       <r>    1.7773    1.0000 </r>
       <r>    2.1796    1.0000 </r>
       <r>    2.2151    1.0000 </r>
       <r>    2.4190    1.0000 </r>
       <r>    2.6509    1.0000 </r>
       <r>    2.8659    1.0000 </r>
       <r>    3.0626    1.0000 </r>
       <r>    3.0988    1.0000 </r>
       <r>    3.2756    1.0000 </r>
       <r>    3.5296    1.0000 </r>
       <r>    3.7398    1.0000 </r>
       <r>    3.7622    1.0000 </r>
       <r>    4.0671    1.0000 </r>
       <r>    4.1823    1.0000 </r>
       <r>    4.3976    1.0000 </r>
       <r>    4.7859    1.0000 </r>
       <r>    4.8187    1.0000 </r>
       <r>    5.3467    1.0000 </r>
       <r>    5.4508    1.0000 </r>
       <r>    5.6469    1.0000 </r>
       <r>    5.6700    1.0000 </r>
       <r>    5.6996    1.0000 </r>
       <r>    5.8863    1.0000 </r>
       <r>    6.0979    1.0067 </r>
       <r>    6.2398    1.0336 </r>
       <r>    6.5150    0.4732 </r>
       <r>    6.6623    0.0186 </r>
       <r>    6.9428   -0.0044 </r>
       <r>    7.0184   -0.0009 </r>
       <r>    7.3162   -0.0000 </r>
       <r>    7.3557   -0.0000 </r>
       <r>    7.4875   -0.0000 </r>
       <r>    7.7457   -0.0000 </r>
       <r>    7.7968   -0.0000 </r>
       <r>    7.8606   -0.0000 </r>
       <r>    7.9932   -0.0000 </r>
       <r>    8.3381   -0.0000 </r>
       <r>    8.4343   -0.0000 </r>
       <r>    8.6510   -0.0000 </r>
       <r>    8.6986   -0.0000 </r>
       <r>    8.8276   -0.0000 </r>
       <r>    9.0105   -0.0000 </r>
       <r>    9.1282   -0.0000 </r>
       <r>    9.4114   -0.0000 </r>
       <r>    9.4302   -0.0000 </r>
       <r>    9.5408   -0.0000 </r>
       <r>    9.6343   -0.0000 </r>
       <r>    9.6889   -0.0000 </r>
       <r>    9.8559   -0.0000 </r>
      </set>
      <set comment="kpoint 80">
       <r>   -3.1541    1.0000 </r>
       <r>   -2.4711    1.0000 </r>
       <r>   -2.0420    1.0000 </r>
       <r>   -1.7709    1.0000 </r>
       <r>   -1.1181    1.0000 </r>
       <r>   -0.8972    1.0000 </r>
       <r>   -0.6645    1.0000 </r>
       <r>   -0.2519    1.0000 </r>
       <r>    0.0094    1.0000 </r>
       <r>    0.2260    1.0000 </r>
       <r>    0.4519    1.0000 </r>
       <r>    0.8897    1.0000 </r>
       <r>    1.1067    1.0000 </r>
       <r>    1.3379    1.0000 </r>
       <r>    1.5360    1.0000 </r>
       <r>    1.7884    1.0000 </r>
       <r>    2.1972    1.0000 </r>
       <r>    2.2207    1.0000 </r>
       <r>    2.4215    1.0000 </r>
       <r>    2.6372    1.0000 </r>
       <r>    2.8605    1.0000 </r>
       <r>    3.0603    1.0000 </r>
       <r>    3.1031    1.0000 </r>
       <r>    3.2670    1.0000 </r>
       <r>    3.5394    1.0000 </r>
       <r>    3.7226    1.0000 </r>
       <r>    3.7560    1.0000 </r>
       <r>    4.0722    1.0000 </r>
       <r>    4.1798    1.0000 </r>
       <r>    4.4038    1.0000 </r>
       <r>    4.7858    1.0000 </r>
       <r>    4.8343    1.0000 </r>
       <r>    5.3426    1.0000 </r>
       <r>    5.4547    1.0000 </r>
       <r>    5.6386    1.0000 </r>
       <r>    5.6722    1.0000 </r>
       <r>    5.7060    1.0000 </r>
       <r>    5.8774    1.0000 </r>
       <r>    6.1074    1.0078 </r>
       <r>    6.2211    1.0303 </r>
       <r>    6.5209    0.4481 </r>
       <r>    6.6626    0.0181 </r>
       <r>    6.9171   -0.0070 </r>
       <r>    7.0399   -0.0006 </r>
       <r>    7.3156   -0.0000 </r>
       <r>    7.3691   -0.0000 </r>
       <r>    7.4784   -0.0000 </r>
       <r>    7.7362   -0.0000 </r>
       <r>    7.7966   -0.0000 </r>
       <r>    7.8654   -0.0000 </r>
       <r>    8.0002   -0.0000 </r>
       <r>    8.3544   -0.0000 </r>
       <r>    8.4144   -0.0000 </r>
       <r>    8.6475   -0.0000 </r>
       <r>    8.7284   -0.0000 </r>
       <r>    8.8166   -0.0000 </r>
       <r>    9.0083   -0.0000 </r>
       <r>    9.1315   -0.0000 </r>
       <r>    9.4135   -0.0000 </r>
       <r>    9.4286   -0.0000 </r>
       <r>    9.5582   -0.0000 </r>
       <r>    9.6230   -0.0000 </r>
       <r>    9.6705   -0.0000 </r>
       <r>    9.8621   -0.0000 </r>
      </set>
      <set comment="kpoint 81">
       <r>   -3.1528    1.0000 </r>
       <r>   -2.4787    1.0000 </r>
       <r>   -2.0315    1.0000 </r>
       <r>   -1.7711    1.0000 </r>
       <r>   -1.1296    1.0000 </r>
       <r>   -0.8936    1.0000 </r>
       <r>   -0.6679    1.0000 </r>
       <r>   -0.2432    1.0000 </r>
       <r>    0.0158    1.0000 </r>
       <r>    0.2326    1.0000 </r>
       <r>    0.4454    1.0000 </r>
       <r>    0.8773    1.0000 </r>
       <r>    1.1135    1.0000 </r>
       <r>    1.3299    1.0000 </r>
       <r>    1.5420    1.0000 </r>
       <r>    1.7863    1.0000 </r>
       <r>    2.1926    1.0000 </r>
       <r>    2.2213    1.0000 </r>
       <r>    2.4210    1.0000 </r>
       <r>    2.6289    1.0000 </r>
       <r>    2.8629    1.0000 </r>
       <r>    3.0844    1.0000 </r>
       <r>    3.0910    1.0000 </r>
       <r>    3.2678    1.0000 </r>
       <r>    3.5377    1.0000 </r>
       <r>    3.7298    1.0000 </r>
       <r>    3.7504    1.0000 </r>
       <r>    4.0677    1.0000 </r>
       <r>    4.1855    1.0000 </r>
       <r>    4.4122    1.0000 </r>
       <r>    4.7906    1.0000 </r>
       <r>    4.8262    1.0000 </r>
       <r>    5.3451    1.0000 </r>
       <r>    5.4418    1.0000 </r>
       <r>    5.6487    1.0000 </r>
       <r>    5.6758    1.0000 </r>
       <r>    5.6979    1.0000 </r>
       <r>    5.8815    1.0000 </r>
       <r>    6.1018    1.0071 </r>
       <r>    6.2213    1.0303 </r>
       <r>    6.5144    0.4757 </r>
       <r>    6.6762    0.0009 </r>
       <r>    6.8969   -0.0096 </r>
       <r>    7.0470   -0.0005 </r>
       <r>    7.3117   -0.0000 </r>
       <r>    7.3672   -0.0000 </r>
       <r>    7.4773   -0.0000 </r>
       <r>    7.7441   -0.0000 </r>
       <r>    7.8113   -0.0000 </r>
       <r>    7.8550   -0.0000 </r>
       <r>    7.9948   -0.0000 </r>
       <r>    8.3568   -0.0000 </r>
       <r>    8.4260   -0.0000 </r>
       <r>    8.6225   -0.0000 </r>
       <r>    8.7266   -0.0000 </r>
       <r>    8.8389   -0.0000 </r>
       <r>    9.0104   -0.0000 </r>
       <r>    9.1280   -0.0000 </r>
       <r>    9.4134   -0.0000 </r>
       <r>    9.4379   -0.0000 </r>
       <r>    9.5263   -0.0000 </r>
       <r>    9.6289   -0.0000 </r>
       <r>    9.6857   -0.0000 </r>
       <r>    9.8463   -0.0000 </r>
      </set>
      <set comment="kpoint 82">
       <r>   -3.1510    1.0000 </r>
       <r>   -2.4816    1.0000 </r>
       <r>   -2.0341    1.0000 </r>
       <r>   -1.7715    1.0000 </r>
       <r>   -1.1278    1.0000 </r>
       <r>   -0.8948    1.0000 </r>
       <r>   -0.6628    1.0000 </r>
       <r>   -0.2389    1.0000 </r>
       <r>    0.0236    1.0000 </r>
       <r>    0.2250    1.0000 </r>
       <r>    0.4438    1.0000 </r>
       <r>    0.8857    1.0000 </r>
       <r>    1.0974    1.0000 </r>
       <r>    1.3301    1.0000 </r>
       <r>    1.5364    1.0000 </r>
       <r>    1.7919    1.0000 </r>
       <r>    2.1994    1.0000 </r>
       <r>    2.2213    1.0000 </r>
       <r>    2.4085    1.0000 </r>
       <r>    2.6384    1.0000 </r>
       <r>    2.8554    1.0000 </r>
       <r>    3.0564    1.0000 </r>
       <r>    3.1197    1.0000 </r>
       <r>    3.2722    1.0000 </r>
       <r>    3.5395    1.0000 </r>
       <r>    3.7053    1.0000 </r>
       <r>    3.7685    1.0000 </r>
       <r>    4.0678    1.0000 </r>
       <r>    4.1816    1.0000 </r>
       <r>    4.4045    1.0000 </r>
       <r>    4.7896    1.0000 </r>
       <r>    4.8463    1.0000 </r>
       <r>    5.3331    1.0000 </r>
       <r>    5.4588    1.0000 </r>
       <r>    5.6504    1.0000 </r>
       <r>    5.6746    1.0000 </r>
       <r>    5.6981    1.0000 </r>
       <r>    5.8816    1.0000 </r>
       <r>    6.1190    1.0094 </r>
       <r>    6.2087    1.0277 </r>
       <r>    6.5200    0.4520 </r>
       <r>    6.6729    0.0047 </r>
       <r>    6.9074   -0.0082 </r>
       <r>    7.0482   -0.0005 </r>
       <r>    7.2802   -0.0000 </r>
       <r>    7.3909   -0.0000 </r>
       <r>    7.4848   -0.0000 </r>
       <r>    7.7295   -0.0000 </r>
       <r>    7.8118   -0.0000 </r>
       <r>    7.8518   -0.0000 </r>
       <r>    7.9833   -0.0000 </r>
       <r>    8.3563   -0.0000 </r>
       <r>    8.4224   -0.0000 </r>
       <r>    8.6187   -0.0000 </r>
       <r>    8.7528   -0.0000 </r>
       <r>    8.8166   -0.0000 </r>
       <r>    8.9982   -0.0000 </r>
       <r>    9.1311   -0.0000 </r>
       <r>    9.4031   -0.0000 </r>
       <r>    9.4464   -0.0000 </r>
       <r>    9.5767   -0.0000 </r>
       <r>    9.6076   -0.0000 </r>
       <r>    9.6664   -0.0000 </r>
       <r>    9.9327   -0.0000 </r>
      </set>
      <set comment="kpoint 83">
       <r>   -3.1564    1.0000 </r>
       <r>   -2.4649    1.0000 </r>
       <r>   -2.0290    1.0000 </r>
       <r>   -1.7903    1.0000 </r>
       <r>   -1.1310    1.0000 </r>
       <r>   -0.8967    1.0000 </r>
       <r>   -0.6591    1.0000 </r>
       <r>   -0.2175    1.0000 </r>
       <r>   -0.0017    1.0000 </r>
       <r>    0.2207    1.0000 </r>
       <r>    0.4361    1.0000 </r>
       <r>    0.8887    1.0000 </r>
       <r>    1.1213    1.0000 </r>
       <r>    1.3219    1.0000 </r>
       <r>    1.5570    1.0000 </r>
       <r>    1.7849    1.0000 </r>
       <r>    2.1817    1.0000 </r>
       <r>    2.2163    1.0000 </r>
       <r>    2.4261    1.0000 </r>
       <r>    2.6505    1.0000 </r>
       <r>    2.8618    1.0000 </r>
       <r>    3.0452    1.0000 </r>
       <r>    3.0925    1.0000 </r>
       <r>    3.2990    1.0000 </r>
       <r>    3.5238    1.0000 </r>
       <r>    3.7267    1.0000 </r>
       <r>    3.7588    1.0000 </r>
       <r>    4.0776    1.0000 </r>
       <r>    4.1682    1.0000 </r>
       <r>    4.4058    1.0000 </r>
       <r>    4.7799    1.0000 </r>
       <r>    4.8283    1.0000 </r>
       <r>    5.3540    1.0000 </r>
       <r>    5.4571    1.0000 </r>
       <r>    5.6377    1.0000 </r>
       <r>    5.6726    1.0000 </r>
       <r>    5.6927    1.0000 </r>
       <r>    5.8905    1.0001 </r>
       <r>    6.1103    1.0082 </r>
       <r>    6.2296    1.0319 </r>
       <r>    6.5070    0.5068 </r>
       <r>    6.6517    0.0349 </r>
       <r>    6.9654   -0.0029 </r>
       <r>    7.0052   -0.0013 </r>
       <r>    7.3000   -0.0000 </r>
       <r>    7.3660   -0.0000 </r>
       <r>    7.5025   -0.0000 </r>
       <r>    7.7347   -0.0000 </r>
       <r>    7.8134   -0.0000 </r>
       <r>    7.8410   -0.0000 </r>
       <r>    8.0002   -0.0000 </r>
       <r>    8.3449   -0.0000 </r>
       <r>    8.4301   -0.0000 </r>
       <r>    8.6482   -0.0000 </r>
       <r>    8.7266   -0.0000 </r>
       <r>    8.8089   -0.0000 </r>
       <r>    9.0094   -0.0000 </r>
       <r>    9.1122   -0.0000 </r>
       <r>    9.4123   -0.0000 </r>
       <r>    9.4366   -0.0000 </r>
       <r>    9.5637   -0.0000 </r>
       <r>    9.6425   -0.0000 </r>
       <r>    9.6648   -0.0000 </r>
       <r>    9.8597   -0.0000 </r>
      </set>
      <set comment="kpoint 84">
       <r>   -3.1557    1.0000 </r>
       <r>   -2.4732    1.0000 </r>
       <r>   -2.0095    1.0000 </r>
       <r>   -1.8002    1.0000 </r>
       <r>   -1.1250    1.0000 </r>
       <r>   -0.9029    1.0000 </r>
       <r>   -0.6621    1.0000 </r>
       <r>   -0.2235    1.0000 </r>
       <r>   -0.0096    1.0000 </r>
       <r>    0.2224    1.0000 </r>
       <r>    0.4621    1.0000 </r>
       <r>    0.8860    1.0000 </r>
       <r>    1.1023    1.0000 </r>
       <r>    1.3301    1.0000 </r>
       <r>    1.5625    1.0000 </r>
       <r>    1.7630    1.0000 </r>
       <r>    2.1954    1.0000 </r>
       <r>    2.2312    1.0000 </r>
       <r>    2.4225    1.0000 </r>
       <r>    2.6326    1.0000 </r>
       <r>    2.8507    1.0000 </r>
       <r>    3.0823    1.0000 </r>
       <r>    3.1008    1.0000 </r>
       <r>    3.2895    1.0000 </r>
       <r>    3.5230    1.0000 </r>
       <r>    3.7237    1.0000 </r>
       <r>    3.7486    1.0000 </r>
       <r>    4.0776    1.0000 </r>
       <r>    4.1841    1.0000 </r>
       <r>    4.4025    1.0000 </r>
       <r>    4.7869    1.0000 </r>
       <r>    4.8152    1.0000 </r>
       <r>    5.3325    1.0000 </r>
       <r>    5.4358    1.0000 </r>
       <r>    5.6214    1.0000 </r>
       <r>    5.6780    1.0000 </r>
       <r>    5.7315    1.0000 </r>
       <r>    5.8863    1.0000 </r>
       <r>    6.0997    1.0069 </r>
       <r>    6.2342    1.0327 </r>
       <r>    6.5190    0.4564 </r>
       <r>    6.6722    0.0056 </r>
       <r>    6.9554   -0.0035 </r>
       <r>    6.9954   -0.0015 </r>
       <r>    7.2884   -0.0000 </r>
       <r>    7.3823   -0.0000 </r>
       <r>    7.4807   -0.0000 </r>
       <r>    7.7545   -0.0000 </r>
       <r>    7.8021   -0.0000 </r>
       <r>    7.8614   -0.0000 </r>
       <r>    7.9965   -0.0000 </r>
       <r>    8.3661   -0.0000 </r>
       <r>    8.4326   -0.0000 </r>
       <r>    8.6292   -0.0000 </r>
       <r>    8.7431   -0.0000 </r>
       <r>    8.8040   -0.0000 </r>
       <r>    8.9946   -0.0000 </r>
       <r>    9.1238   -0.0000 </r>
       <r>    9.4056   -0.0000 </r>
       <r>    9.4386   -0.0000 </r>
       <r>    9.5494   -0.0000 </r>
       <r>    9.6260   -0.0000 </r>
       <r>    9.6623   -0.0000 </r>
       <r>    9.8631   -0.0000 </r>
      </set>
      <set comment="kpoint 85">
       <r>   -3.1519    1.0000 </r>
       <r>   -2.4831    1.0000 </r>
       <r>   -2.0163    1.0000 </r>
       <r>   -1.7887    1.0000 </r>
       <r>   -1.1236    1.0000 </r>
       <r>   -0.8943    1.0000 </r>
       <r>   -0.6705    1.0000 </r>
       <r>   -0.2158    1.0000 </r>
       <r>   -0.0044    1.0000 </r>
       <r>    0.2259    1.0000 </r>
       <r>    0.4459    1.0000 </r>
       <r>    0.8821    1.0000 </r>
       <r>    1.1095    1.0000 </r>
       <r>    1.3231    1.0000 </r>
       <r>    1.5610    1.0000 </r>
       <r>    1.7707    1.0000 </r>
       <r>    2.1812    1.0000 </r>
       <r>    2.2317    1.0000 </r>
       <r>    2.4247    1.0000 </r>
       <r>    2.6316    1.0000 </r>
       <r>    2.8582    1.0000 </r>
       <r>    3.0671    1.0000 </r>
       <r>    3.1073    1.0000 </r>
       <r>    3.2932    1.0000 </r>
       <r>    3.5230    1.0000 </r>
       <r>    3.7182    1.0000 </r>
       <r>    3.7512    1.0000 </r>
       <r>    4.0722    1.0000 </r>
       <r>    4.1868    1.0000 </r>
       <r>    4.4078    1.0000 </r>
       <r>    4.7847    1.0000 </r>
       <r>    4.8331    1.0000 </r>
       <r>    5.3361    1.0000 </r>
       <r>    5.4389    1.0000 </r>
       <r>    5.6411    1.0000 </r>
       <r>    5.6747    1.0000 </r>
       <r>    5.7056    1.0000 </r>
       <r>    5.9042    1.0001 </r>
       <r>    6.1090    1.0080 </r>
       <r>    6.2187    1.0298 </r>
       <r>    6.5092    0.4978 </r>
       <r>    6.6712    0.0068 </r>
       <r>    6.9538   -0.0036 </r>
       <r>    6.9997   -0.0014 </r>
       <r>    7.2914   -0.0000 </r>
       <r>    7.3699   -0.0000 </r>
       <r>    7.5000   -0.0000 </r>
       <r>    7.7501   -0.0000 </r>
       <r>    7.8033   -0.0000 </r>
       <r>    7.8446   -0.0000 </r>
       <r>    7.9896   -0.0000 </r>
       <r>    8.3358   -0.0000 </r>
       <r>    8.4530   -0.0000 </r>
       <r>    8.6313   -0.0000 </r>
       <r>    8.7162   -0.0000 </r>
       <r>    8.8351   -0.0000 </r>
       <r>    8.9997   -0.0000 </r>
       <r>    9.1168   -0.0000 </r>
       <r>    9.4193   -0.0000 </r>
       <r>    9.4358   -0.0000 </r>
       <r>    9.5411   -0.0000 </r>
       <r>    9.6365   -0.0000 </r>
       <r>    9.6740   -0.0000 </r>
       <r>    9.8554   -0.0000 </r>
      </set>
      <set comment="kpoint 86">
       <r>   -3.1525    1.0000 </r>
       <r>   -2.4781    1.0000 </r>
       <r>   -2.0274    1.0000 </r>
       <r>   -1.7854    1.0000 </r>
       <r>   -1.1112    1.0000 </r>
       <r>   -0.8974    1.0000 </r>
       <r>   -0.6757    1.0000 </r>
       <r>   -0.2164    1.0000 </r>
       <r>    0.0047    1.0000 </r>
       <r>    0.2036    1.0000 </r>
       <r>    0.4546    1.0000 </r>
       <r>    0.8834    1.0000 </r>
       <r>    1.1043    1.0000 </r>
       <r>    1.3398    1.0000 </r>
       <r>    1.5515    1.0000 </r>
       <r>    1.7747    1.0000 </r>
       <r>    2.2028    1.0000 </r>
       <r>    2.2147    1.0000 </r>
       <r>    2.4246    1.0000 </r>
       <r>    2.6366    1.0000 </r>
       <r>    2.8457    1.0000 </r>
       <r>    3.0675    1.0000 </r>
       <r>    3.1006    1.0000 </r>
       <r>    3.2903    1.0000 </r>
       <r>    3.5333    1.0000 </r>
       <r>    3.7061    1.0000 </r>
       <r>    3.7487    1.0000 </r>
       <r>    4.0904    1.0000 </r>
       <r>    4.1786    1.0000 </r>
       <r>    4.4120    1.0000 </r>
       <r>    4.7911    1.0000 </r>
       <r>    4.8269    1.0000 </r>
       <r>    5.3402    1.0000 </r>
       <r>    5.4407    1.0000 </r>
       <r>    5.6388    1.0000 </r>
       <r>    5.6732    1.0000 </r>
       <r>    5.7010    1.0000 </r>
       <r>    5.9083    1.0001 </r>
       <r>    6.1120    1.0084 </r>
       <r>    6.2217    1.0304 </r>
       <r>    6.5037    0.5210 </r>
       <r>    6.6666    0.0126 </r>
       <r>    6.9538   -0.0036 </r>
       <r>    6.9965   -0.0015 </r>
       <r>    7.2944   -0.0000 </r>
       <r>    7.3577   -0.0000 </r>
       <r>    7.5109   -0.0000 </r>
       <r>    7.7478   -0.0000 </r>
       <r>    7.8078   -0.0000 </r>
       <r>    7.8480   -0.0000 </r>
       <r>    7.9937   -0.0000 </r>
       <r>    8.3558   -0.0000 </r>
       <r>    8.4256   -0.0000 </r>
       <r>    8.6464   -0.0000 </r>
       <r>    8.7410   -0.0000 </r>
       <r>    8.7995   -0.0000 </r>
       <r>    8.9989   -0.0000 </r>
       <r>    9.0980   -0.0000 </r>
       <r>    9.4126   -0.0000 </r>
       <r>    9.4392   -0.0000 </r>
       <r>    9.5706   -0.0000 </r>
       <r>    9.6160   -0.0000 </r>
       <r>    9.6653   -0.0000 </r>
       <r>    9.8606   -0.0000 </r>
      </set>
      <set comment="kpoint 87">
       <r>   -3.1562    1.0000 </r>
       <r>   -2.4683    1.0000 </r>
       <r>   -2.0186    1.0000 </r>
       <r>   -1.7959    1.0000 </r>
       <r>   -1.1342    1.0000 </r>
       <r>   -0.8900    1.0000 </r>
       <r>   -0.6733    1.0000 </r>
       <r>   -0.2202    1.0000 </r>
       <r>    0.0068    1.0000 </r>
       <r>    0.2326    1.0000 </r>
       <r>    0.4371    1.0000 </r>
       <r>    0.8898    1.0000 </r>
       <r>    1.1158    1.0000 </r>
       <r>    1.3182    1.0000 </r>
       <r>    1.5589    1.0000 </r>
       <r>    1.7744    1.0000 </r>
       <r>    2.1884    1.0000 </r>
       <r>    2.2158    1.0000 </r>
       <r>    2.4129    1.0000 </r>
       <r>    2.6483    1.0000 </r>
       <r>    2.8522    1.0000 </r>
       <r>    3.0716    1.0000 </r>
       <r>    3.0997    1.0000 </r>
       <r>    3.2874    1.0000 </r>
       <r>    3.5387    1.0000 </r>
       <r>    3.7356    1.0000 </r>
       <r>    3.7498    1.0000 </r>
       <r>    4.0741    1.0000 </r>
       <r>    4.1791    1.0000 </r>
       <r>    4.4042    1.0000 </r>
       <r>    4.7852    1.0000 </r>
       <r>    4.8047    1.0000 </r>
       <r>    5.3469    1.0000 </r>
       <r>    5.4395    1.0000 </r>
       <r>    5.6415    1.0000 </r>
       <r>    5.6674    1.0000 </r>
       <r>    5.7101    1.0000 </r>
       <r>    5.8950    1.0001 </r>
       <r>    6.1003    1.0070 </r>
       <r>    6.2433    1.0341 </r>
       <r>    6.5128    0.4825 </r>
       <r>    6.6566    0.0270 </r>
       <r>    6.9668   -0.0028 </r>
       <r>    6.9991   -0.0014 </r>
       <r>    7.2941   -0.0000 </r>
       <r>    7.3705   -0.0000 </r>
       <r>    7.4911   -0.0000 </r>
       <r>    7.7512   -0.0000 </r>
       <r>    7.7989   -0.0000 </r>
       <r>    7.8629   -0.0000 </r>
       <r>    7.9919   -0.0000 </r>
       <r>    8.3416   -0.0000 </r>
       <r>    8.4326   -0.0000 </r>
       <r>    8.6155   -0.0000 </r>
       <r>    8.7385   -0.0000 </r>
       <r>    8.8265   -0.0000 </r>
       <r>    8.9987   -0.0000 </r>
       <r>    9.1251   -0.0000 </r>
       <r>    9.4082   -0.0000 </r>
       <r>    9.4350   -0.0000 </r>
       <r>    9.5330   -0.0000 </r>
       <r>    9.6500   -0.0000 </r>
       <r>    9.6800   -0.0000 </r>
       <r>    9.8572   -0.0000 </r>
      </set>
      <set comment="kpoint 88">
       <r>   -3.1551    1.0000 </r>
       <r>   -2.4733    1.0000 </r>
       <r>   -2.0097    1.0000 </r>
       <r>   -1.8036    1.0000 </r>
       <r>   -1.1185    1.0000 </r>
       <r>   -0.9097    1.0000 </r>
       <r>   -0.6584    1.0000 </r>
       <r>   -0.2250    1.0000 </r>
       <r>   -0.0099    1.0000 </r>
       <r>    0.2328    1.0000 </r>
       <r>    0.4568    1.0000 </r>
       <r>    0.8836    1.0000 </r>
       <r>    1.1107    1.0000 </r>
       <r>    1.3194    1.0000 </r>
       <r>    1.5659    1.0000 </r>
       <r>    1.7646    1.0000 </r>
       <r>    2.1896    1.0000 </r>
       <r>    2.2257    1.0000 </r>
       <r>    2.4243    1.0000 </r>
       <r>    2.6358    1.0000 </r>
       <r>    2.8563    1.0000 </r>
       <r>    3.0655    1.0000 </r>
       <r>    3.1087    1.0000 </r>
       <r>    3.2914    1.0000 </r>
       <r>    3.5134    1.0000 </r>
       <r>    3.7285    1.0000 </r>
       <r>    3.7592    1.0000 </r>
       <r>    4.0660    1.0000 </r>
       <r>    4.1872    1.0000 </r>
       <r>    4.3957    1.0000 </r>
       <r>    4.7916    1.0000 </r>
       <r>    4.8230    1.0000 </r>
       <r>    5.3421    1.0000 </r>
       <r>    5.4427    1.0000 </r>
       <r>    5.6365    1.0000 </r>
       <r>    5.6709    1.0000 </r>
       <r>    5.7104    1.0000 </r>
       <r>    5.8884    1.0001 </r>
       <r>    6.0979    1.0067 </r>
       <r>    6.2295    1.0319 </r>
       <r>    6.5216    0.4455 </r>
       <r>    6.6714    0.0065 </r>
       <r>    6.9605   -0.0032 </r>
       <r>    7.0032   -0.0013 </r>
       <r>    7.2968   -0.0000 </r>
       <r>    7.3825   -0.0000 </r>
       <r>    7.4756   -0.0000 </r>
       <r>    7.7418   -0.0000 </r>
       <r>    7.7976   -0.0000 </r>
       <r>    7.8524   -0.0000 </r>
       <r>    8.0085   -0.0000 </r>
       <r>    8.3578   -0.0000 </r>
       <r>    8.4400   -0.0000 </r>
       <r>    8.6287   -0.0000 </r>
       <r>    8.7411   -0.0000 </r>
       <r>    8.8080   -0.0000 </r>
       <r>    8.9982   -0.0000 </r>
       <r>    9.1186   -0.0000 </r>
       <r>    9.4069   -0.0000 </r>
       <r>    9.4301   -0.0000 </r>
       <r>    9.5514   -0.0000 </r>
       <r>    9.6360   -0.0000 </r>
       <r>    9.6615   -0.0000 </r>
       <r>    9.8586   -0.0000 </r>
      </set>
      <set comment="kpoint 89">
       <r>   -3.1516    1.0000 </r>
       <r>   -2.4826    1.0000 </r>
       <r>   -2.0312    1.0000 </r>
       <r>   -1.7686    1.0000 </r>
       <r>   -1.1356    1.0000 </r>
       <r>   -0.8846    1.0000 </r>
       <r>   -0.6684    1.0000 </r>
       <r>   -0.2402    1.0000 </r>
       <r>    0.0178    1.0000 </r>
       <r>    0.2257    1.0000 </r>
       <r>    0.4426    1.0000 </r>
       <r>    0.8922    1.0000 </r>
       <r>    1.0962    1.0000 </r>
       <r>    1.3288    1.0000 </r>
       <r>    1.5367    1.0000 </r>
       <r>    1.7902    1.0000 </r>
       <r>    2.1997    1.0000 </r>
       <r>    2.2164    1.0000 </r>
       <r>    2.4241    1.0000 </r>
       <r>    2.6328    1.0000 </r>
       <r>    2.8561    1.0000 </r>
       <r>    3.0840    1.0000 </r>
       <r>    3.0960    1.0000 </r>
       <r>    3.2741    1.0000 </r>
       <r>    3.5514    1.0000 </r>
       <r>    3.7196    1.0000 </r>
       <r>    3.7381    1.0000 </r>
       <r>    4.0713    1.0000 </r>
       <r>    4.1841    1.0000 </r>
       <r>    4.4131    1.0000 </r>
       <r>    4.7967    1.0000 </r>
       <r>    4.8230    1.0000 </r>
       <r>    5.3356    1.0000 </r>
       <r>    5.4427    1.0000 </r>
       <r>    5.6291    1.0000 </r>
       <r>    5.6733    1.0000 </r>
       <r>    5.7124    1.0000 </r>
       <r>    5.8925    1.0001 </r>
       <r>    6.1126    1.0085 </r>
       <r>    6.2137    1.0288 </r>
       <r>    6.5198    0.4528 </r>
       <r>    6.6673    0.0117 </r>
       <r>    6.9110   -0.0077 </r>
       <r>    7.0473   -0.0005 </r>
       <r>    7.2941   -0.0000 </r>
       <r>    7.3657   -0.0000 </r>
       <r>    7.4849   -0.0000 </r>
       <r>    7.7538   -0.0000 </r>
       <r>    7.8128   -0.0000 </r>
       <r>    7.8591   -0.0000 </r>
       <r>    7.9870   -0.0000 </r>
       <r>    8.3234   -0.0000 </r>
       <r>    8.4496   -0.0000 </r>
       <r>    8.6457   -0.0000 </r>
       <r>    8.7425   -0.0000 </r>
       <r>    8.8005   -0.0000 </r>
       <r>    9.0007   -0.0000 </r>
       <r>    9.1236   -0.0000 </r>
       <r>    9.4138   -0.0000 </r>
       <r>    9.4369   -0.0000 </r>
       <r>    9.5640   -0.0000 </r>
       <r>    9.6216   -0.0000 </r>
       <r>    9.6431   -0.0000 </r>
       <r>    9.8696   -0.0000 </r>
      </set>
      <set comment="kpoint 90">
       <r>   -3.1535    1.0000 </r>
       <r>   -2.4747    1.0000 </r>
       <r>   -2.0348    1.0000 </r>
       <r>   -1.7742    1.0000 </r>
       <r>   -1.1226    1.0000 </r>
       <r>   -0.8929    1.0000 </r>
       <r>   -0.6711    1.0000 </r>
       <r>   -0.2517    1.0000 </r>
       <r>    0.0183    1.0000 </r>
       <r>    0.2375    1.0000 </r>
       <r>    0.4373    1.0000 </r>
       <r>    0.8968    1.0000 </r>
       <r>    1.1083    1.0000 </r>
       <r>    1.3271    1.0000 </r>
       <r>    1.5407    1.0000 </r>
       <r>    1.7905    1.0000 </r>
       <r>    2.1784    1.0000 </r>
       <r>    2.2149    1.0000 </r>
       <r>    2.4369    1.0000 </r>
       <r>    2.6370    1.0000 </r>
       <r>    2.8555    1.0000 </r>
       <r>    3.0580    1.0000 </r>
       <r>    3.1005    1.0000 </r>
       <r>    3.2831    1.0000 </r>
       <r>    3.5454    1.0000 </r>
       <r>    3.7231    1.0000 </r>
       <r>    3.7519    1.0000 </r>
       <r>    4.0639    1.0000 </r>
       <r>    4.1888    1.0000 </r>
       <r>    4.3999    1.0000 </r>
       <r>    4.7845    1.0000 </r>
       <r>    4.8327    1.0000 </r>
       <r>    5.3430    1.0000 </r>
       <r>    5.4517    1.0000 </r>
       <r>    5.6334    1.0000 </r>
       <r>    5.6832    1.0000 </r>
       <r>    5.7111    1.0000 </r>
       <r>    5.8863    1.0000 </r>
       <r>    6.1013    1.0071 </r>
       <r>    6.2153    1.0291 </r>
       <r>    6.5153    0.4720 </r>
       <r>    6.6652    0.0145 </r>
       <r>    6.9191   -0.0067 </r>
       <r>    7.0451   -0.0005 </r>
       <r>    7.2835   -0.0000 </r>
       <r>    7.3718   -0.0000 </r>
       <r>    7.5010   -0.0000 </r>
       <r>    7.7269   -0.0000 </r>
       <r>    7.8186   -0.0000 </r>
       <r>    7.8570   -0.0000 </r>
       <r>    7.9869   -0.0000 </r>
       <r>    8.3443   -0.0000 </r>
       <r>    8.4290   -0.0000 </r>
       <r>    8.6516   -0.0000 </r>
       <r>    8.7428   -0.0000 </r>
       <r>    8.8126   -0.0000 </r>
       <r>    8.9987   -0.0000 </r>
       <r>    9.1320   -0.0000 </r>
       <r>    9.4227   -0.0000 </r>
       <r>    9.4289   -0.0000 </r>
       <r>    9.5622   -0.0000 </r>
       <r>    9.6283   -0.0000 </r>
       <r>    9.6628   -0.0000 </r>
       <r>    9.8469   -0.0000 </r>
      </set>
      <set comment="kpoint 91">
       <r>   -3.1527    1.0000 </r>
       <r>   -2.4745    1.0000 </r>
       <r>   -2.0409    1.0000 </r>
       <r>   -1.7716    1.0000 </r>
       <r>   -1.1165    1.0000 </r>
       <r>   -0.8957    1.0000 </r>
       <r>   -0.6760    1.0000 </r>
       <r>   -0.2356    1.0000 </r>
       <r>    0.0085    1.0000 </r>
       <r>    0.2343    1.0000 </r>
       <r>    0.4482    1.0000 </r>
       <r>    0.8790    1.0000 </r>
       <r>    1.1127    1.0000 </r>
       <r>    1.3327    1.0000 </r>
       <r>    1.5350    1.0000 </r>
       <r>    1.7902    1.0000 </r>
       <r>    2.1970    1.0000 </r>
       <r>    2.2143    1.0000 </r>
       <r>    2.4207    1.0000 </r>
       <r>    2.6352    1.0000 </r>
       <r>    2.8481    1.0000 </r>
       <r>    3.0557    1.0000 </r>
       <r>    3.1250    1.0000 </r>
       <r>    3.2703    1.0000 </r>
       <r>    3.5392    1.0000 </r>
       <r>    3.7073    1.0000 </r>
       <r>    3.7677    1.0000 </r>
       <r>    4.0750    1.0000 </r>
       <r>    4.1775    1.0000 </r>
       <r>    4.4008    1.0000 </r>
       <r>    4.7841    1.0000 </r>
       <r>    4.8500    1.0000 </r>
       <r>    5.3461    1.0000 </r>
       <r>    5.4436    1.0000 </r>
       <r>    5.6228    1.0000 </r>
       <r>    5.6724    1.0000 </r>
       <r>    5.7358    1.0000 </r>
       <r>    5.8714    1.0000 </r>
       <r>    6.1123    1.0085 </r>
       <r>    6.2127    1.0286 </r>
       <r>    6.5193    0.4548 </r>
       <r>    6.6752    0.0020 </r>
       <r>    6.9079   -0.0081 </r>
       <r>    7.0447   -0.0005 </r>
       <r>    7.3064   -0.0000 </r>
       <r>    7.3711   -0.0000 </r>
       <r>    7.4913   -0.0000 </r>
       <r>    7.7258   -0.0000 </r>
       <r>    7.7999   -0.0000 </r>
       <r>    7.8594   -0.0000 </r>
       <r>    7.9991   -0.0000 </r>
       <r>    8.3531   -0.0000 </r>
       <r>    8.4218   -0.0000 </r>
       <r>    8.6225   -0.0000 </r>
       <r>    8.7579   -0.0000 </r>
       <r>    8.8080   -0.0000 </r>
       <r>    8.9962   -0.0000 </r>
       <r>    9.1332   -0.0000 </r>
       <r>    9.4035   -0.0000 </r>
       <r>    9.4439   -0.0000 </r>
       <r>    9.5657   -0.0000 </r>
       <r>    9.6110   -0.0000 </r>
       <r>    9.6400   -0.0000 </r>
       <r>    9.8631   -0.0000 </r>
      </set>
      <set comment="kpoint 92">
       <r>   -3.1566    1.0000 </r>
       <r>   -2.4664    1.0000 </r>
       <r>   -2.0171    1.0000 </r>
       <r>   -1.8018    1.0000 </r>
       <r>   -1.1324    1.0000 </r>
       <r>   -0.8903    1.0000 </r>
       <r>   -0.6653    1.0000 </r>
       <r>   -0.2209    1.0000 </r>
       <r>   -0.0029    1.0000 </r>
       <r>    0.2220    1.0000 </r>
       <r>    0.4518    1.0000 </r>
       <r>    0.8895    1.0000 </r>
       <r>    1.1077    1.0000 </r>
       <r>    1.3256    1.0000 </r>
       <r>    1.5610    1.0000 </r>
       <r>    1.7741    1.0000 </r>
       <r>    2.1881    1.0000 </r>
       <r>    2.2172    1.0000 </r>
       <r>    2.4217    1.0000 </r>
       <r>    2.6472    1.0000 </r>
       <r>    2.8538    1.0000 </r>
       <r>    3.0623    1.0000 </r>
       <r>    3.1033    1.0000 </r>
       <r>    3.2902    1.0000 </r>
       <r>    3.5258    1.0000 </r>
       <r>    3.7325    1.0000 </r>
       <r>    3.7480    1.0000 </r>
       <r>    4.0728    1.0000 </r>
       <r>    4.1721    1.0000 </r>
       <r>    4.4041    1.0000 </r>
       <r>    4.7812    1.0000 </r>
       <r>    4.8280    1.0000 </r>
       <r>    5.3501    1.0000 </r>
       <r>    5.4440    1.0000 </r>
       <r>    5.6204    1.0000 </r>
       <r>    5.6741    1.0000 </r>
       <r>    5.7340    1.0000 </r>
       <r>    5.8863    1.0000 </r>
       <r>    6.0957    1.0064 </r>
       <r>    6.2310    1.0322 </r>
       <r>    6.5088    0.4993 </r>
       <r>    6.6638    0.0165 </r>
       <r>    6.9753   -0.0024 </r>
       <r>    6.9980   -0.0015 </r>
       <r>    7.2893   -0.0000 </r>
       <r>    7.3928   -0.0000 </r>
       <r>    7.4729   -0.0000 </r>
       <r>    7.7332   -0.0000 </r>
       <r>    7.8157   -0.0000 </r>
       <r>    7.8476   -0.0000 </r>
       <r>    7.9948   -0.0000 </r>
       <r>    8.3504   -0.0000 </r>
       <r>    8.4417   -0.0000 </r>
       <r>    8.6448   -0.0000 </r>
       <r>    8.7364   -0.0000 </r>
       <r>    8.8081   -0.0000 </r>
       <r>    8.9954   -0.0000 </r>
       <r>    9.1127   -0.0000 </r>
       <r>    9.4158   -0.0000 </r>
       <r>    9.4290   -0.0000 </r>
       <r>    9.5596   -0.0000 </r>
       <r>    9.6294   -0.0000 </r>
       <r>    9.6659   -0.0000 </r>
       <r>    9.8518   -0.0000 </r>
      </set>
      <set comment="kpoint 93">
       <r>   -3.1534    1.0000 </r>
       <r>   -2.4776    1.0000 </r>
       <r>   -2.0182    1.0000 </r>
       <r>   -1.7939    1.0000 </r>
       <r>   -1.1128    1.0000 </r>
       <r>   -0.9030    1.0000 </r>
       <r>   -0.6690    1.0000 </r>
       <r>   -0.2122    1.0000 </r>
       <r>   -0.0087    1.0000 </r>
       <r>    0.2171    1.0000 </r>
       <r>    0.4544    1.0000 </r>
       <r>    0.8744    1.0000 </r>
       <r>    1.1168    1.0000 </r>
       <r>    1.3231    1.0000 </r>
       <r>    1.5621    1.0000 </r>
       <r>    1.7624    1.0000 </r>
       <r>    2.1977    1.0000 </r>
       <r>    2.2266    1.0000 </r>
       <r>    2.4321    1.0000 </r>
       <r>    2.6282    1.0000 </r>
       <r>    2.8497    1.0000 </r>
       <r>    3.0676    1.0000 </r>
       <r>    3.1145    1.0000 </r>
       <r>    3.2956    1.0000 </r>
       <r>    3.5238    1.0000 </r>
       <r>    3.7060    1.0000 </r>
       <r>    3.7557    1.0000 </r>
       <r>    4.0820    1.0000 </r>
       <r>    4.1860    1.0000 </r>
       <r>    4.3994    1.0000 </r>
       <r>    4.7852    1.0000 </r>
       <r>    4.8282    1.0000 </r>
       <r>    5.3302    1.0000 </r>
       <r>    5.4479    1.0000 </r>
       <r>    5.6462    1.0000 </r>
       <r>    5.6787    1.0000 </r>
       <r>    5.6952    1.0000 </r>
       <r>    5.8850    1.0000 </r>
       <r>    6.1175    1.0092 </r>
       <r>    6.2190    1.0299 </r>
       <r>    6.5114    0.4883 </r>
       <r>    6.6744    0.0030 </r>
       <r>    6.9491   -0.0039 </r>
       <r>    7.0013   -0.0014 </r>
       <r>    7.2787   -0.0000 </r>
       <r>    7.3863   -0.0000 </r>
       <r>    7.4941   -0.0000 </r>
       <r>    7.7505   -0.0000 </r>
       <r>    7.8031   -0.0000 </r>
       <r>    7.8592   -0.0000 </r>
       <r>    7.9981   -0.0000 </r>
       <r>    8.3420   -0.0000 </r>
       <r>    8.4498   -0.0000 </r>
       <r>    8.6287   -0.0000 </r>
       <r>    8.7168   -0.0000 </r>
       <r>    8.8257   -0.0000 </r>
       <r>    8.9927   -0.0000 </r>
       <r>    9.1294   -0.0000 </r>
       <r>    9.4103   -0.0000 </r>
       <r>    9.4300   -0.0000 </r>
       <r>    9.5491   -0.0000 </r>
       <r>    9.6109   -0.0000 </r>
       <r>    9.6739   -0.0000 </r>
       <r>    9.8753   -0.0000 </r>
      </set>
      <set comment="kpoint 94">
       <r>   -3.1540    1.0000 </r>
       <r>   -2.4775    1.0000 </r>
       <r>   -2.0194    1.0000 </r>
       <r>   -1.7835    1.0000 </r>
       <r>   -1.1335    1.0000 </r>
       <r>   -0.8996    1.0000 </r>
       <r>   -0.6608    1.0000 </r>
       <r>   -0.2209    1.0000 </r>
       <r>   -0.0040    1.0000 </r>
       <r>    0.2272    1.0000 </r>
       <r>    0.4374    1.0000 </r>
       <r>    0.8990    1.0000 </r>
       <r>    1.1052    1.0000 </r>
       <r>    1.3283    1.0000 </r>
       <r>    1.5555    1.0000 </r>
       <r>    1.7801    1.0000 </r>
       <r>    2.1744    1.0000 </r>
       <r>    2.2268    1.0000 </r>
       <r>    2.4325    1.0000 </r>
       <r>    2.6396    1.0000 </r>
       <r>    2.8540    1.0000 </r>
       <r>    3.0627    1.0000 </r>
       <r>    3.0897    1.0000 </r>
       <r>    3.3025    1.0000 </r>
       <r>    3.5215    1.0000 </r>
       <r>    3.7199    1.0000 </r>
       <r>    3.7583    1.0000 </r>
       <r>    4.0708    1.0000 </r>
       <r>    4.1880    1.0000 </r>
       <r>    4.4133    1.0000 </r>
       <r>    4.7855    1.0000 </r>
       <r>    4.8164    1.0000 </r>
       <r>    5.3419    1.0000 </r>
       <r>    5.4332    1.0000 </r>
       <r>    5.6348    1.0000 </r>
       <r>    5.6667    1.0000 </r>
       <r>    5.7193    1.0000 </r>
       <r>    5.9036    1.0001 </r>
       <r>    6.1076    1.0079 </r>
       <r>    6.2252    1.0311 </r>
       <r>    6.5103    0.4929 </r>
       <r>    6.6637    0.0166 </r>
       <r>    6.9604   -0.0032 </r>
       <r>    7.0035   -0.0013 </r>
       <r>    7.2840   -0.0000 </r>
       <r>    7.3610   -0.0000 </r>
       <r>    7.5079   -0.0000 </r>
       <r>    7.7455   -0.0000 </r>
       <r>    7.8095   -0.0000 </r>
       <r>    7.8461   -0.0000 </r>
       <r>    7.9934   -0.0000 </r>
       <r>    8.3469   -0.0000 </r>
       <r>    8.4306   -0.0000 </r>
       <r>    8.6422   -0.0000 </r>
       <r>    8.7473   -0.0000 </r>
       <r>    8.8028   -0.0000 </r>
       <r>    9.0054   -0.0000 </r>
       <r>    9.1152   -0.0000 </r>
       <r>    9.4079   -0.0000 </r>
       <r>    9.4425   -0.0000 </r>
       <r>    9.5652   -0.0000 </r>
       <r>    9.6300   -0.0000 </r>
       <r>    9.6689   -0.0000 </r>
       <r>    9.8551   -0.0000 </r>
      </set>
      <set comment="kpoint 95">
       <r>   -3.1526    1.0000 </r>
       <r>   -2.4799    1.0000 </r>
       <r>   -2.0100    1.0000 </r>
       <r>   -1.8023    1.0000 </r>
       <r>   -1.1222    1.0000 </r>
       <r>   -0.8883    1.0000 </r>
       <r>   -0.6765    1.0000 </r>
       <r>   -0.2165    1.0000 </r>
       <r>   -0.0007    1.0000 </r>
       <r>    0.2227    1.0000 </r>
       <r>    0.4600    1.0000 </r>
       <r>    0.8861    1.0000 </r>
       <r>    1.1013    1.0000 </r>
       <r>    1.3186    1.0000 </r>
       <r>    1.5648    1.0000 </r>
       <r>    1.7543    1.0000 </r>
       <r>    2.1974    1.0000 </r>
       <r>    2.2261    1.0000 </r>
       <r>    2.4224    1.0000 </r>
       <r>    2.6331    1.0000 </r>
       <r>    2.8509    1.0000 </r>
       <r>    3.0660    1.0000 </r>
       <r>    3.1083    1.0000 </r>
       <r>    3.2980    1.0000 </r>
       <r>    3.5269    1.0000 </r>
       <r>    3.7186    1.0000 </r>
       <r>    3.7460    1.0000 </r>
       <r>    4.0794    1.0000 </r>
       <r>    4.1896    1.0000 </r>
       <r>    4.4065    1.0000 </r>
       <r>    4.7914    1.0000 </r>
       <r>    4.8209    1.0000 </r>
       <r>    5.3376    1.0000 </r>
       <r>    5.4387    1.0000 </r>
       <r>    5.6427    1.0000 </r>
       <r>    5.6772    1.0000 </r>
       <r>    5.7058    1.0000 </r>
       <r>    5.8994    1.0001 </r>
       <r>    6.0938    1.0062 </r>
       <r>    6.2293    1.0319 </r>
       <r>    6.5191    0.4557 </r>
       <r>    6.6728    0.0048 </r>
       <r>    6.9534   -0.0036 </r>
       <r>    7.0015   -0.0014 </r>
       <r>    7.2845   -0.0000 </r>
       <r>    7.3633   -0.0000 </r>
       <r>    7.5041   -0.0000 </r>
       <r>    7.7521   -0.0000 </r>
       <r>    7.7956   -0.0000 </r>
       <r>    7.8544   -0.0000 </r>
       <r>    7.9984   -0.0000 </r>
       <r>    8.3679   -0.0000 </r>
       <r>    8.4318   -0.0000 </r>
       <r>    8.6363   -0.0000 </r>
       <r>    8.7163   -0.0000 </r>
       <r>    8.8111   -0.0000 </r>
       <r>    8.9914   -0.0000 </r>
       <r>    9.1103   -0.0000 </r>
       <r>    9.4104   -0.0000 </r>
       <r>    9.4306   -0.0000 </r>
       <r>    9.5567   -0.0000 </r>
       <r>    9.6315   -0.0000 </r>
       <r>    9.6658   -0.0000 </r>
       <r>    9.8466   -0.0000 </r>
      </set>
      <set comment="kpoint 96">
       <r>   -3.1540    1.0000 </r>
       <r>   -2.4742    1.0000 </r>
       <r>   -2.0273    1.0000 </r>
       <r>   -1.7833    1.0000 </r>
       <r>   -1.1229    1.0000 </r>
       <r>   -0.8976    1.0000 </r>
       <r>   -0.6723    1.0000 </r>
       <r>   -0.2174    1.0000 </r>
       <r>    0.0037    1.0000 </r>
       <r>    0.2167    1.0000 </r>
       <r>    0.4415    1.0000 </r>
       <r>    0.8925    1.0000 </r>
       <r>    1.1100    1.0000 </r>
       <r>    1.3295    1.0000 </r>
       <r>    1.5538    1.0000 </r>
       <r>    1.7816    1.0000 </r>
       <r>    2.2018    1.0000 </r>
       <r>    2.2114    1.0000 </r>
       <r>    2.4169    1.0000 </r>
       <r>    2.6420    1.0000 </r>
       <r>    2.8397    1.0000 </r>
       <r>    3.0671    1.0000 </r>
       <r>    3.1087    1.0000 </r>
       <r>    3.2879    1.0000 </r>
       <r>    3.5386    1.0000 </r>
       <r>    3.7120    1.0000 </r>
       <r>    3.7516    1.0000 </r>
       <r>    4.0821    1.0000 </r>
       <r>    4.1747    1.0000 </r>
       <r>    4.4054    1.0000 </r>
       <r>    4.7883    1.0000 </r>
       <r>    4.8208    1.0000 </r>
       <r>    5.3486    1.0000 </r>
       <r>    5.4374    1.0000 </r>
       <r>    5.6292    1.0000 </r>
       <r>    5.6683    1.0000 </r>
       <r>    5.7220    1.0000 </r>
       <r>    5.8988    1.0001 </r>
       <r>    6.1156    1.0089 </r>
       <r>    6.2221    1.0305 </r>
       <r>    6.5108    0.4911 </r>
       <r>    6.6635    0.0169 </r>
       <r>    6.9619   -0.0031 </r>
       <r>    7.0056   -0.0012 </r>
       <r>    7.2855   -0.0000 </r>
       <r>    7.3787   -0.0000 </r>
       <r>    7.4975   -0.0000 </r>
       <r>    7.7204   -0.0000 </r>
       <r>    7.8191   -0.0000 </r>
       <r>    7.8471   -0.0000 </r>
       <r>    8.0001   -0.0000 </r>
       <r>    8.3475   -0.0000 </r>
       <r>    8.4264   -0.0000 </r>
       <r>    8.6411   -0.0000 </r>
       <r>    8.7328   -0.0000 </r>
       <r>    8.8209   -0.0000 </r>
       <r>    8.9990   -0.0000 </r>
       <r>    9.1111   -0.0000 </r>
       <r>    9.4107   -0.0000 </r>
       <r>    9.4345   -0.0000 </r>
       <r>    9.5580   -0.0000 </r>
       <r>    9.6334   -0.0000 </r>
       <r>    9.6674   -0.0000 </r>
       <r>    9.8517   -0.0000 </r>
      </set>
      <set comment="kpoint 97">
       <r>   -3.1571    1.0000 </r>
       <r>   -2.4656    1.0000 </r>
       <r>   -2.0184    1.0000 </r>
       <r>   -1.7996    1.0000 </r>
       <r>   -1.1199    1.0000 </r>
       <r>   -0.9069    1.0000 </r>
       <r>   -0.6633    1.0000 </r>
       <r>   -0.2259    1.0000 </r>
       <r>   -0.0020    1.0000 </r>
       <r>    0.2299    1.0000 </r>
       <r>    0.4449    1.0000 </r>
       <r>    0.8873    1.0000 </r>
       <r>    1.1168    1.0000 </r>
       <r>    1.3242    1.0000 </r>
       <r>    1.5571    1.0000 </r>
       <r>    1.7764    1.0000 </r>
       <r>    2.1858    1.0000 </r>
       <r>    2.2093    1.0000 </r>
       <r>    2.4374    1.0000 </r>
       <r>    2.6427    1.0000 </r>
       <r>    2.8631    1.0000 </r>
       <r>    3.0648    1.0000 </r>
       <r>    3.0982    1.0000 </r>
       <r>    3.2808    1.0000 </r>
       <r>    3.5240    1.0000 </r>
       <r>    3.7327    1.0000 </r>
       <r>    3.7553    1.0000 </r>
       <r>    4.0784    1.0000 </r>
       <r>    4.1781    1.0000 </r>
       <r>    4.4032    1.0000 </r>
       <r>    4.7811    1.0000 </r>
       <r>    4.8160    1.0000 </r>
       <r>    5.3490    1.0000 </r>
       <r>    5.4399    1.0000 </r>
       <r>    5.6443    1.0000 </r>
       <r>    5.6715    1.0000 </r>
       <r>    5.6975    1.0000 </r>
       <r>    5.8843    1.0000 </r>
       <r>    6.0972    1.0066 </r>
       <r>    6.2445    1.0342 </r>
       <r>    6.5138    0.4781 </r>
       <r>    6.6598    0.0221 </r>
       <r>    6.9647   -0.0029 </r>
       <r>    7.0001   -0.0014 </r>
       <r>    7.3137   -0.0000 </r>
       <r>    7.3591   -0.0000 </r>
       <r>    7.4813   -0.0000 </r>
       <r>    7.7509   -0.0000 </r>
       <r>    7.8045   -0.0000 </r>
       <r>    7.8580   -0.0000 </r>
       <r>    7.9914   -0.0000 </r>
       <r>    8.3286   -0.0000 </r>
       <r>    8.4560   -0.0000 </r>
       <r>    8.6414   -0.0000 </r>
       <r>    8.7591   -0.0000 </r>
       <r>    8.7950   -0.0000 </r>
       <r>    8.9997   -0.0000 </r>
       <r>    9.1193   -0.0000 </r>
       <r>    9.3952   -0.0000 </r>
       <r>    9.4340   -0.0000 </r>
       <r>    9.5588   -0.0000 </r>
       <r>    9.6355   -0.0000 </r>
       <r>    9.6638   -0.0000 </r>
       <r>    9.9205   -0.0000 </r>
      </set>
      <set comment="kpoint 98">
       <r>   -3.1534    1.0000 </r>
       <r>   -2.4774    1.0000 </r>
       <r>   -2.0184    1.0000 </r>
       <r>   -1.7910    1.0000 </r>
       <r>   -1.1220    1.0000 </r>
       <r>   -0.9004    1.0000 </r>
       <r>   -0.6705    1.0000 </r>
       <r>   -0.2218    1.0000 </r>
       <r>   -0.0075    1.0000 </r>
       <r>    0.2436    1.0000 </r>
       <r>    0.4534    1.0000 </r>
       <r>    0.8815    1.0000 </r>
       <r>    1.1072    1.0000 </r>
       <r>    1.3214    1.0000 </r>
       <r>    1.5574    1.0000 </r>
       <r>    1.7642    1.0000 </r>
       <r>    2.1903    1.0000 </r>
       <r>    2.2191    1.0000 </r>
       <r>    2.4262    1.0000 </r>
       <r>    2.6263    1.0000 </r>
       <r>    2.8518    1.0000 </r>
       <r>    3.0911    1.0000 </r>
       <r>    3.0982    1.0000 </r>
       <r>    3.2866    1.0000 </r>
       <r>    3.5213    1.0000 </r>
       <r>    3.7359    1.0000 </r>
       <r>    3.7539    1.0000 </r>
       <r>    4.0786    1.0000 </r>
       <r>    4.1890    1.0000 </r>
       <r>    4.4017    1.0000 </r>
       <r>    4.7769    1.0000 </r>
       <r>    4.8279    1.0000 </r>
       <r>    5.3372    1.0000 </r>
       <r>    5.4308    1.0000 </r>
       <r>    5.6311    1.0000 </r>
       <r>    5.6679    1.0000 </r>
       <r>    5.7299    1.0000 </r>
       <r>    5.8901    1.0001 </r>
       <r>    6.0982    1.0067 </r>
       <r>    6.2295    1.0319 </r>
       <r>    6.5241    0.4347 </r>
       <r>    6.6754    0.0019 </r>
       <r>    6.9293   -0.0056 </r>
       <r>    7.0236   -0.0008 </r>
       <r>    7.2982   -0.0000 </r>
       <r>    7.3569   -0.0000 </r>
       <r>    7.4995   -0.0000 </r>
       <r>    7.7515   -0.0000 </r>
       <r>    7.7940   -0.0000 </r>
       <r>    7.8595   -0.0000 </r>
       <r>    7.9997   -0.0000 </r>
       <r>    8.3572   -0.0000 </r>
       <r>    8.4351   -0.0000 </r>
       <r>    8.6258   -0.0000 </r>
       <r>    8.7254   -0.0000 </r>
       <r>    8.8133   -0.0000 </r>
       <r>    8.9931   -0.0000 </r>
       <r>    9.1233   -0.0000 </r>
       <r>    9.4116   -0.0000 </r>
       <r>    9.4250   -0.0000 </r>
       <r>    9.5436   -0.0000 </r>
       <r>    9.6252   -0.0000 </r>
       <r>    9.6662   -0.0000 </r>
       <r>    9.8739   -0.0000 </r>
      </set>
      <set comment="kpoint 99">
       <r>   -3.1564    1.0000 </r>
       <r>   -2.4630    1.0000 </r>
       <r>   -2.0379    1.0000 </r>
       <r>   -1.7855    1.0000 </r>
       <r>   -1.1126    1.0000 </r>
       <r>   -0.9021    1.0000 </r>
       <r>   -0.6697    1.0000 </r>
       <r>   -0.2347    1.0000 </r>
       <r>    0.0145    1.0000 </r>
       <r>    0.2218    1.0000 </r>
       <r>    0.4344    1.0000 </r>
       <r>    0.8861    1.0000 </r>
       <r>    1.1246    1.0000 </r>
       <r>    1.3332    1.0000 </r>
       <r>    1.5431    1.0000 </r>
       <r>    1.7924    1.0000 </r>
       <r>    2.1774    1.0000 </r>
       <r>    2.2020    1.0000 </r>
       <r>    2.4444    1.0000 </r>
       <r>    2.6436    1.0000 </r>
       <r>    2.8521    1.0000 </r>
       <r>    3.0586    1.0000 </r>
       <r>    3.1006    1.0000 </r>
       <r>    3.2821    1.0000 </r>
       <r>    3.5390    1.0000 </r>
       <r>    3.7249    1.0000 </r>
       <r>    3.7611    1.0000 </r>
       <r>    4.0786    1.0000 </r>
       <r>    4.1747    1.0000 </r>
       <r>    4.3998    1.0000 </r>
       <r>    4.7775    1.0000 </r>
       <r>    4.8203    1.0000 </r>
       <r>    5.3484    1.0000 </r>
       <r>    5.4473    1.0000 </r>
       <r>    5.6429    1.0000 </r>
       <r>    5.6692    1.0000 </r>
       <r>    5.7133    1.0000 </r>
       <r>    5.8884    1.0001 </r>
       <r>    6.1067    1.0077 </r>
       <r>    6.2287    1.0318 </r>
       <r>    6.5039    0.5201 </r>
       <r>    6.6580    0.0249 </r>
       <r>    6.9323   -0.0054 </r>
       <r>    7.0333   -0.0007 </r>
       <r>    7.2818   -0.0000 </r>
       <r>    7.3719   -0.0000 </r>
       <r>    7.5080   -0.0000 </r>
       <r>    7.7240   -0.0000 </r>
       <r>    7.8207   -0.0000 </r>
       <r>    7.8600   -0.0000 </r>
       <r>    7.9827   -0.0000 </r>
       <r>    8.3305   -0.0000 </r>
       <r>    8.4489   -0.0000 </r>
       <r>    8.6583   -0.0000 </r>
       <r>    8.7333   -0.0000 </r>
       <r>    8.8148   -0.0000 </r>
       <r>    9.0027   -0.0000 </r>
       <r>    9.1246   -0.0000 </r>
       <r>    9.4024   -0.0000 </r>
       <r>    9.4436   -0.0000 </r>
       <r>    9.5487   -0.0000 </r>
       <r>    9.6349   -0.0000 </r>
       <r>    9.6576   -0.0000 </r>
       <r>    9.8741   -0.0000 </r>
      </set>
      <set comment="kpoint 100">
       <r>   -3.1509    1.0000 </r>
       <r>   -2.4845    1.0000 </r>
       <r>   -2.0238    1.0000 </r>
       <r>   -1.7782    1.0000 </r>
       <r>   -1.1394    1.0000 </r>
       <r>   -0.8770    1.0000 </r>
       <r>   -0.6708    1.0000 </r>
       <r>   -0.2241    1.0000 </r>
       <r>    0.0095    1.0000 </r>
       <r>    0.2210    1.0000 </r>
       <r>    0.4425    1.0000 </r>
       <r>    0.8908    1.0000 </r>
       <r>    1.0951    1.0000 </r>
       <r>    1.3275    1.0000 </r>
       <r>    1.5519    1.0000 </r>
       <r>    1.7829    1.0000 </r>
       <r>    2.1895    1.0000 </r>
       <r>    2.2162    1.0000 </r>
       <r>    2.4234    1.0000 </r>
       <r>    2.6386    1.0000 </r>
       <r>    2.8496    1.0000 </r>
       <r>    3.0737    1.0000 </r>
       <r>    3.1045    1.0000 </r>
       <r>    3.2872    1.0000 </r>
       <r>    3.5418    1.0000 </r>
       <r>    3.7175    1.0000 </r>
       <r>    3.7432    1.0000 </r>
       <r>    4.0727    1.0000 </r>
       <r>    4.1744    1.0000 </r>
       <r>    4.4139    1.0000 </r>
       <r>    4.7926    1.0000 </r>
       <r>    4.8325    1.0000 </r>
       <r>    5.3403    1.0000 </r>
       <r>    5.4350    1.0000 </r>
       <r>    5.6203    1.0000 </r>
       <r>    5.6768    1.0000 </r>
       <r>    5.7236    1.0000 </r>
       <r>    5.9035    1.0001 </r>
       <r>    6.1204    1.0096 </r>
       <r>    6.2115    1.0283 </r>
       <r>    6.5109    0.4906 </r>
       <r>    6.6713    0.0066 </r>
       <r>    6.9311   -0.0055 </r>
       <r>    7.0322   -0.0007 </r>
       <r>    7.2899   -0.0000 </r>
       <r>    7.3622   -0.0000 </r>
       <r>    7.4947   -0.0000 </r>
       <r>    7.7330   -0.0000 </r>
       <r>    7.8229   -0.0000 </r>
       <r>    7.8487   -0.0000 </r>
       <r>    7.9874   -0.0000 </r>
       <r>    8.3305   -0.0000 </r>
       <r>    8.4434   -0.0000 </r>
       <r>    8.6312   -0.0000 </r>
       <r>    8.7543   -0.0000 </r>
       <r>    8.8040   -0.0000 </r>
       <r>    9.0016   -0.0000 </r>
       <r>    9.1103   -0.0000 </r>
       <r>    9.4101   -0.0000 </r>
       <r>    9.4376   -0.0000 </r>
       <r>    9.5644   -0.0000 </r>
       <r>    9.6297   -0.0000 </r>
       <r>    9.6608   -0.0000 </r>
       <r>    9.8558   -0.0000 </r>
      </set>
      <set comment="kpoint 101">
       <r>   -2.9282    1.0000 </r>
       <r>   -2.4899    1.0000 </r>
       <r>   -2.2397    1.0000 </r>
       <r>   -1.8115    1.0000 </r>
       <r>   -1.7560    1.0000 </r>
       <r>   -1.3335    1.0000 </r>
       <r>    0.1846    1.0000 </r>
       <r>    0.2390    1.0000 </r>
       <r>    0.6195    1.0000 </r>
       <r>    0.6852    1.0000 </r>
       <r>    0.8811    1.0000 </r>
       <r>    1.0702    1.0000 </r>
       <r>    1.1245    1.0000 </r>
       <r>    1.3120    1.0000 </r>
       <r>    1.3653    1.0000 </r>
       <r>    1.5326    1.0000 </r>
       <r>    1.5762    1.0000 </r>
       <r>    1.7745    1.0000 </r>
       <r>    1.8020    1.0000 </r>
       <r>    2.1956    1.0000 </r>
       <r>    2.2365    1.0000 </r>
       <r>    2.6594    1.0000 </r>
       <r>    3.3129    1.0000 </r>
       <r>    3.6312    1.0000 </r>
       <r>    3.7379    1.0000 </r>
       <r>    4.1518    1.0000 </r>
       <r>    4.1772    1.0000 </r>
       <r>    4.2729    1.0000 </r>
       <r>    4.3124    1.0000 </r>
       <r>    4.5972    1.0000 </r>
       <r>    4.6019    1.0000 </r>
       <r>    4.7179    1.0000 </r>
       <r>    4.7440    1.0000 </r>
       <r>    5.0432    1.0000 </r>
       <r>    5.2587    1.0000 </r>
       <r>    5.4744    1.0000 </r>
       <r>    5.8960    1.0001 </r>
       <r>    5.9104    1.0001 </r>
       <r>    6.3211    1.0174 </r>
       <r>    6.3712    0.9554 </r>
       <r>    6.6013    0.1509 </r>
       <r>    6.6574    0.0258 </r>
       <r>    7.2314   -0.0000 </r>
       <r>    7.2808   -0.0000 </r>
       <r>    7.4379   -0.0000 </r>
       <r>    7.5146   -0.0000 </r>
       <r>    7.6939   -0.0000 </r>
       <r>    7.7117   -0.0000 </r>
       <r>    8.0496   -0.0000 </r>
       <r>    8.1293   -0.0000 </r>
       <r>    8.2610   -0.0000 </r>
       <r>    8.2868   -0.0000 </r>
       <r>    8.5355   -0.0000 </r>
       <r>    8.5607   -0.0000 </r>
       <r>    8.8888   -0.0000 </r>
       <r>    8.9040   -0.0000 </r>
       <r>    9.0823   -0.0000 </r>
       <r>    9.1195   -0.0000 </r>
       <r>    9.3087   -0.0000 </r>
       <r>    9.3480   -0.0000 </r>
       <r>    9.5760   -0.0000 </r>
       <r>    9.7248   -0.0000 </r>
       <r>    9.7339   -0.0000 </r>
       <r>   10.1488   -0.0000 </r>
      </set>
      <set comment="kpoint 102">
       <r>   -2.9361    1.0000 </r>
       <r>   -2.4749    1.0000 </r>
       <r>   -2.2298    1.0000 </r>
       <r>   -1.8504    1.0000 </r>
       <r>   -1.7373    1.0000 </r>
       <r>   -1.3303    1.0000 </r>
       <r>    0.1496    1.0000 </r>
       <r>    0.2685    1.0000 </r>
       <r>    0.5911    1.0000 </r>
       <r>    0.7196    1.0000 </r>
       <r>    0.8726    1.0000 </r>
       <r>    1.0670    1.0000 </r>
       <r>    1.1440    1.0000 </r>
       <r>    1.2764    1.0000 </r>
       <r>    1.4105    1.0000 </r>
       <r>    1.4977    1.0000 </r>
       <r>    1.6130    1.0000 </r>
       <r>    1.7583    1.0000 </r>
       <r>    1.8001    1.0000 </r>
       <r>    2.1595    1.0000 </r>
       <r>    2.2852    1.0000 </r>
       <r>    2.6522    1.0000 </r>
       <r>    3.3063    1.0000 </r>
       <r>    3.6405    1.0000 </r>
       <r>    3.7557    1.0000 </r>
       <r>    4.1352    1.0000 </r>
       <r>    4.1555    1.0000 </r>
       <r>    4.2303    1.0000 </r>
       <r>    4.3501    1.0000 </r>
       <r>    4.6014    1.0000 </r>
       <r>    4.6074    1.0000 </r>
       <r>    4.7085    1.0000 </r>
       <r>    4.7692    1.0000 </r>
       <r>    5.0383    1.0000 </r>
       <r>    5.2363    1.0000 </r>
       <r>    5.4913    1.0000 </r>
       <r>    5.9001    1.0001 </r>
       <r>    5.9157    1.0001 </r>
       <r>    6.2943    1.0311 </r>
       <r>    6.3922    0.9119 </r>
       <r>    6.5509    0.3255 </r>
       <r>    6.6884   -0.0112 </r>
       <r>    7.2037   -0.0000 </r>
       <r>    7.3251   -0.0000 </r>
       <r>    7.4118   -0.0000 </r>
       <r>    7.5342   -0.0000 </r>
       <r>    7.6769   -0.0000 </r>
       <r>    7.7246   -0.0000 </r>
       <r>    8.0390   -0.0000 </r>
       <r>    8.1360   -0.0000 </r>
       <r>    8.2263   -0.0000 </r>
       <r>    8.3453   -0.0000 </r>
       <r>    8.5281   -0.0000 </r>
       <r>    8.5597   -0.0000 </r>
       <r>    8.8916   -0.0000 </r>
       <r>    8.9120   -0.0000 </r>
       <r>    9.0452   -0.0000 </r>
       <r>    9.1500   -0.0000 </r>
       <r>    9.2835   -0.0000 </r>
       <r>    9.3833   -0.0000 </r>
       <r>    9.5736   -0.0000 </r>
       <r>    9.7144   -0.0000 </r>
       <r>    9.7482   -0.0000 </r>
       <r>   10.0977   -0.0000 </r>
      </set>
      <set comment="kpoint 103">
       <r>   -2.9326    1.0000 </r>
       <r>   -2.4808    1.0000 </r>
       <r>   -2.2412    1.0000 </r>
       <r>   -1.8234    1.0000 </r>
       <r>   -1.7477    1.0000 </r>
       <r>   -1.3274    1.0000 </r>
       <r>    0.1566    1.0000 </r>
       <r>    0.2423    1.0000 </r>
       <r>    0.6080    1.0000 </r>
       <r>    0.7054    1.0000 </r>
       <r>    0.8938    1.0000 </r>
       <r>    1.0596    1.0000 </r>
       <r>    1.1137    1.0000 </r>
       <r>    1.2771    1.0000 </r>
       <r>    1.3950    1.0000 </r>
       <r>    1.5396    1.0000 </r>
       <r>    1.6100    1.0000 </r>
       <r>    1.7657    1.0000 </r>
       <r>    1.8038    1.0000 </r>
       <r>    2.1780    1.0000 </r>
       <r>    2.2557    1.0000 </r>
       <r>    2.6605    1.0000 </r>
       <r>    3.3088    1.0000 </r>
       <r>    3.6274    1.0000 </r>
       <r>    3.7476    1.0000 </r>
       <r>    4.1618    1.0000 </r>
       <r>    4.1711    1.0000 </r>
       <r>    4.2469    1.0000 </r>
       <r>    4.3261    1.0000 </r>
       <r>    4.5942    1.0000 </r>
       <r>    4.6043    1.0000 </r>
       <r>    4.7122    1.0000 </r>
       <r>    4.7498    1.0000 </r>
       <r>    5.0345    1.0000 </r>
       <r>    5.2576    1.0000 </r>
       <r>    5.4735    1.0000 </r>
       <r>    5.9022    1.0001 </r>
       <r>    5.9170    1.0001 </r>
       <r>    6.3100    1.0244 </r>
       <r>    6.3787    0.9411 </r>
       <r>    6.5722    0.2456 </r>
       <r>    6.6592    0.0230 </r>
       <r>    7.2048   -0.0000 </r>
       <r>    7.2895   -0.0000 </r>
       <r>    7.4625   -0.0000 </r>
       <r>    7.5172   -0.0000 </r>
       <r>    7.6868   -0.0000 </r>
       <r>    7.7169   -0.0000 </r>
       <r>    8.0611   -0.0000 </r>
       <r>    8.1205   -0.0000 </r>
       <r>    8.2215   -0.0000 </r>
       <r>    8.3220   -0.0000 </r>
       <r>    8.5350   -0.0000 </r>
       <r>    8.5562   -0.0000 </r>
       <r>    8.8908   -0.0000 </r>
       <r>    8.9070   -0.0000 </r>
       <r>    9.0700   -0.0000 </r>
       <r>    9.1357   -0.0000 </r>
       <r>    9.2998   -0.0000 </r>
       <r>    9.3738   -0.0000 </r>
       <r>    9.5918   -0.0000 </r>
       <r>    9.7260   -0.0000 </r>
       <r>    9.7514   -0.0000 </r>
       <r>   10.1271   -0.0000 </r>
      </set>
      <set comment="kpoint 104">
       <r>   -2.9277    1.0000 </r>
       <r>   -2.4964    1.0000 </r>
       <r>   -2.2271    1.0000 </r>
       <r>   -1.8216    1.0000 </r>
       <r>   -1.7561    1.0000 </r>
       <r>   -1.3293    1.0000 </r>
       <r>    0.1713    1.0000 </r>
       <r>    0.2556    1.0000 </r>
       <r>    0.6203    1.0000 </r>
       <r>    0.6874    1.0000 </r>
       <r>    0.8829    1.0000 </r>
       <r>    1.0470    1.0000 </r>
       <r>    1.1159    1.0000 </r>
       <r>    1.3021    1.0000 </r>
       <r>    1.3902    1.0000 </r>
       <r>    1.5397    1.0000 </r>
       <r>    1.5952    1.0000 </r>
       <r>    1.7659    1.0000 </r>
       <r>    1.7895    1.0000 </r>
       <r>    2.1840    1.0000 </r>
       <r>    2.2594    1.0000 </r>
       <r>    2.6517    1.0000 </r>
       <r>    3.3126    1.0000 </r>
       <r>    3.6319    1.0000 </r>
       <r>    3.7406    1.0000 </r>
       <r>    4.1558    1.0000 </r>
       <r>    4.1846    1.0000 </r>
       <r>    4.2580    1.0000 </r>
       <r>    4.3142    1.0000 </r>
       <r>    4.5716    1.0000 </r>
       <r>    4.5861    1.0000 </r>
       <r>    4.7336    1.0000 </r>
       <r>    4.7691    1.0000 </r>
       <r>    5.0473    1.0000 </r>
       <r>    5.2584    1.0000 </r>
       <r>    5.4673    1.0000 </r>
       <r>    5.8964    1.0001 </r>
       <r>    5.9144    1.0001 </r>
       <r>    6.3150    1.0215 </r>
       <r>    6.3760    0.9464 </r>
       <r>    6.5881    0.1915 </r>
       <r>    6.6673    0.0116 </r>
       <r>    7.2185   -0.0000 </r>
       <r>    7.2932   -0.0000 </r>
       <r>    7.4365   -0.0000 </r>
       <r>    7.5188   -0.0000 </r>
       <r>    7.6919   -0.0000 </r>
       <r>    7.7161   -0.0000 </r>
       <r>    8.0422   -0.0000 </r>
       <r>    8.1186   -0.0000 </r>
       <r>    8.2503   -0.0000 </r>
       <r>    8.3320   -0.0000 </r>
       <r>    8.5283   -0.0000 </r>
       <r>    8.5573   -0.0000 </r>
       <r>    8.8840   -0.0000 </r>
       <r>    8.9006   -0.0000 </r>
       <r>    9.0652   -0.0000 </r>
       <r>    9.1273   -0.0000 </r>
       <r>    9.2989   -0.0000 </r>
       <r>    9.3699   -0.0000 </r>
       <r>    9.5698   -0.0000 </r>
       <r>    9.7192   -0.0000 </r>
       <r>    9.7448   -0.0000 </r>
       <r>   10.1165   -0.0000 </r>
      </set>
      <set comment="kpoint 105">
       <r>   -2.9322    1.0000 </r>
       <r>   -2.4870    1.0000 </r>
       <r>   -2.2240    1.0000 </r>
       <r>   -1.8753    1.0000 </r>
       <r>   -1.7019    1.0000 </r>
       <r>   -1.3332    1.0000 </r>
       <r>    0.1270    1.0000 </r>
       <r>    0.2940    1.0000 </r>
       <r>    0.5664    1.0000 </r>
       <r>    0.7456    1.0000 </r>
       <r>    0.8741    1.0000 </r>
       <r>    1.0166    1.0000 </r>
       <r>    1.1627    1.0000 </r>
       <r>    1.2676    1.0000 </r>
       <r>    1.4291    1.0000 </r>
       <r>    1.4834    1.0000 </r>
       <r>    1.6428    1.0000 </r>
       <r>    1.7599    1.0000 </r>
       <r>    1.8069    1.0000 </r>
       <r>    2.1372    1.0000 </r>
       <r>    2.2971    1.0000 </r>
       <r>    2.6556    1.0000 </r>
       <r>    3.3071    1.0000 </r>
       <r>    3.6297    1.0000 </r>
       <r>    3.7542    1.0000 </r>
       <r>    4.1346    1.0000 </r>
       <r>    4.1781    1.0000 </r>
       <r>    4.2168    1.0000 </r>
       <r>    4.3637    1.0000 </r>
       <r>    4.5731    1.0000 </r>
       <r>    4.6030    1.0000 </r>
       <r>    4.7307    1.0000 </r>
       <r>    4.7628    1.0000 </r>
       <r>    5.0410    1.0000 </r>
       <r>    5.2560    1.0000 </r>
       <r>    5.4783    1.0000 </r>
       <r>    5.8915    1.0001 </r>
       <r>    5.9133    1.0001 </r>
       <r>    6.2717    1.0352 </r>
       <r>    6.4168    0.8469 </r>
       <r>    6.5303    0.4089 </r>
       <r>    6.7209   -0.0304 </r>
       <r>    7.1730   -0.0000 </r>
       <r>    7.3340   -0.0000 </r>
       <r>    7.3794   -0.0000 </r>
       <r>    7.5620   -0.0000 </r>
       <r>    7.6860   -0.0000 </r>
       <r>    7.7276   -0.0000 </r>
       <r>    8.0056   -0.0000 </r>
       <r>    8.1712   -0.0000 </r>
       <r>    8.2158   -0.0000 </r>
       <r>    8.3508   -0.0000 </r>
       <r>    8.5285   -0.0000 </r>
       <r>    8.5638   -0.0000 </r>
       <r>    8.8832   -0.0000 </r>
       <r>    8.8994   -0.0000 </r>
       <r>    9.0392   -0.0000 </r>
       <r>    9.1694   -0.0000 </r>
       <r>    9.2662   -0.0000 </r>
       <r>    9.4069   -0.0000 </r>
       <r>    9.5878   -0.0000 </r>
       <r>    9.7167   -0.0000 </r>
       <r>    9.7404   -0.0000 </r>
       <r>   10.0806   -0.0000 </r>
      </set>
      <set comment="kpoint 106">
       <r>   -2.9342    1.0000 </r>
       <r>   -2.4833    1.0000 </r>
       <r>   -2.2225    1.0000 </r>
       <r>   -1.8504    1.0000 </r>
       <r>   -1.7372    1.0000 </r>
       <r>   -1.3308    1.0000 </r>
       <r>    0.1533    1.0000 </r>
       <r>    0.2634    1.0000 </r>
       <r>    0.5898    1.0000 </r>
       <r>    0.7273    1.0000 </r>
       <r>    0.8738    1.0000 </r>
       <r>    1.0477    1.0000 </r>
       <r>    1.1422    1.0000 </r>
       <r>    1.2879    1.0000 </r>
       <r>    1.4114    1.0000 </r>
       <r>    1.5004    1.0000 </r>
       <r>    1.6103    1.0000 </r>
       <r>    1.7637    1.0000 </r>
       <r>    1.8007    1.0000 </r>
       <r>    2.1571    1.0000 </r>
       <r>    2.2849    1.0000 </r>
       <r>    2.6516    1.0000 </r>
       <r>    3.3084    1.0000 </r>
       <r>    3.6340    1.0000 </r>
       <r>    3.7553    1.0000 </r>
       <r>    4.1333    1.0000 </r>
       <r>    4.1630    1.0000 </r>
       <r>    4.2301    1.0000 </r>
       <r>    4.3534    1.0000 </r>
       <r>    4.5785    1.0000 </r>
       <r>    4.5967    1.0000 </r>
       <r>    4.7269    1.0000 </r>
       <r>    4.7778    1.0000 </r>
       <r>    5.0415    1.0000 </r>
       <r>    5.2467    1.0000 </r>
       <r>    5.4823    1.0000 </r>
       <r>    5.8973    1.0001 </r>
       <r>    5.9154    1.0001 </r>
       <r>    6.2940    1.0312 </r>
       <r>    6.3929    0.9103 </r>
       <r>    6.5540    0.3134 </r>
       <r>    6.6900   -0.0125 </r>
       <r>    7.1977   -0.0000 </r>
       <r>    7.3265   -0.0000 </r>
       <r>    7.4098   -0.0000 </r>
       <r>    7.5286   -0.0000 </r>
       <r>    7.6804   -0.0000 </r>
       <r>    7.7234   -0.0000 </r>
       <r>    8.0376   -0.0000 </r>
       <r>    8.1432   -0.0000 </r>
       <r>    8.2337   -0.0000 </r>
       <r>    8.3490   -0.0000 </r>
       <r>    8.5232   -0.0000 </r>
       <r>    8.5530   -0.0000 </r>
       <r>    8.8881   -0.0000 </r>
       <r>    8.9087   -0.0000 </r>
       <r>    9.0450   -0.0000 </r>
       <r>    9.1516   -0.0000 </r>
       <r>    9.2854   -0.0000 </r>
       <r>    9.3883   -0.0000 </r>
       <r>    9.5684   -0.0000 </r>
       <r>    9.7277   -0.0000 </r>
       <r>    9.7422   -0.0000 </r>
       <r>   10.0819   -0.0000 </r>
      </set>
      <set comment="kpoint 107">
       <r>   -2.9303    1.0000 </r>
       <r>   -2.4815    1.0000 </r>
       <r>   -2.2470    1.0000 </r>
       <r>   -1.8106    1.0000 </r>
       <r>   -1.7558    1.0000 </r>
       <r>   -1.3327    1.0000 </r>
       <r>    0.1745    1.0000 </r>
       <r>    0.2393    1.0000 </r>
       <r>    0.6233    1.0000 </r>
       <r>    0.6841    1.0000 </r>
       <r>    0.8832    1.0000 </r>
       <r>    1.0849    1.0000 </r>
       <r>    1.1330    1.0000 </r>
       <r>    1.3059    1.0000 </r>
       <r>    1.3531    1.0000 </r>
       <r>    1.5191    1.0000 </r>
       <r>    1.5835    1.0000 </r>
       <r>    1.7766    1.0000 </r>
       <r>    1.8093    1.0000 </r>
       <r>    2.1912    1.0000 </r>
       <r>    2.2385    1.0000 </r>
       <r>    2.6586    1.0000 </r>
       <r>    3.3093    1.0000 </r>
       <r>    3.6345    1.0000 </r>
       <r>    3.7377    1.0000 </r>
       <r>    4.1475    1.0000 </r>
       <r>    4.1842    1.0000 </r>
       <r>    4.2727    1.0000 </r>
       <r>    4.3121    1.0000 </r>
       <r>    4.6030    1.0000 </r>
       <r>    4.6094    1.0000 </r>
       <r>    4.7114    1.0000 </r>
       <r>    4.7311    1.0000 </r>
       <r>    5.0469    1.0000 </r>
       <r>    5.2537    1.0000 </r>
       <r>    5.4786    1.0000 </r>
       <r>    5.8971    1.0001 </r>
       <r>    5.9104    1.0001 </r>
       <r>    6.3225    1.0164 </r>
       <r>    6.3712    0.9553 </r>
       <r>    6.5903    0.1842 </r>
       <r>    6.6538    0.0315 </r>
       <r>    7.2295   -0.0000 </r>
       <r>    7.2857   -0.0000 </r>
       <r>    7.4508   -0.0000 </r>
       <r>    7.5092   -0.0000 </r>
       <r>    7.6824   -0.0000 </r>
       <r>    7.7181   -0.0000 </r>
       <r>    8.0805   -0.0000 </r>
       <r>    8.1307   -0.0000 </r>
       <r>    8.2454   -0.0000 </r>
       <r>    8.2845   -0.0000 </r>
       <r>    8.5399   -0.0000 </r>
       <r>    8.5534   -0.0000 </r>
       <r>    8.8943   -0.0000 </r>
       <r>    8.9073   -0.0000 </r>
       <r>    9.0712   -0.0000 </r>
       <r>    9.1126   -0.0000 </r>
       <r>    9.3147   -0.0000 </r>
       <r>    9.3548   -0.0000 </r>
       <r>    9.5789   -0.0000 </r>
       <r>    9.7182   -0.0000 </r>
       <r>    9.7379   -0.0000 </r>
       <r>   10.1142   -0.0000 </r>
      </set>
      <set comment="kpoint 108">
       <r>   -2.9338    1.0000 </r>
       <r>   -2.4733    1.0000 </r>
       <r>   -2.2489    1.0000 </r>
       <r>   -1.8237    1.0000 </r>
       <r>   -1.7416    1.0000 </r>
       <r>   -1.3366    1.0000 </r>
       <r>    0.1443    1.0000 </r>
       <r>    0.2637    1.0000 </r>
       <r>    0.6303    1.0000 </r>
       <r>    0.7022    1.0000 </r>
       <r>    0.8640    1.0000 </r>
       <r>    1.0500    1.0000 </r>
       <r>    1.1433    1.0000 </r>
       <r>    1.2884    1.0000 </r>
       <r>    1.3856    1.0000 </r>
       <r>    1.5325    1.0000 </r>
       <r>    1.6031    1.0000 </r>
       <r>    1.7792    1.0000 </r>
       <r>    1.7906    1.0000 </r>
       <r>    2.1714    1.0000 </r>
       <r>    2.2600    1.0000 </r>
       <r>    2.6570    1.0000 </r>
       <r>    3.2967    1.0000 </r>
       <r>    3.6244    1.0000 </r>
       <r>    3.7460    1.0000 </r>
       <r>    4.1715    1.0000 </r>
       <r>    4.1778    1.0000 </r>
       <r>    4.2510    1.0000 </r>
       <r>    4.3223    1.0000 </r>
       <r>    4.6055    1.0000 </r>
       <r>    4.6265    1.0000 </r>
       <r>    4.7077    1.0000 </r>
       <r>    4.7303    1.0000 </r>
       <r>    5.0363    1.0000 </r>
       <r>    5.2569    1.0000 </r>
       <r>    5.4645    1.0000 </r>
       <r>    5.9050    1.0001 </r>
       <r>    5.9154    1.0001 </r>
       <r>    6.3114    1.0237 </r>
       <r>    6.3798    0.9390 </r>
       <r>    6.5692    0.2564 </r>
       <r>    6.6728    0.0049 </r>
       <r>    7.1931   -0.0000 </r>
       <r>    7.3067   -0.0000 </r>
       <r>    7.4500   -0.0000 </r>
       <r>    7.5181   -0.0000 </r>
       <r>    7.6762   -0.0000 </r>
       <r>    7.7125   -0.0000 </r>
       <r>    8.0608   -0.0000 </r>
       <r>    8.1456   -0.0000 </r>
       <r>    8.2269   -0.0000 </r>
       <r>    8.3130   -0.0000 </r>
       <r>    8.5361   -0.0000 </r>
       <r>    8.5594   -0.0000 </r>
       <r>    8.8857   -0.0000 </r>
       <r>    8.9119   -0.0000 </r>
       <r>    9.0760   -0.0000 </r>
       <r>    9.1342   -0.0000 </r>
       <r>    9.2949   -0.0000 </r>
       <r>    9.3730   -0.0000 </r>
       <r>    9.5790   -0.0000 </r>
       <r>    9.7208   -0.0000 </r>
       <r>    9.7465   -0.0000 </r>
       <r>   10.0917   -0.0000 </r>
      </set>
      <set comment="kpoint 109">
       <r>   -2.9360    1.0000 </r>
       <r>   -2.4702    1.0000 </r>
       <r>   -2.2388    1.0000 </r>
       <r>   -1.8746    1.0000 </r>
       <r>   -1.7014    1.0000 </r>
       <r>   -1.3319    1.0000 </r>
       <r>    0.1169    1.0000 </r>
       <r>    0.2926    1.0000 </r>
       <r>    0.5729    1.0000 </r>
       <r>    0.7401    1.0000 </r>
       <r>    0.8849    1.0000 </r>
       <r>    1.0233    1.0000 </r>
       <r>    1.1952    1.0000 </r>
       <r>    1.2555    1.0000 </r>
       <r>    1.4006    1.0000 </r>
       <r>    1.4732    1.0000 </r>
       <r>    1.6416    1.0000 </r>
       <r>    1.7607    1.0000 </r>
       <r>    1.8155    1.0000 </r>
       <r>    2.1393    1.0000 </r>
       <r>    2.3024    1.0000 </r>
       <r>    2.6501    1.0000 </r>
       <r>    3.3053    1.0000 </r>
       <r>    3.6357    1.0000 </r>
       <r>    3.7577    1.0000 </r>
       <r>    4.1289    1.0000 </r>
       <r>    4.1710    1.0000 </r>
       <r>    4.2195    1.0000 </r>
       <r>    4.3598    1.0000 </r>
       <r>    4.6048    1.0000 </r>
       <r>    4.6293    1.0000 </r>
       <r>    4.7047    1.0000 </r>
       <r>    4.7401    1.0000 </r>
       <r>    5.0332    1.0000 </r>
       <r>    5.2452    1.0000 </r>
       <r>    5.4929    1.0000 </r>
       <r>    5.8930    1.0001 </r>
       <r>    5.9139    1.0001 </r>
       <r>    6.2711    1.0352 </r>
       <r>    6.4164    0.8480 </r>
       <r>    6.5236    0.4371 </r>
       <r>    6.7127   -0.0271 </r>
       <r>    7.1808   -0.0000 </r>
       <r>    7.3408   -0.0000 </r>
       <r>    7.3817   -0.0000 </r>
       <r>    7.5708   -0.0000 </r>
       <r>    7.6785   -0.0000 </r>
       <r>    7.7221   -0.0000 </r>
       <r>    8.0204   -0.0000 </r>
       <r>    8.1805   -0.0000 </r>
       <r>    8.2090   -0.0000 </r>
       <r>    8.3258   -0.0000 </r>
       <r>    8.5367   -0.0000 </r>
       <r>    8.5709   -0.0000 </r>
       <r>    8.8957   -0.0000 </r>
       <r>    8.9086   -0.0000 </r>
       <r>    9.0295   -0.0000 </r>
       <r>    9.1619   -0.0000 </r>
       <r>    9.2684   -0.0000 </r>
       <r>    9.4052   -0.0000 </r>
       <r>    9.5712   -0.0000 </r>
       <r>    9.7130   -0.0000 </r>
       <r>    9.7471   -0.0000 </r>
       <r>   10.0631   -0.0000 </r>
      </set>
      <set comment="kpoint 110">
       <r>   -2.9317    1.0000 </r>
       <r>   -2.4796    1.0000 </r>
       <r>   -2.2419    1.0000 </r>
       <r>   -1.8205    1.0000 </r>
       <r>   -1.7562    1.0000 </r>
       <r>   -1.3284    1.0000 </r>
       <r>    0.1697    1.0000 </r>
       <r>    0.2514    1.0000 </r>
       <r>    0.6108    1.0000 </r>
       <r>    0.6913    1.0000 </r>
       <r>    0.8786    1.0000 </r>
       <r>    1.0714    1.0000 </r>
       <r>    1.1375    1.0000 </r>
       <r>    1.3038    1.0000 </r>
       <r>    1.3818    1.0000 </r>
       <r>    1.5155    1.0000 </r>
       <r>    1.5892    1.0000 </r>
       <r>    1.7711    1.0000 </r>
       <r>    1.7862    1.0000 </r>
       <r>    2.1817    1.0000 </r>
       <r>    2.2658    1.0000 </r>
       <r>    2.6523    1.0000 </r>
       <r>    3.3065    1.0000 </r>
       <r>    3.6459    1.0000 </r>
       <r>    3.7390    1.0000 </r>
       <r>    4.1610    1.0000 </r>
       <r>    4.1734    1.0000 </r>
       <r>    4.2424    1.0000 </r>
       <r>    4.3204    1.0000 </r>
       <r>    4.6069    1.0000 </r>
       <r>    4.6088    1.0000 </r>
       <r>    4.7074    1.0000 </r>
       <r>    4.7483    1.0000 </r>
       <r>    5.0391    1.0000 </r>
       <r>    5.2409    1.0000 </r>
       <r>    5.4922    1.0000 </r>
       <r>    5.8973    1.0001 </r>
       <r>    5.9134    1.0001 </r>
       <r>    6.3160    1.0209 </r>
       <r>    6.3749    0.9486 </r>
       <r>    6.5810    0.2151 </r>
       <r>    6.6624    0.0183 </r>
       <r>    7.2270   -0.0000 </r>
       <r>    7.3024   -0.0000 </r>
       <r>    7.4356   -0.0000 </r>
       <r>    7.5184   -0.0000 </r>
       <r>    7.6801   -0.0000 </r>
       <r>    7.7142   -0.0000 </r>
       <r>    8.0581   -0.0000 </r>
       <r>    8.1320   -0.0000 </r>
       <r>    8.2443   -0.0000 </r>
       <r>    8.3082   -0.0000 </r>
       <r>    8.5363   -0.0000 </r>
       <r>    8.5618   -0.0000 </r>
       <r>    8.8917   -0.0000 </r>
       <r>    8.9108   -0.0000 </r>
       <r>    9.0645   -0.0000 </r>
       <r>    9.1156   -0.0000 </r>
       <r>    9.3050   -0.0000 </r>
       <r>    9.3650   -0.0000 </r>
       <r>    9.5754   -0.0000 </r>
       <r>    9.7057   -0.0000 </r>
       <r>    9.7323   -0.0000 </r>
       <r>   10.0997   -0.0000 </r>
      </set>
      <set comment="kpoint 111">
       <r>   -2.9346    1.0000 </r>
       <r>   -2.4717    1.0000 </r>
       <r>   -2.2495    1.0000 </r>
       <r>   -1.8223    1.0000 </r>
       <r>   -1.7477    1.0000 </r>
       <r>   -1.3270    1.0000 </r>
       <r>    0.1596    1.0000 </r>
       <r>    0.2358    1.0000 </r>
       <r>    0.5964    1.0000 </r>
       <r>    0.7070    1.0000 </r>
       <r>    0.8926    1.0000 </r>
       <r>    1.0694    1.0000 </r>
       <r>    1.1332    1.0000 </r>
       <r>    1.2971    1.0000 </r>
       <r>    1.3817    1.0000 </r>
       <r>    1.5243    1.0000 </r>
       <r>    1.5981    1.0000 </r>
       <r>    1.7636    1.0000 </r>
       <r>    1.8079    1.0000 </r>
       <r>    2.1781    1.0000 </r>
       <r>    2.2616    1.0000 </r>
       <r>    2.6593    1.0000 </r>
       <r>    3.3033    1.0000 </r>
       <r>    3.6344    1.0000 </r>
       <r>    3.7459    1.0000 </r>
       <r>    4.1634    1.0000 </r>
       <r>    4.1744    1.0000 </r>
       <r>    4.2442    1.0000 </r>
       <r>    4.3147    1.0000 </r>
       <r>    4.5987    1.0000 </r>
       <r>    4.6289    1.0000 </r>
       <r>    4.7098    1.0000 </r>
       <r>    4.7288    1.0000 </r>
       <r>    5.0330    1.0000 </r>
       <r>    5.2551    1.0000 </r>
       <r>    5.4817    1.0000 </r>
       <r>    5.8998    1.0001 </r>
       <r>    5.9177    1.0001 </r>
       <r>    6.3105    1.0241 </r>
       <r>    6.3786    0.9414 </r>
       <r>    6.5751    0.2352 </r>
       <r>    6.6501    0.0376 </r>
       <r>    7.2133   -0.0000 </r>
       <r>    7.2908   -0.0000 </r>
       <r>    7.4457   -0.0000 </r>
       <r>    7.5376   -0.0000 </r>
       <r>    7.6844   -0.0000 </r>
       <r>    7.7011   -0.0000 </r>
       <r>    8.0679   -0.0000 </r>
       <r>    8.1324   -0.0000 </r>
       <r>    8.2315   -0.0000 </r>
       <r>    8.2996   -0.0000 </r>
       <r>    8.5379   -0.0000 </r>
       <r>    8.5615   -0.0000 </r>
       <r>    8.8919   -0.0000 </r>
       <r>    8.9103   -0.0000 </r>
       <r>    9.0709   -0.0000 </r>
       <r>    9.1372   -0.0000 </r>
       <r>    9.3015   -0.0000 </r>
       <r>    9.3696   -0.0000 </r>
       <r>    9.5878   -0.0000 </r>
       <r>    9.7210   -0.0000 </r>
       <r>    9.7451   -0.0000 </r>
       <r>   10.1245   -0.0000 </r>
      </set>
      <set comment="kpoint 112">
       <r>   -2.9336    1.0000 </r>
       <r>   -2.4731    1.0000 </r>
       <r>   -2.2494    1.0000 </r>
       <r>   -1.8233    1.0000 </r>
       <r>   -1.7417    1.0000 </r>
       <r>   -1.3366    1.0000 </r>
       <r>    0.1414    1.0000 </r>
       <r>    0.2609    1.0000 </r>
       <r>    0.6325    1.0000 </r>
       <r>    0.7055    1.0000 </r>
       <r>    0.8846    1.0000 </r>
       <r>    1.0380    1.0000 </r>
       <r>    1.1501    1.0000 </r>
       <r>    1.2914    1.0000 </r>
       <r>    1.3710    1.0000 </r>
       <r>    1.5154    1.0000 </r>
       <r>    1.6084    1.0000 </r>
       <r>    1.7627    1.0000 </r>
       <r>    1.8098    1.0000 </r>
       <r>    2.1720    1.0000 </r>
       <r>    2.2607    1.0000 </r>
       <r>    2.6609    1.0000 </r>
       <r>    3.3038    1.0000 </r>
       <r>    3.6239    1.0000 </r>
       <r>    3.7395    1.0000 </r>
       <r>    4.1651    1.0000 </r>
       <r>    4.1690    1.0000 </r>
       <r>    4.2595    1.0000 </r>
       <r>    4.3366    1.0000 </r>
       <r>    4.5996    1.0000 </r>
       <r>    4.6199    1.0000 </r>
       <r>    4.7088    1.0000 </r>
       <r>    4.7340    1.0000 </r>
       <r>    5.0299    1.0000 </r>
       <r>    5.2554    1.0000 </r>
       <r>    5.4772    1.0000 </r>
       <r>    5.9045    1.0001 </r>
       <r>    5.9111    1.0001 </r>
       <r>    6.3119    1.0234 </r>
       <r>    6.3790    0.9405 </r>
       <r>    6.5705    0.2516 </r>
       <r>    6.6704    0.0078 </r>
       <r>    7.2110   -0.0000 </r>
       <r>    7.2928   -0.0000 </r>
       <r>    7.4280   -0.0000 </r>
       <r>    7.5310   -0.0000 </r>
       <r>    7.6913   -0.0000 </r>
       <r>    7.7178   -0.0000 </r>
       <r>    8.0690   -0.0000 </r>
       <r>    8.1460   -0.0000 </r>
       <r>    8.2158   -0.0000 </r>
       <r>    8.2982   -0.0000 </r>
       <r>    8.5299   -0.0000 </r>
       <r>    8.5704   -0.0000 </r>
       <r>    8.8885   -0.0000 </r>
       <r>    8.9140   -0.0000 </r>
       <r>    9.0701   -0.0000 </r>
       <r>    9.1306   -0.0000 </r>
       <r>    9.2921   -0.0000 </r>
       <r>    9.3649   -0.0000 </r>
       <r>    9.5788   -0.0000 </r>
       <r>    9.7286   -0.0000 </r>
       <r>    9.7444   -0.0000 </r>
       <r>   10.1013   -0.0000 </r>
      </set>
      <set comment="kpoint 113">
       <r>   -3.2664    1.0000 </r>
       <r>   -2.5827    1.0000 </r>
       <r>   -1.3145    1.0000 </r>
       <r>   -1.2630    1.0000 </r>
       <r>   -1.1798    1.0000 </r>
       <r>   -1.0510    1.0000 </r>
       <r>   -1.0086    1.0000 </r>
       <r>   -0.9002    1.0000 </r>
       <r>    0.0389    1.0000 </r>
       <r>    0.1086    1.0000 </r>
       <r>    0.1988    1.0000 </r>
       <r>    1.1351    1.0000 </r>
       <r>    1.2060    1.0000 </r>
       <r>    1.2987    1.0000 </r>
       <r>    1.4321    1.0000 </r>
       <r>    1.6082    1.0000 </r>
       <r>    1.6659    1.0000 </r>
       <r>    1.7524    1.0000 </r>
       <r>    3.0942    1.0000 </r>
       <r>    3.1470    1.0000 </r>
       <r>    3.2452    1.0000 </r>
       <r>    3.4334    1.0000 </r>
       <r>    3.7447    1.0000 </r>
       <r>    3.7928    1.0000 </r>
       <r>    3.8170    1.0000 </r>
       <r>    3.8518    1.0000 </r>
       <r>    3.9015    1.0000 </r>
       <r>    3.9195    1.0000 </r>
       <r>    4.3841    1.0000 </r>
       <r>    4.4301    1.0000 </r>
       <r>    4.4685    1.0000 </r>
       <r>    4.5003    1.0000 </r>
       <r>    4.5628    1.0000 </r>
       <r>    4.5899    1.0000 </r>
       <r>    5.7466    1.0000 </r>
       <r>    5.7708    1.0000 </r>
       <r>    5.7763    1.0000 </r>
       <r>    6.0037    1.0010 </r>
       <r>    6.0097    1.0012 </r>
       <r>    6.0244    1.0016 </r>
       <r>    6.3549    0.9816 </r>
       <r>    6.4157    0.8503 </r>
       <r>    6.5102    0.4934 </r>
       <r>    7.1961   -0.0000 </r>
       <r>    7.2095   -0.0000 </r>
       <r>    7.2248   -0.0000 </r>
       <r>    8.2059   -0.0000 </r>
       <r>    8.2288   -0.0000 </r>
       <r>    8.2520   -0.0000 </r>
       <r>    8.3740   -0.0000 </r>
       <r>    8.4154   -0.0000 </r>
       <r>    8.4470   -0.0000 </r>
       <r>    8.4658   -0.0000 </r>
       <r>    8.5226   -0.0000 </r>
       <r>    8.5404   -0.0000 </r>
       <r>    8.5903   -0.0000 </r>
       <r>    8.6055   -0.0000 </r>
       <r>    8.6467   -0.0000 </r>
       <r>    8.6839   -0.0000 </r>
       <r>    8.7409   -0.0000 </r>
       <r>    8.8241   -0.0000 </r>
       <r>    9.6788   -0.0000 </r>
       <r>    9.7323   -0.0000 </r>
       <r>    9.8171   -0.0000 </r>
      </set>
      <set comment="kpoint 114">
       <r>   -3.2686    1.0000 </r>
       <r>   -2.5754    1.0000 </r>
       <r>   -1.3462    1.0000 </r>
       <r>   -1.2583    1.0000 </r>
       <r>   -1.1533    1.0000 </r>
       <r>   -1.0845    1.0000 </r>
       <r>   -1.0023    1.0000 </r>
       <r>   -0.8741    1.0000 </r>
       <r>    0.0167    1.0000 </r>
       <r>    0.0976    1.0000 </r>
       <r>    0.2364    1.0000 </r>
       <r>    1.1163    1.0000 </r>
       <r>    1.1877    1.0000 </r>
       <r>    1.3281    1.0000 </r>
       <r>    1.4411    1.0000 </r>
       <r>    1.5752    1.0000 </r>
       <r>    1.6591    1.0000 </r>
       <r>    1.7918    1.0000 </r>
       <r>    3.0675    1.0000 </r>
       <r>    3.1456    1.0000 </r>
       <r>    3.2872    1.0000 </r>
       <r>    3.4277    1.0000 </r>
       <r>    3.7009    1.0000 </r>
       <r>    3.7733    1.0000 </r>
       <r>    3.7968    1.0000 </r>
       <r>    3.8560    1.0000 </r>
       <r>    3.9216    1.0000 </r>
       <r>    3.9570    1.0000 </r>
       <r>    4.3473    1.0000 </r>
       <r>    4.4162    1.0000 </r>
       <r>    4.4546    1.0000 </r>
       <r>    4.5254    1.0000 </r>
       <r>    4.5914    1.0000 </r>
       <r>    4.6200    1.0000 </r>
       <r>    5.7423    1.0000 </r>
       <r>    5.7553    1.0000 </r>
       <r>    5.7874    1.0000 </r>
       <r>    6.0015    1.0010 </r>
       <r>    6.0078    1.0011 </r>
       <r>    6.0377    1.0022 </r>
       <r>    6.3252    1.0143 </r>
       <r>    6.4041    0.8824 </r>
       <r>    6.5387    0.3745 </r>
       <r>    7.1918   -0.0000 </r>
       <r>    7.2005   -0.0000 </r>
       <r>    7.2320   -0.0000 </r>
       <r>    8.2054   -0.0000 </r>
       <r>    8.2194   -0.0000 </r>
       <r>    8.2389   -0.0000 </r>
       <r>    8.3528   -0.0000 </r>
       <r>    8.3886   -0.0000 </r>
       <r>    8.4725   -0.0000 </r>
       <r>    8.4864   -0.0000 </r>
       <r>    8.5098   -0.0000 </r>
       <r>    8.5508   -0.0000 </r>
       <r>    8.6009   -0.0000 </r>
       <r>    8.6220   -0.0000 </r>
       <r>    8.6414   -0.0000 </r>
       <r>    8.6690   -0.0000 </r>
       <r>    8.7218   -0.0000 </r>
       <r>    8.8693   -0.0000 </r>
       <r>    9.6406   -0.0000 </r>
       <r>    9.7282   -0.0000 </r>
       <r>    9.8460   -0.0000 </r>
      </set>
      <set comment="kpoint 115">
       <r>   -3.2640    1.0000 </r>
       <r>   -2.5870    1.0000 </r>
       <r>   -1.3708    1.0000 </r>
       <r>   -1.2271    1.0000 </r>
       <r>   -1.1635    1.0000 </r>
       <r>   -1.0708    1.0000 </r>
       <r>   -0.9756    1.0000 </r>
       <r>   -0.8924    1.0000 </r>
       <r>    0.0078    1.0000 </r>
       <r>    0.1288    1.0000 </r>
       <r>    0.2021    1.0000 </r>
       <r>    1.1132    1.0000 </r>
       <r>    1.2292    1.0000 </r>
       <r>    1.3040    1.0000 </r>
       <r>    1.4158    1.0000 </r>
       <r>    1.5756    1.0000 </r>
       <r>    1.6928    1.0000 </r>
       <r>    1.7570    1.0000 </r>
       <r>    3.0453    1.0000 </r>
       <r>    3.1712    1.0000 </r>
       <r>    3.2562    1.0000 </r>
       <r>    3.4389    1.0000 </r>
       <r>    3.7185    1.0000 </r>
       <r>    3.7667    1.0000 </r>
       <r>    3.8308    1.0000 </r>
       <r>    3.8790    1.0000 </r>
       <r>    3.8972    1.0000 </r>
       <r>    3.9676    1.0000 </r>
       <r>    4.3591    1.0000 </r>
       <r>    4.4055    1.0000 </r>
       <r>    4.4684    1.0000 </r>
       <r>    4.5262    1.0000 </r>
       <r>    4.5459    1.0000 </r>
       <r>    4.6188    1.0000 </r>
       <r>    5.7467    1.0000 </r>
       <r>    5.7673    1.0000 </r>
       <r>    5.7857    1.0000 </r>
       <r>    5.9943    1.0008 </r>
       <r>    6.0155    1.0013 </r>
       <r>    6.0343    1.0020 </r>
       <r>    6.3163    1.0207 </r>
       <r>    6.4440    0.7582 </r>
       <r>    6.5139    0.4779 </r>
       <r>    7.1971   -0.0000 </r>
       <r>    7.2071   -0.0000 </r>
       <r>    7.2243   -0.0000 </r>
       <r>    8.2167   -0.0000 </r>
       <r>    8.2382   -0.0000 </r>
       <r>    8.2435   -0.0000 </r>
       <r>    8.3591   -0.0000 </r>
       <r>    8.3798   -0.0000 </r>
       <r>    8.4272   -0.0000 </r>
       <r>    8.4792   -0.0000 </r>
       <r>    8.5026   -0.0000 </r>
       <r>    8.5521   -0.0000 </r>
       <r>    8.5967   -0.0000 </r>
       <r>    8.6271   -0.0000 </r>
       <r>    8.6379   -0.0000 </r>
       <r>    8.6557   -0.0000 </r>
       <r>    8.7657   -0.0000 </r>
       <r>    8.8397   -0.0000 </r>
       <r>    9.6403   -0.0000 </r>
       <r>    9.7513   -0.0000 </r>
       <r>    9.8296   -0.0000 </r>
      </set>
      <set comment="kpoint 116">
       <r>   -3.2641    1.0000 </r>
       <r>   -2.5880    1.0000 </r>
       <r>   -1.3324    1.0000 </r>
       <r>   -1.2551    1.0000 </r>
       <r>   -1.1860    1.0000 </r>
       <r>   -1.0567    1.0000 </r>
       <r>   -0.9507    1.0000 </r>
       <r>   -0.9227    1.0000 </r>
       <r>    0.0379    1.0000 </r>
       <r>    0.1243    1.0000 </r>
       <r>    0.1746    1.0000 </r>
       <r>    1.1367    1.0000 </r>
       <r>    1.2259    1.0000 </r>
       <r>    1.2757    1.0000 </r>
       <r>    1.4187    1.0000 </r>
       <r>    1.6094    1.0000 </r>
       <r>    1.6952    1.0000 </r>
       <r>    1.7262    1.0000 </r>
       <r>    3.0713    1.0000 </r>
       <r>    3.1836    1.0000 </r>
       <r>    3.2289    1.0000 </r>
       <r>    3.4363    1.0000 </r>
       <r>    3.7490    1.0000 </r>
       <r>    3.8002    1.0000 </r>
       <r>    3.8176    1.0000 </r>
       <r>    3.8777    1.0000 </r>
       <r>    3.8956    1.0000 </r>
       <r>    3.9166    1.0000 </r>
       <r>    4.3903    1.0000 </r>
       <r>    4.4373    1.0000 </r>
       <r>    4.4534    1.0000 </r>
       <r>    4.5295    1.0000 </r>
       <r>    4.5460    1.0000 </r>
       <r>    4.5604    1.0000 </r>
       <r>    5.7405    1.0000 </r>
       <r>    5.7514    1.0000 </r>
       <r>    5.7765    1.0000 </r>
       <r>    5.9999    1.0010 </r>
       <r>    6.0246    1.0016 </r>
       <r>    6.0524    1.0029 </r>
       <r>    6.3519    0.9857 </r>
       <r>    6.4380    0.7794 </r>
       <r>    6.4842    0.6024 </r>
       <r>    7.1955   -0.0000 </r>
       <r>    7.2077   -0.0000 </r>
       <r>    7.2184   -0.0000 </r>
       <r>    8.2102   -0.0000 </r>
       <r>    8.2336   -0.0000 </r>
       <r>    8.2514   -0.0000 </r>
       <r>    8.3829   -0.0000 </r>
       <r>    8.4069   -0.0000 </r>
       <r>    8.4403   -0.0000 </r>
       <r>    8.4986   -0.0000 </r>
       <r>    8.5161   -0.0000 </r>
       <r>    8.5447   -0.0000 </r>
       <r>    8.5816   -0.0000 </r>
       <r>    8.5963   -0.0000 </r>
       <r>    8.6288   -0.0000 </r>
       <r>    8.6696   -0.0000 </r>
       <r>    8.7601   -0.0000 </r>
       <r>    8.8072   -0.0000 </r>
       <r>    9.6783   -0.0000 </r>
       <r>    9.7625   -0.0000 </r>
       <r>    9.7919   -0.0000 </r>
      </set>
      <set comment="kpoint 117">
       <r>   -2.9427    1.0000 </r>
       <r>   -2.6870    1.0000 </r>
       <r>   -2.2296    1.0000 </r>
       <r>   -1.6288    1.0000 </r>
       <r>   -1.5171    1.0000 </r>
       <r>   -0.5154    1.0000 </r>
       <r>   -0.3946    1.0000 </r>
       <r>   -0.2295    1.0000 </r>
       <r>   -0.0540    1.0000 </r>
       <r>    0.0738    1.0000 </r>
       <r>    0.2351    1.0000 </r>
       <r>    1.1018    1.0000 </r>
       <r>    1.4787    1.0000 </r>
       <r>    1.5929    1.0000 </r>
       <r>    1.7794    1.0000 </r>
       <r>    2.1419    1.0000 </r>
       <r>    2.1966    1.0000 </r>
       <r>    2.2645    1.0000 </r>
       <r>    2.3756    1.0000 </r>
       <r>    2.4684    1.0000 </r>
       <r>    2.5963    1.0000 </r>
       <r>    2.7306    1.0000 </r>
       <r>    2.8098    1.0000 </r>
       <r>    2.8870    1.0000 </r>
       <r>    2.9316    1.0000 </r>
       <r>    3.7412    1.0000 </r>
       <r>    3.8558    1.0000 </r>
       <r>    4.1301    1.0000 </r>
       <r>    4.1425    1.0000 </r>
       <r>    4.3810    1.0000 </r>
       <r>    4.4155    1.0000 </r>
       <r>    4.8261    1.0000 </r>
       <r>    4.8444    1.0000 </r>
       <r>    5.4633    1.0000 </r>
       <r>    5.8018    1.0000 </r>
       <r>    5.8834    1.0000 </r>
       <r>    5.9408    1.0002 </r>
       <r>    6.0990    1.0068 </r>
       <r>    6.6587    0.0238 </r>
       <r>    6.7709   -0.0344 </r>
       <r>    6.8405   -0.0203 </r>
       <r>    6.8857   -0.0114 </r>
       <r>    6.9867   -0.0019 </r>
       <r>    7.1680   -0.0000 </r>
       <r>    7.1908   -0.0000 </r>
       <r>    7.3926   -0.0000 </r>
       <r>    7.5835   -0.0000 </r>
       <r>    7.6841   -0.0000 </r>
       <r>    7.9909   -0.0000 </r>
       <r>    8.0066   -0.0000 </r>
       <r>    8.0899   -0.0000 </r>
       <r>    8.1263   -0.0000 </r>
       <r>    8.2454   -0.0000 </r>
       <r>    8.4049   -0.0000 </r>
       <r>    8.4808   -0.0000 </r>
       <r>    8.6025   -0.0000 </r>
       <r>    8.7883   -0.0000 </r>
       <r>    8.7978   -0.0000 </r>
       <r>    9.2063   -0.0000 </r>
       <r>    9.2277   -0.0000 </r>
       <r>    9.7212   -0.0000 </r>
       <r>    9.8326   -0.0000 </r>
       <r>    9.8685   -0.0000 </r>
       <r>   10.0686   -0.0000 </r>
      </set>
      <set comment="kpoint 118">
       <r>   -2.9380    1.0000 </r>
       <r>   -2.6899    1.0000 </r>
       <r>   -2.2444    1.0000 </r>
       <r>   -1.5988    1.0000 </r>
       <r>   -1.5261    1.0000 </r>
       <r>   -0.5037    1.0000 </r>
       <r>   -0.4230    1.0000 </r>
       <r>   -0.2212    1.0000 </r>
       <r>   -0.0446    1.0000 </r>
       <r>    0.0515    1.0000 </r>
       <r>    0.2401    1.0000 </r>
       <r>    1.1135    1.0000 </r>
       <r>    1.5071    1.0000 </r>
       <r>    1.5897    1.0000 </r>
       <r>    1.7598    1.0000 </r>
       <r>    2.1359    1.0000 </r>
       <r>    2.1949    1.0000 </r>
       <r>    2.2232    1.0000 </r>
       <r>    2.4126    1.0000 </r>
       <r>    2.4526    1.0000 </r>
       <r>    2.6146    1.0000 </r>
       <r>    2.7134    1.0000 </r>
       <r>    2.8276    1.0000 </r>
       <r>    2.8913    1.0000 </r>
       <r>    2.9219    1.0000 </r>
       <r>    3.7498    1.0000 </r>
       <r>    3.8465    1.0000 </r>
       <r>    4.1406    1.0000 </r>
       <r>    4.1423    1.0000 </r>
       <r>    4.3889    1.0000 </r>
       <r>    4.4136    1.0000 </r>
       <r>    4.8172    1.0000 </r>
       <r>    4.8411    1.0000 </r>
       <r>    5.4728    1.0000 </r>
       <r>    5.8254    1.0000 </r>
       <r>    5.8713    1.0000 </r>
       <r>    5.9541    1.0003 </r>
       <r>    6.0707    1.0041 </r>
       <r>    6.6848   -0.0080 </r>
       <r>    6.7577   -0.0354 </r>
       <r>    6.8572   -0.0167 </r>
       <r>    6.8858   -0.0114 </r>
       <r>    6.9761   -0.0023 </r>
       <r>    7.1504   -0.0000 </r>
       <r>    7.1634   -0.0000 </r>
       <r>    7.3904   -0.0000 </r>
       <r>    7.5849   -0.0000 </r>
       <r>    7.6647   -0.0000 </r>
       <r>    7.9988   -0.0000 </r>
       <r>    8.0198   -0.0000 </r>
       <r>    8.1006   -0.0000 </r>
       <r>    8.1372   -0.0000 </r>
       <r>    8.2170   -0.0000 </r>
       <r>    8.4091   -0.0000 </r>
       <r>    8.5137   -0.0000 </r>
       <r>    8.5915   -0.0000 </r>
       <r>    8.7871   -0.0000 </r>
       <r>    8.7957   -0.0000 </r>
       <r>    9.1960   -0.0000 </r>
       <r>    9.2336   -0.0000 </r>
       <r>    9.7365   -0.0000 </r>
       <r>    9.8425   -0.0000 </r>
       <r>    9.8743   -0.0000 </r>
       <r>   10.0652   -0.0000 </r>
      </set>
      <set comment="kpoint 119">
       <r>   -2.9381    1.0000 </r>
       <r>   -2.6864    1.0000 </r>
       <r>   -2.2514    1.0000 </r>
       <r>   -1.5897    1.0000 </r>
       <r>   -1.5331    1.0000 </r>
       <r>   -0.4917    1.0000 </r>
       <r>   -0.4343    1.0000 </r>
       <r>   -0.2212    1.0000 </r>
       <r>   -0.0231    1.0000 </r>
       <r>    0.0328    1.0000 </r>
       <r>    0.2403    1.0000 </r>
       <r>    1.1080    1.0000 </r>
       <r>    1.5148    1.0000 </r>
       <r>    1.5722    1.0000 </r>
       <r>    1.7769    1.0000 </r>
       <r>    2.1595    1.0000 </r>
       <r>    2.1832    1.0000 </r>
       <r>    2.2397    1.0000 </r>
       <r>    2.3877    1.0000 </r>
       <r>    2.4535    1.0000 </r>
       <r>    2.6353    1.0000 </r>
       <r>    2.6763    1.0000 </r>
       <r>    2.8345    1.0000 </r>
       <r>    2.8797    1.0000 </r>
       <r>    2.9189    1.0000 </r>
       <r>    3.7477    1.0000 </r>
       <r>    3.8515    1.0000 </r>
       <r>    4.1483    1.0000 </r>
       <r>    4.1501    1.0000 </r>
       <r>    4.3965    1.0000 </r>
       <r>    4.4169    1.0000 </r>
       <r>    4.8160    1.0000 </r>
       <r>    4.8250    1.0000 </r>
       <r>    5.4724    1.0000 </r>
       <r>    5.8153    1.0000 </r>
       <r>    5.8898    1.0001 </r>
       <r>    5.9811    1.0006 </r>
       <r>    6.0401    1.0023 </r>
       <r>    6.6955   -0.0169 </r>
       <r>    6.7451   -0.0352 </r>
       <r>    6.8630   -0.0155 </r>
       <r>    6.8864   -0.0113 </r>
       <r>    6.9738   -0.0024 </r>
       <r>    7.1569   -0.0000 </r>
       <r>    7.1691   -0.0000 </r>
       <r>    7.3826   -0.0000 </r>
       <r>    7.6068   -0.0000 </r>
       <r>    7.6448   -0.0000 </r>
       <r>    7.9978   -0.0000 </r>
       <r>    8.0189   -0.0000 </r>
       <r>    8.1028   -0.0000 </r>
       <r>    8.1413   -0.0000 </r>
       <r>    8.2050   -0.0000 </r>
       <r>    8.4182   -0.0000 </r>
       <r>    8.5261   -0.0000 </r>
       <r>    8.5785   -0.0000 </r>
       <r>    8.7880   -0.0000 </r>
       <r>    8.8024   -0.0000 </r>
       <r>    9.2023   -0.0000 </r>
       <r>    9.2110   -0.0000 </r>
       <r>    9.7319   -0.0000 </r>
       <r>    9.8433   -0.0000 </r>
       <r>    9.8659   -0.0000 </r>
       <r>   10.0705   -0.0000 </r>
      </set>
      <set comment="kpoint 120">
       <r>   -2.9466    1.0000 </r>
       <r>   -2.6754    1.0000 </r>
       <r>   -2.2424    1.0000 </r>
       <r>   -1.6532    1.0000 </r>
       <r>   -1.4781    1.0000 </r>
       <r>   -0.5427    1.0000 </r>
       <r>   -0.3817    1.0000 </r>
       <r>   -0.2272    1.0000 </r>
       <r>   -0.0690    1.0000 </r>
       <r>    0.0895    1.0000 </r>
       <r>    0.2391    1.0000 </r>
       <r>    1.1090    1.0000 </r>
       <r>    1.4573    1.0000 </r>
       <r>    1.6297    1.0000 </r>
       <r>    1.7722    1.0000 </r>
       <r>    2.1086    1.0000 </r>
       <r>    2.2008    1.0000 </r>
       <r>    2.2764    1.0000 </r>
       <r>    2.3353    1.0000 </r>
       <r>    2.4884    1.0000 </r>
       <r>    2.5926    1.0000 </r>
       <r>    2.7511    1.0000 </r>
       <r>    2.7768    1.0000 </r>
       <r>    2.9019    1.0000 </r>
       <r>    2.9520    1.0000 </r>
       <r>    3.7382    1.0000 </r>
       <r>    3.8597    1.0000 </r>
       <r>    4.1245    1.0000 </r>
       <r>    4.1473    1.0000 </r>
       <r>    4.3966    1.0000 </r>
       <r>    4.4221    1.0000 </r>
       <r>    4.8162    1.0000 </r>
       <r>    4.8386    1.0000 </r>
       <r>    5.4693    1.0000 </r>
       <r>    5.7465    1.0000 </r>
       <r>    5.9190    1.0001 </r>
       <r>    5.9465    1.0003 </r>
       <r>    6.1137    1.0087 </r>
       <r>    6.6356    0.0651 </r>
       <r>    6.7951   -0.0305 </r>
       <r>    6.8713   -0.0139 </r>
       <r>    6.8889   -0.0109 </r>
       <r>    6.9599   -0.0032 </r>
       <r>    7.1486   -0.0000 </r>
       <r>    7.1753   -0.0000 </r>
       <r>    7.3937   -0.0000 </r>
       <r>    7.5604   -0.0000 </r>
       <r>    7.6963   -0.0000 </r>
       <r>    7.9924   -0.0000 </r>
       <r>    8.0140   -0.0000 </r>
       <r>    8.0653   -0.0000 </r>
       <r>    8.1331   -0.0000 </r>
       <r>    8.2489   -0.0000 </r>
       <r>    8.4291   -0.0000 </r>
       <r>    8.4641   -0.0000 </r>
       <r>    8.6337   -0.0000 </r>
       <r>    8.7758   -0.0000 </r>
       <r>    8.8045   -0.0000 </r>
       <r>    9.2006   -0.0000 </r>
       <r>    9.2281   -0.0000 </r>
       <r>    9.7486   -0.0000 </r>
       <r>    9.8427   -0.0000 </r>
       <r>    9.8519   -0.0000 </r>
       <r>   10.0335   -0.0000 </r>
      </set>
      <set comment="kpoint 121">
       <r>   -2.9492    1.0000 </r>
       <r>   -2.6737    1.0000 </r>
       <r>   -2.2374    1.0000 </r>
       <r>   -1.6285    1.0000 </r>
       <r>   -1.5174    1.0000 </r>
       <r>   -0.5140    1.0000 </r>
       <r>   -0.3964    1.0000 </r>
       <r>   -0.2299    1.0000 </r>
       <r>   -0.0439    1.0000 </r>
       <r>    0.0668    1.0000 </r>
       <r>    0.2317    1.0000 </r>
       <r>    1.1042    1.0000 </r>
       <r>    1.4793    1.0000 </r>
       <r>    1.5987    1.0000 </r>
       <r>    1.7801    1.0000 </r>
       <r>    2.1389    1.0000 </r>
       <r>    2.1916    1.0000 </r>
       <r>    2.2690    1.0000 </r>
       <r>    2.3608    1.0000 </r>
       <r>    2.4693    1.0000 </r>
       <r>    2.6059    1.0000 </r>
       <r>    2.7400    1.0000 </r>
       <r>    2.8032    1.0000 </r>
       <r>    2.8856    1.0000 </r>
       <r>    2.9303    1.0000 </r>
       <r>    3.7398    1.0000 </r>
       <r>    3.8590    1.0000 </r>
       <r>    4.1227    1.0000 </r>
       <r>    4.1337    1.0000 </r>
       <r>    4.3935    1.0000 </r>
       <r>    4.4276    1.0000 </r>
       <r>    4.8205    1.0000 </r>
       <r>    4.8395    1.0000 </r>
       <r>    5.4626    1.0000 </r>
       <r>    5.7878    1.0000 </r>
       <r>    5.8909    1.0001 </r>
       <r>    5.9552    1.0003 </r>
       <r>    6.1027    1.0073 </r>
       <r>    6.6561    0.0277 </r>
       <r>    6.7637   -0.0351 </r>
       <r>    6.8579   -0.0166 </r>
       <r>    6.8918   -0.0104 </r>
       <r>    6.9741   -0.0024 </r>
       <r>    7.1550   -0.0000 </r>
       <r>    7.1726   -0.0000 </r>
       <r>    7.3977   -0.0000 </r>
       <r>    7.5809   -0.0000 </r>
       <r>    7.6827   -0.0000 </r>
       <r>    8.0032   -0.0000 </r>
       <r>    8.0083   -0.0000 </r>
       <r>    8.1003   -0.0000 </r>
       <r>    8.1319   -0.0000 </r>
       <r>    8.2271   -0.0000 </r>
       <r>    8.4074   -0.0000 </r>
       <r>    8.4779   -0.0000 </r>
       <r>    8.6173   -0.0000 </r>
       <r>    8.7751   -0.0000 </r>
       <r>    8.8040   -0.0000 </r>
       <r>    9.2048   -0.0000 </r>
       <r>    9.2287   -0.0000 </r>
       <r>    9.7187   -0.0000 </r>
       <r>    9.8462   -0.0000 </r>
       <r>    9.8620   -0.0000 </r>
       <r>   10.0487   -0.0000 </r>
      </set>
      <set comment="kpoint 122">
       <r>   -2.9469    1.0000 </r>
       <r>   -2.6720    1.0000 </r>
       <r>   -2.2512    1.0000 </r>
       <r>   -1.6008    1.0000 </r>
       <r>   -1.5349    1.0000 </r>
       <r>   -0.4942    1.0000 </r>
       <r>   -0.4094    1.0000 </r>
       <r>   -0.2252    1.0000 </r>
       <r>   -0.0332    1.0000 </r>
       <r>    0.0380    1.0000 </r>
       <r>    0.2312    1.0000 </r>
       <r>    1.1044    1.0000 </r>
       <r>    1.5098    1.0000 </r>
       <r>    1.5901    1.0000 </r>
       <r>    1.7743    1.0000 </r>
       <r>    2.1381    1.0000 </r>
       <r>    2.1981    1.0000 </r>
       <r>    2.2422    1.0000 </r>
       <r>    2.3849    1.0000 </r>
       <r>    2.4442    1.0000 </r>
       <r>    2.6242    1.0000 </r>
       <r>    2.7148    1.0000 </r>
       <r>    2.8276    1.0000 </r>
       <r>    2.8775    1.0000 </r>
       <r>    2.9229    1.0000 </r>
       <r>    3.7369    1.0000 </r>
       <r>    3.8577    1.0000 </r>
       <r>    4.1312    1.0000 </r>
       <r>    4.1431    1.0000 </r>
       <r>    4.4029    1.0000 </r>
       <r>    4.4280    1.0000 </r>
       <r>    4.8139    1.0000 </r>
       <r>    4.8312    1.0000 </r>
       <r>    5.4692    1.0000 </r>
       <r>    5.8042    1.0000 </r>
       <r>    5.8714    1.0000 </r>
       <r>    5.9789    1.0006 </r>
       <r>    6.0849    1.0053 </r>
       <r>    6.6724    0.0053 </r>
       <r>    6.7528   -0.0355 </r>
       <r>    6.8461   -0.0191 </r>
       <r>    6.8790   -0.0125 </r>
       <r>    6.9918   -0.0017 </r>
       <r>    7.1512   -0.0000 </r>
       <r>    7.1697   -0.0000 </r>
       <r>    7.3903   -0.0000 </r>
       <r>    7.6010   -0.0000 </r>
       <r>    7.6583   -0.0000 </r>
       <r>    8.0016   -0.0000 </r>
       <r>    8.0213   -0.0000 </r>
       <r>    8.1061   -0.0000 </r>
       <r>    8.1310   -0.0000 </r>
       <r>    8.1922   -0.0000 </r>
       <r>    8.4184   -0.0000 </r>
       <r>    8.5217   -0.0000 </r>
       <r>    8.5883   -0.0000 </r>
       <r>    8.7870   -0.0000 </r>
       <r>    8.8098   -0.0000 </r>
       <r>    9.2009   -0.0000 </r>
       <r>    9.2203   -0.0000 </r>
       <r>    9.7247   -0.0000 </r>
       <r>    9.8422   -0.0000 </r>
       <r>    9.8677   -0.0000 </r>
       <r>   10.0712   -0.0000 </r>
      </set>
      <set comment="kpoint 123">
       <r>   -2.9287    1.0000 </r>
       <r>   -2.7023    1.0000 </r>
       <r>   -2.2460    1.0000 </r>
       <r>   -1.6002    1.0000 </r>
       <r>   -1.5189    1.0000 </r>
       <r>   -0.5217    1.0000 </r>
       <r>   -0.4048    1.0000 </r>
       <r>   -0.2359    1.0000 </r>
       <r>   -0.0139    1.0000 </r>
       <r>    0.0503    1.0000 </r>
       <r>    0.2352    1.0000 </r>
       <r>    1.1040    1.0000 </r>
       <r>    1.4977    1.0000 </r>
       <r>    1.5877    1.0000 </r>
       <r>    1.7725    1.0000 </r>
       <r>    2.1178    1.0000 </r>
       <r>    2.1955    1.0000 </r>
       <r>    2.2427    1.0000 </r>
       <r>    2.3896    1.0000 </r>
       <r>    2.4607    1.0000 </r>
       <r>    2.6276    1.0000 </r>
       <r>    2.6995    1.0000 </r>
       <r>    2.8292    1.0000 </r>
       <r>    2.8949    1.0000 </r>
       <r>    2.9116    1.0000 </r>
       <r>    3.7505    1.0000 </r>
       <r>    3.8441    1.0000 </r>
       <r>    4.1481    1.0000 </r>
       <r>    4.1686    1.0000 </r>
       <r>    4.3922    1.0000 </r>
       <r>    4.4040    1.0000 </r>
       <r>    4.8189    1.0000 </r>
       <r>    4.8346    1.0000 </r>
       <r>    5.4703    1.0000 </r>
       <r>    5.8133    1.0000 </r>
       <r>    5.8944    1.0001 </r>
       <r>    5.9666    1.0004 </r>
       <r>    6.0590    1.0033 </r>
       <r>    6.6738    0.0036 </r>
       <r>    6.7556   -0.0354 </r>
       <r>    6.8330   -0.0221 </r>
       <r>    6.8948   -0.0099 </r>
       <r>    6.9931   -0.0016 </r>
       <r>    7.1616   -0.0000 </r>
       <r>    7.1726   -0.0000 </r>
       <r>    7.3824   -0.0000 </r>
       <r>    7.5799   -0.0000 </r>
       <r>    7.6594   -0.0000 </r>
       <r>    7.9898   -0.0000 </r>
       <r>    8.0227   -0.0000 </r>
       <r>    8.1056   -0.0000 </r>
       <r>    8.1431   -0.0000 </r>
       <r>    8.2163   -0.0000 </r>
       <r>    8.3963   -0.0000 </r>
       <r>    8.4984   -0.0000 </r>
       <r>    8.6038   -0.0000 </r>
       <r>    8.7895   -0.0000 </r>
       <r>    8.8062   -0.0000 </r>
       <r>    9.1981   -0.0000 </r>
       <r>    9.2263   -0.0000 </r>
       <r>    9.7382   -0.0000 </r>
       <r>    9.8365   -0.0000 </r>
       <r>    9.8561   -0.0000 </r>
       <r>   10.0646   -0.0000 </r>
      </set>
      <set comment="kpoint 124">
       <r>   -2.9336    1.0000 </r>
       <r>   -2.6992    1.0000 </r>
       <r>   -2.2311    1.0000 </r>
       <r>   -1.6545    1.0000 </r>
       <r>   -1.4787    1.0000 </r>
       <r>   -0.5405    1.0000 </r>
       <r>   -0.3701    1.0000 </r>
       <r>   -0.2261    1.0000 </r>
       <r>   -0.0859    1.0000 </r>
       <r>    0.0912    1.0000 </r>
       <r>    0.2463    1.0000 </r>
       <r>    1.1052    1.0000 </r>
       <r>    1.4571    1.0000 </r>
       <r>    1.6209    1.0000 </r>
       <r>    1.7668    1.0000 </r>
       <r>    2.1020    1.0000 </r>
       <r>    2.1893    1.0000 </r>
       <r>    2.2833    1.0000 </r>
       <r>    2.3678    1.0000 </r>
       <r>    2.5119    1.0000 </r>
       <r>    2.5745    1.0000 </r>
       <r>    2.7281    1.0000 </r>
       <r>    2.7780    1.0000 </r>
       <r>    2.8931    1.0000 </r>
       <r>    2.9613    1.0000 </r>
       <r>    3.7524    1.0000 </r>
       <r>    3.8534    1.0000 </r>
       <r>    4.1340    1.0000 </r>
       <r>    4.1594    1.0000 </r>
       <r>    4.3773    1.0000 </r>
       <r>    4.4005    1.0000 </r>
       <r>    4.8268    1.0000 </r>
       <r>    4.8480    1.0000 </r>
       <r>    5.4696    1.0000 </r>
       <r>    5.7750    1.0000 </r>
       <r>    5.9125    1.0001 </r>
       <r>    5.9583    1.0003 </r>
       <r>    6.0817    1.0051 </r>
       <r>    6.6289    0.0794 </r>
       <r>    6.7919   -0.0312 </r>
       <r>    6.8582   -0.0165 </r>
       <r>    6.8758   -0.0131 </r>
       <r>    6.9753   -0.0024 </r>
       <r>    7.1656   -0.0000 </r>
       <r>    7.1919   -0.0000 </r>
       <r>    7.3834   -0.0000 </r>
       <r>    7.5628   -0.0000 </r>
       <r>    7.7013   -0.0000 </r>
       <r>    7.9950   -0.0000 </r>
       <r>    8.0128   -0.0000 </r>
       <r>    8.0732   -0.0000 </r>
       <r>    8.1259   -0.0000 </r>
       <r>    8.2522   -0.0000 </r>
       <r>    8.3952   -0.0000 </r>
       <r>    8.4873   -0.0000 </r>
       <r>    8.6292   -0.0000 </r>
       <r>    8.7729   -0.0000 </r>
       <r>    8.7991   -0.0000 </r>
       <r>    9.2035   -0.0000 </r>
       <r>    9.2283   -0.0000 </r>
       <r>    9.7179   -0.0000 </r>
       <r>    9.8330   -0.0000 </r>
       <r>    9.8606   -0.0000 </r>
       <r>   10.0406   -0.0000 </r>
      </set>
      <set comment="kpoint 125">
       <r>   -2.9317    1.0000 </r>
       <r>   -2.6968    1.0000 </r>
       <r>   -2.2479    1.0000 </r>
       <r>   -1.5916    1.0000 </r>
       <r>   -1.5330    1.0000 </r>
       <r>   -0.4835    1.0000 </r>
       <r>   -0.4296    1.0000 </r>
       <r>   -0.2263    1.0000 </r>
       <r>   -0.0322    1.0000 </r>
       <r>    0.0344    1.0000 </r>
       <r>    0.2480    1.0000 </r>
       <r>    1.1007    1.0000 </r>
       <r>    1.5193    1.0000 </r>
       <r>    1.5644    1.0000 </r>
       <r>    1.7807    1.0000 </r>
       <r>    2.1379    1.0000 </r>
       <r>    2.1922    1.0000 </r>
       <r>    2.2332    1.0000 </r>
       <r>    2.4135    1.0000 </r>
       <r>    2.4606    1.0000 </r>
       <r>    2.6150    1.0000 </r>
       <r>    2.6723    1.0000 </r>
       <r>    2.8415    1.0000 </r>
       <r>    2.8809    1.0000 </r>
       <r>    2.9187    1.0000 </r>
       <r>    3.7491    1.0000 </r>
       <r>    3.8486    1.0000 </r>
       <r>    4.1509    1.0000 </r>
       <r>    4.1613    1.0000 </r>
       <r>    4.3905    1.0000 </r>
       <r>    4.4032    1.0000 </r>
       <r>    4.8206    1.0000 </r>
       <r>    4.8321    1.0000 </r>
       <r>    5.4718    1.0000 </r>
       <r>    5.8467    1.0000 </r>
       <r>    5.8975    1.0001 </r>
       <r>    5.9694    1.0005 </r>
       <r>    6.0256    1.0017 </r>
       <r>    6.6872   -0.0101 </r>
       <r>    6.7333   -0.0336 </r>
       <r>    6.8637   -0.0154 </r>
       <r>    6.8848   -0.0115 </r>
       <r>    6.9670   -0.0028 </r>
       <r>    7.1702   -0.0000 </r>
       <r>    7.1782   -0.0000 </r>
       <r>    7.3800   -0.0000 </r>
       <r>    7.6066   -0.0000 </r>
       <r>    7.6432   -0.0000 </r>
       <r>    7.9949   -0.0000 </r>
       <r>    8.0143   -0.0000 </r>
       <r>    8.1013   -0.0000 </r>
       <r>    8.1488   -0.0000 </r>
       <r>    8.1997   -0.0000 </r>
       <r>    8.4219   -0.0000 </r>
       <r>    8.5176   -0.0000 </r>
       <r>    8.5837   -0.0000 </r>
       <r>    8.7893   -0.0000 </r>
       <r>    8.7974   -0.0000 </r>
       <r>    9.2023   -0.0000 </r>
       <r>    9.2160   -0.0000 </r>
       <r>    9.7356   -0.0000 </r>
       <r>    9.8299   -0.0000 </r>
       <r>    9.8576   -0.0000 </r>
       <r>   10.0699   -0.0000 </r>
      </set>
      <set comment="kpoint 126">
       <r>   -2.9313    1.0000 </r>
       <r>   -2.7014    1.0000 </r>
       <r>   -2.2395    1.0000 </r>
       <r>   -1.5995    1.0000 </r>
       <r>   -1.5267    1.0000 </r>
       <r>   -0.4992    1.0000 </r>
       <r>   -0.4186    1.0000 </r>
       <r>   -0.2315    1.0000 </r>
       <r>   -0.0371    1.0000 </r>
       <r>    0.0488    1.0000 </r>
       <r>    0.2450    1.0000 </r>
       <r>    1.1056    1.0000 </r>
       <r>    1.5004    1.0000 </r>
       <r>    1.5755    1.0000 </r>
       <r>    1.7647    1.0000 </r>
       <r>    2.1456    1.0000 </r>
       <r>    2.2026    1.0000 </r>
       <r>    2.2379    1.0000 </r>
       <r>    2.3911    1.0000 </r>
       <r>    2.4670    1.0000 </r>
       <r>    2.6178    1.0000 </r>
       <r>    2.6988    1.0000 </r>
       <r>    2.8299    1.0000 </r>
       <r>    2.9011    1.0000 </r>
       <r>    2.9101    1.0000 </r>
       <r>    3.7537    1.0000 </r>
       <r>    3.8432    1.0000 </r>
       <r>    4.1469    1.0000 </r>
       <r>    4.1522    1.0000 </r>
       <r>    4.3854    1.0000 </r>
       <r>    4.3982    1.0000 </r>
       <r>    4.8187    1.0000 </r>
       <r>    4.8454    1.0000 </r>
       <r>    5.4710    1.0000 </r>
       <r>    5.8297    1.0000 </r>
       <r>    5.8971    1.0001 </r>
       <r>    5.9622    1.0004 </r>
       <r>    6.0338    1.0020 </r>
       <r>    6.6836   -0.0068 </r>
       <r>    6.7523   -0.0355 </r>
       <r>    6.8657   -0.0150 </r>
       <r>    6.8812   -0.0121 </r>
       <r>    6.9608   -0.0031 </r>
       <r>    7.1638   -0.0000 </r>
       <r>    7.1754   -0.0000 </r>
       <r>    7.3892   -0.0000 </r>
       <r>    7.5863   -0.0000 </r>
       <r>    7.6666   -0.0000 </r>
       <r>    7.9941   -0.0000 </r>
       <r>    8.0144   -0.0000 </r>
       <r>    8.0981   -0.0000 </r>
       <r>    8.1383   -0.0000 </r>
       <r>    8.2159   -0.0000 </r>
       <r>    8.4028   -0.0000 </r>
       <r>    8.5202   -0.0000 </r>
       <r>    8.5859   -0.0000 </r>
       <r>    8.7803   -0.0000 </r>
       <r>    8.8084   -0.0000 </r>
       <r>    9.1984   -0.0000 </r>
       <r>    9.2324   -0.0000 </r>
       <r>    9.7311   -0.0000 </r>
       <r>    9.8413   -0.0000 </r>
       <r>    9.8677   -0.0000 </r>
       <r>   10.0614   -0.0000 </r>
      </set>
      <set comment="kpoint 127">
       <r>   -2.9284    1.0000 </r>
       <r>   -2.7036    1.0000 </r>
       <r>   -2.2440    1.0000 </r>
       <r>   -1.6005    1.0000 </r>
       <r>   -1.5191    1.0000 </r>
       <r>   -0.5282    1.0000 </r>
       <r>   -0.4035    1.0000 </r>
       <r>   -0.2176    1.0000 </r>
       <r>   -0.0236    1.0000 </r>
       <r>    0.0479    1.0000 </r>
       <r>    0.2297    1.0000 </r>
       <r>    1.1087    1.0000 </r>
       <r>    1.4977    1.0000 </r>
       <r>    1.5901    1.0000 </r>
       <r>    1.7576    1.0000 </r>
       <r>    2.1280    1.0000 </r>
       <r>    2.1935    1.0000 </r>
       <r>    2.2414    1.0000 </r>
       <r>    2.3988    1.0000 </r>
       <r>    2.4788    1.0000 </r>
       <r>    2.6171    1.0000 </r>
       <r>    2.6871    1.0000 </r>
       <r>    2.8265    1.0000 </r>
       <r>    2.8977    1.0000 </r>
       <r>    2.9167    1.0000 </r>
       <r>    3.7462    1.0000 </r>
       <r>    3.8443    1.0000 </r>
       <r>    4.1483    1.0000 </r>
       <r>    4.1673    1.0000 </r>
       <r>    4.3922    1.0000 </r>
       <r>    4.4012    1.0000 </r>
       <r>    4.8207    1.0000 </r>
       <r>    4.8367    1.0000 </r>
       <r>    5.4707    1.0000 </r>
       <r>    5.8200    1.0000 </r>
       <r>    5.9055    1.0001 </r>
       <r>    5.9502    1.0003 </r>
       <r>    6.0461    1.0026 </r>
       <r>    6.6738    0.0037 </r>
       <r>    6.7652   -0.0350 </r>
       <r>    6.8687   -0.0144 </r>
       <r>    6.8835   -0.0118 </r>
       <r>    6.9563   -0.0034 </r>
       <r>    7.1522   -0.0000 </r>
       <r>    7.1798   -0.0000 </r>
       <r>    7.3888   -0.0000 </r>
       <r>    7.5884   -0.0000 </r>
       <r>    7.6600   -0.0000 </r>
       <r>    8.0051   -0.0000 </r>
       <r>    8.0170   -0.0000 </r>
       <r>    8.1172   -0.0000 </r>
       <r>    8.1300   -0.0000 </r>
       <r>    8.2201   -0.0000 </r>
       <r>    8.3941   -0.0000 </r>
       <r>    8.5023   -0.0000 </r>
       <r>    8.5973   -0.0000 </r>
       <r>    8.7843   -0.0000 </r>
       <r>    8.7981   -0.0000 </r>
       <r>    9.2106   -0.0000 </r>
       <r>    9.2166   -0.0000 </r>
       <r>    9.7258   -0.0000 </r>
       <r>    9.8396   -0.0000 </r>
       <r>    9.8685   -0.0000 </r>
       <r>   10.0713   -0.0000 </r>
      </set>
      <set comment="kpoint 128">
       <r>   -2.9338    1.0000 </r>
       <r>   -2.6972    1.0000 </r>
       <r>   -2.2381    1.0000 </r>
       <r>   -1.6019    1.0000 </r>
       <r>   -1.5352    1.0000 </r>
       <r>   -0.4878    1.0000 </r>
       <r>   -0.4099    1.0000 </r>
       <r>   -0.2274    1.0000 </r>
       <r>   -0.0345    1.0000 </r>
       <r>    0.0343    1.0000 </r>
       <r>    0.2406    1.0000 </r>
       <r>    1.0970    1.0000 </r>
       <r>    1.5032    1.0000 </r>
       <r>    1.5725    1.0000 </r>
       <r>    1.7733    1.0000 </r>
       <r>    2.1501    1.0000 </r>
       <r>    2.2110    1.0000 </r>
       <r>    2.2443    1.0000 </r>
       <r>    2.3850    1.0000 </r>
       <r>    2.4682    1.0000 </r>
       <r>    2.6195    1.0000 </r>
       <r>    2.6886    1.0000 </r>
       <r>    2.8361    1.0000 </r>
       <r>    2.8775    1.0000 </r>
       <r>    2.9158    1.0000 </r>
       <r>    3.7467    1.0000 </r>
       <r>    3.8501    1.0000 </r>
       <r>    4.1480    1.0000 </r>
       <r>    4.1546    1.0000 </r>
       <r>    4.3833    1.0000 </r>
       <r>    4.4042    1.0000 </r>
       <r>    4.8210    1.0000 </r>
       <r>    4.8423    1.0000 </r>
       <r>    5.4682    1.0000 </r>
       <r>    5.8231    1.0000 </r>
       <r>    5.8938    1.0001 </r>
       <r>    5.9657    1.0004 </r>
       <r>    6.0470    1.0026 </r>
       <r>    6.6801   -0.0033 </r>
       <r>    6.7441   -0.0351 </r>
       <r>    6.8349   -0.0216 </r>
       <r>    6.8781   -0.0127 </r>
       <r>    6.9920   -0.0017 </r>
       <r>    7.1793   -0.0000 </r>
       <r>    7.1855   -0.0000 </r>
       <r>    7.3856   -0.0000 </r>
       <r>    7.6002   -0.0000 </r>
       <r>    7.6702   -0.0000 </r>
       <r>    7.9838   -0.0000 </r>
       <r>    8.0101   -0.0000 </r>
       <r>    8.0833   -0.0000 </r>
       <r>    8.1590   -0.0000 </r>
       <r>    8.2002   -0.0000 </r>
       <r>    8.4100   -0.0000 </r>
       <r>    8.5096   -0.0000 </r>
       <r>    8.5932   -0.0000 </r>
       <r>    8.7870   -0.0000 </r>
       <r>    8.8026   -0.0000 </r>
       <r>    9.2011   -0.0000 </r>
       <r>    9.2262   -0.0000 </r>
       <r>    9.7383   -0.0000 </r>
       <r>    9.8287   -0.0000 </r>
       <r>    9.8499   -0.0000 </r>
       <r>   10.0641   -0.0000 </r>
      </set>
     </set>
    </set>
   </array>
  </eigenvalues>
  <separator name="orbital magnetization" >
   <v name="MAGDIPOLOUT">      0.00000000      0.00000000      0.00000000</v>
  </separator>
  <dos>
   <i name="efermi">      6.50865353 </i>
   <total>
    <array>
     <dimension dim="1">gridpoints</dimension>
     <dimension dim="2">spin</dimension>
     <field>energy</field>
     <field>total</field>
     <field>integrated</field>
     <set>
      <set comment="spin 1">
       <r>    -5.6027     0.0000     0.0000 </r>
       <r>    -5.5401     0.0000     0.0000 </r>
       <r>    -5.4774     0.0000     0.0000 </r>
       <r>    -5.4148     0.0000     0.0000 </r>
       <r>    -5.3521     0.0000     0.0000 </r>
       <r>    -5.2895     0.0000     0.0000 </r>
       <r>    -5.2269    -0.0000    -0.0000 </r>
       <r>    -5.1642    -0.0000    -0.0000 </r>
       <r>    -5.1016    -0.0000    -0.0000 </r>
       <r>    -5.0390    -0.0000    -0.0000 </r>
       <r>    -4.9763    -0.0000    -0.0000 </r>
       <r>    -4.9137    -0.0000    -0.0000 </r>
       <r>    -4.8510    -0.0000    -0.0000 </r>
       <r>    -4.7884    -0.0000    -0.0000 </r>
       <r>    -4.7258    -0.0000    -0.0000 </r>
       <r>    -4.6631    -0.0000    -0.0000 </r>
       <r>    -4.6005    -0.0000    -0.0000 </r>
       <r>    -4.5379    -0.0000    -0.0000 </r>
       <r>    -4.4752    -0.0000    -0.0000 </r>
       <r>    -4.4126    -0.0000    -0.0000 </r>
       <r>    -4.3499    -0.0000    -0.0000 </r>
       <r>    -4.2873    -0.0000    -0.0000 </r>
       <r>    -4.2247    -0.0000    -0.0000 </r>
       <r>    -4.1620    -0.0003    -0.0000 </r>
       <r>    -4.0994    -0.0011    -0.0001 </r>
       <r>    -4.0368    -0.0041    -0.0004 </r>
       <r>    -3.9741    -0.0119    -0.0011 </r>
       <r>    -3.9115    -0.0263    -0.0027 </r>
       <r>    -3.8488    -0.0423    -0.0054 </r>
       <r>    -3.7862    -0.0372    -0.0077 </r>
       <r>    -3.7236     0.0323    -0.0057 </r>
       <r>    -3.6609     0.2124     0.0076 </r>
       <r>    -3.5983     0.5156     0.0399 </r>
       <r>    -3.5357     0.8946     0.0959 </r>
       <r>    -3.4730     1.2679     0.1754 </r>
       <r>    -3.4104     1.5855     0.2747 </r>
       <r>    -3.3477     1.8680     0.3917 </r>
       <r>    -3.2851     2.1570     0.5268 </r>
       <r>    -3.2225     2.4299     0.6790 </r>
       <r>    -3.1598     2.6017     0.8419 </r>
       <r>    -3.0972     2.6473     1.0078 </r>
       <r>    -3.0346     2.6904     1.1763 </r>
       <r>    -2.9719     2.8927     1.3575 </r>
       <r>    -2.9093     3.2337     1.5600 </r>
       <r>    -2.8466     3.4766     1.7778 </r>
       <r>    -2.7840     3.4234     1.9922 </r>
       <r>    -2.7214     3.1792     2.1914 </r>
       <r>    -2.6587     3.0770     2.3841 </r>
       <r>    -2.5961     3.3165     2.5918 </r>
       <r>    -2.5334     3.7480     2.8266 </r>
       <r>    -2.4708     4.0643     3.0812 </r>
       <r>    -2.4082     4.1523     3.3413 </r>
       <r>    -2.3455     4.1740     3.6027 </r>
       <r>    -2.2829     4.3137     3.8729 </r>
       <r>    -2.2203     4.5375     4.1571 </r>
       <r>    -2.1576     4.6432     4.4480 </r>
       <r>    -2.0950     4.4992     4.7298 </r>
       <r>    -2.0323     4.2063     4.9933 </r>
       <r>    -1.9697     4.0576     5.2474 </r>
       <r>    -1.9071     4.3224     5.5182 </r>
       <r>    -1.8444     4.9866     5.8305 </r>
       <r>    -1.7818     5.6906     6.1870 </r>
       <r>    -1.7192     6.0044     6.5631 </r>
       <r>    -1.6565     5.8006     6.9264 </r>
       <r>    -1.5939     5.3053     7.2587 </r>
       <r>    -1.5312     4.8094     7.5600 </r>
       <r>    -1.4686     4.4647     7.8396 </r>
       <r>    -1.4060     4.3882     8.1145 </r>
       <r>    -1.3433     4.7611     8.4127 </r>
       <r>    -1.2807     5.6154     8.7644 </r>
       <r>    -1.2181     6.5670     9.1758 </r>
       <r>    -1.1554     7.0047     9.6145 </r>
       <r>    -1.0928     6.6710    10.0324 </r>
       <r>    -1.0301     5.9542    10.4054 </r>
       <r>    -0.9675     5.4964    10.7496 </r>
       <r>    -0.9049     5.5661    11.0983 </r>
       <r>    -0.8422     5.9001    11.4678 </r>
       <r>    -0.7796     6.1187    11.8511 </r>
       <r>    -0.7170     6.1662    12.2373 </r>
       <r>    -0.6543     6.2653    12.6298 </r>
       <r>    -0.5917     6.5060    13.0373 </r>
       <r>    -0.5290     6.6425    13.4534 </r>
       <r>    -0.4664     6.3997    13.8542 </r>
       <r>    -0.4038     5.9116    14.2245 </r>
       <r>    -0.3411     5.7149    14.5825 </r>
       <r>    -0.2785     6.2496    14.9740 </r>
       <r>    -0.2159     7.3880    15.4367 </r>
       <r>    -0.1532     8.4749    15.9676 </r>
       <r>    -0.0906     8.8323    16.5208 </r>
       <r>    -0.0279     8.2628    17.0384 </r>
       <r>     0.0347     7.1569    17.4867 </r>
       <r>     0.0973     6.1763    17.8735 </r>
       <r>     0.1600     5.7676    18.2348 </r>
       <r>     0.2226     5.8912    18.6038 </r>
       <r>     0.2852     6.2241    18.9937 </r>
       <r>     0.3479     6.6135    19.4079 </r>
       <r>     0.4105     7.2043    19.8592 </r>
       <r>     0.4732     8.0678    20.3645 </r>
       <r>     0.5358     8.8828    20.9209 </r>
       <r>     0.5984     9.1842    21.4962 </r>
       <r>     0.6611     8.8783    22.0523 </r>
       <r>     0.7237     8.3234    22.5737 </r>
       <r>     0.7863     7.8879    23.0677 </r>
       <r>     0.8490     7.6154    23.5448 </r>
       <r>     0.9116     7.4047    24.0086 </r>
       <r>     0.9743     7.3251    24.4674 </r>
       <r>     1.0369     7.5313    24.9391 </r>
       <r>     1.0995     7.9261    25.4356 </r>
       <r>     1.1622     8.1564    25.9465 </r>
       <r>     1.2248     8.0260    26.4492 </r>
       <r>     1.2874     7.7702    26.9359 </r>
       <r>     1.3501     7.8203    27.4258 </r>
       <r>     1.4127     8.3312    27.9476 </r>
       <r>     1.4754     8.9838    28.5104 </r>
       <r>     1.5380     9.2724    29.0912 </r>
       <r>     1.6006     9.0256    29.6565 </r>
       <r>     1.6633     8.6370    30.1975 </r>
       <r>     1.7259     8.6651    30.7403 </r>
       <r>     1.7885     9.1463    31.3132 </r>
       <r>     1.8512     9.4741    31.9066 </r>
       <r>     1.9138     9.1542    32.4800 </r>
       <r>     1.9765     8.5456    33.0153 </r>
       <r>     2.0391     8.5326    33.5497 </r>
       <r>     2.1017     9.4160    34.1395 </r>
       <r>     2.1644    10.4133    34.7918 </r>
       <r>     2.2270    10.4435    35.4459 </r>
       <r>     2.2896     9.2731    36.0268 </r>
       <r>     2.3523     7.7174    36.5102 </r>
       <r>     2.4149     6.8019    36.9362 </r>
       <r>     2.4776     6.9246    37.3700 </r>
       <r>     2.5402     7.8217    37.8599 </r>
       <r>     2.6028     9.0789    38.4286 </r>
       <r>     2.6655    10.4248    39.0816 </r>
       <r>     2.7281    11.5767    39.8067 </r>
       <r>     2.7907    12.1265    40.5663 </r>
       <r>     2.8534    11.8260    41.3070 </r>
       <r>     2.9160    10.9172    41.9909 </r>
       <r>     2.9787    10.0176    42.6183 </r>
       <r>     3.0413     9.6415    43.2223 </r>
       <r>     3.1039     9.8152    43.8371 </r>
       <r>     3.1666    10.0857    44.4688 </r>
       <r>     3.2292     9.9122    45.0897 </r>
       <r>     3.2918     9.1545    45.6631 </r>
       <r>     3.3545     8.2171    46.1778 </r>
       <r>     3.4171     7.7006    46.6602 </r>
       <r>     3.4798     7.9639    47.1590 </r>
       <r>     3.5424     9.0268    47.7244 </r>
       <r>     3.6050    10.6955    48.3944 </r>
       <r>     3.6677    12.5701    49.1817 </r>
       <r>     3.7303    13.9849    50.0577 </r>
       <r>     3.7929    14.2289    50.9490 </r>
       <r>     3.8556    13.0649    51.7673 </r>
       <r>     3.9182    11.0651    52.4604 </r>
       <r>     3.9809     9.3325    53.0450 </r>
       <r>     4.0435     8.7627    53.5939 </r>
       <r>     4.1061     9.4525    54.1859 </r>
       <r>     4.1688    10.7415    54.8588 </r>
       <r>     4.2314    11.8102    55.5985 </r>
       <r>     4.2940    12.2373    56.3650 </r>
       <r>     4.3567    12.0326    57.1187 </r>
       <r>     4.4193    11.3497    57.8297 </r>
       <r>     4.4820    10.3982    58.4810 </r>
       <r>     4.5446     9.5909    59.0817 </r>
       <r>     4.6072     9.4959    59.6765 </r>
       <r>     4.6699    10.4087    60.3285 </r>
       <r>     4.7325    11.8862    61.0730 </r>
       <r>     4.7951    12.8200    61.8760 </r>
       <r>     4.8578    12.2882    62.6457 </r>
       <r>     4.9204    10.4889    63.3027 </r>
       <r>     4.9831     8.6374    63.8438 </r>
       <r>     5.0457     7.8341    64.3345 </r>
       <r>     5.1083     8.2337    64.8502 </r>
       <r>     5.1710     9.3206    65.4340 </r>
       <r>     5.2336    10.6039    66.0982 </r>
       <r>     5.2962    11.8302    66.8393 </r>
       <r>     5.3589    12.7858    67.6401 </r>
       <r>     5.4215    13.2463    68.4698 </r>
       <r>     5.4842    13.1590    69.2941 </r>
       <r>     5.5468    12.6953    70.0893 </r>
       <r>     5.6094    12.0777    70.8458 </r>
       <r>     5.6721    11.5164    71.5672 </r>
       <r>     5.7347    11.3265    72.2766 </r>
       <r>     5.7974    11.8053    73.0161 </r>
       <r>     5.8600    12.7662    73.8157 </r>
       <r>     5.9226    13.3911    74.6545 </r>
       <r>     5.9853    12.8707    75.4607 </r>
       <r>     6.0479    11.2329    76.1643 </r>
       <r>     6.1105     9.3899    76.7525 </r>
       <r>     6.1732     8.3587    77.2760 </r>
       <r>     6.2358     8.5204    77.8097 </r>
       <r>     6.2985     9.5657    78.4089 </r>
       <r>     6.3611    10.9329    79.0937 </r>
       <r>     6.4237    12.2134    79.8587 </r>
       <r>     6.4864    13.2777    80.6904 </r>
       <r>     6.5490    14.1256    81.5752 </r>
       <r>     6.6116    14.6206    82.4910 </r>
       <r>     6.6743    14.4809    83.3981 </r>
       <r>     6.7369    13.7036    84.2564 </r>
       <r>     6.7996    12.8957    85.0642 </r>
       <r>     6.8622    12.8240    85.8675 </r>
       <r>     6.9248    13.4886    86.7124 </r>
       <r>     6.9875    13.9400    87.5855 </r>
       <r>     7.0501    13.2852    88.4177 </r>
       <r>     7.1127    11.6751    89.1490 </r>
       <r>     7.1754    10.0518    89.7786 </r>
       <r>     7.2380     9.2096    90.3555 </r>
       <r>     7.3007     9.4631    90.9482 </r>
       <r>     7.3633    10.8946    91.6306 </r>
       <r>     7.4259    13.2754    92.4622 </r>
       <r>     7.4886    15.7331    93.4476 </r>
       <r>     7.5512    17.0553    94.5159 </r>
       <r>     7.6138    16.6269    95.5574 </r>
       <r>     7.6765    14.9169    96.4918 </r>
       <r>     7.7391    12.9513    97.3030 </r>
       <r>     7.8018    11.4747    98.0218 </r>
       <r>     7.8644    10.6631    98.6897 </r>
       <r>     7.9270    10.3781    99.3397 </r>
       <r>     7.9897    10.4722    99.9957 </r>
       <r>     8.0523    10.9085   100.6790 </r>
       <r>     8.1149    11.6885   101.4111 </r>
       <r>     8.1776    12.6938   102.2062 </r>
       <r>     8.2402    13.7040   103.0646 </r>
       <r>     8.3029    14.6203   103.9804 </r>
       <r>     8.3655    15.4921   104.9508 </r>
       <r>     8.4281    16.2477   105.9685 </r>
       <r>     8.4908    16.6119   107.0090 </r>
       <r>     8.5534    16.3810   108.0351 </r>
       <r>     8.6160    15.6390   109.0147 </r>
       <r>     8.6787    14.6620   109.9331 </r>
       <r>     8.7413    13.6933   110.7908 </r>
       <r>     8.8040    12.8345   111.5947 </r>
       <r>     8.8666    12.1686   112.3569 </r>
       <r>     8.9292    11.9579   113.1059 </r>
       <r>     8.9919    12.4980   113.8888 </r>
       <r>     9.0545    13.5995   114.7406 </r>
       <r>     9.1171    14.4216   115.6440 </r>
       <r>     9.1798    14.1738   116.5318 </r>
       <r>     9.2424    13.0085   117.3466 </r>
       <r>     9.3051    11.9656   118.0961 </r>
       <r>     9.3677    11.9302   118.8434 </r>
       <r>     9.4303    12.8335   119.6472 </r>
       <r>     9.4930    14.0046   120.5244 </r>
       <r>     9.5556    15.0335   121.4661 </r>
       <r>     9.6182    15.9227   122.4635 </r>
       <r>     9.6809    16.5040   123.4972 </r>
       <r>     9.7435    16.1848   124.5110 </r>
       <r>     9.8062    14.4874   125.4185 </r>
       <r>     9.8688    11.6740   126.1497 </r>
       <r>     9.9314     8.6677   126.6926 </r>
       <r>     9.9941     6.3325   127.0893 </r>
       <r>    10.0567     4.8385   127.3924 </r>
       <r>    10.1193     3.7368   127.6264 </r>
       <r>    10.1820     2.5876   127.7885 </r>
       <r>    10.2446     1.3969   127.8760 </r>
       <r>    10.3073     0.4585   127.9047 </r>
       <r>    10.3699    -0.0433   127.9020 </r>
       <r>    10.4325    -0.1796   127.8908 </r>
       <r>    10.4952    -0.1410   127.8819 </r>
       <r>    10.5578    -0.0729   127.8774 </r>
       <r>    10.6204    -0.0304   127.8755 </r>
       <r>    10.6831    -0.0159   127.8745 </r>
       <r>    10.7457    -0.0179   127.8733 </r>
       <r>    10.8084    -0.0221   127.8720 </r>
       <r>    10.8710    -0.0056   127.8716 </r>
       <r>    10.9336     0.0612   127.8754 </r>
       <r>    10.9963     0.1919   127.8875 </r>
       <r>    11.0589     0.3522   127.9095 </r>
       <r>    11.1215     0.4639   127.9386 </r>
       <r>    11.1842     0.4595   127.9674 </r>
       <r>    11.2468     0.3417   127.9888 </r>
       <r>    11.3095     0.1809   128.0001 </r>
       <r>    11.3721     0.0540   128.0035 </r>
       <r>    11.4347    -0.0083   128.0030 </r>
       <r>    11.4974    -0.0218   128.0016 </r>
       <r>    11.5600    -0.0153   128.0006 </r>
       <r>    11.6226    -0.0070   128.0002 </r>
       <r>    11.6853    -0.0024   128.0001 </r>
       <r>    11.7479    -0.0006   128.0000 </r>
       <r>    11.8106    -0.0001   128.0000 </r>
       <r>    11.8732    -0.0000   128.0000 </r>
       <r>    11.9358    -0.0000   128.0000 </r>
       <r>    11.9985    -0.0000   128.0000 </r>
       <r>    12.0611    -0.0000   128.0000 </r>
       <r>    12.1237    -0.0000   128.0000 </r>
       <r>    12.1864    -0.0000   128.0000 </r>
       <r>    12.2490    -0.0000   128.0000 </r>
       <r>    12.3117    -0.0000   128.0000 </r>
       <r>    12.3743    -0.0000   128.0000 </r>
       <r>    12.4369    -0.0000   128.0000 </r>
       <r>    12.4996     0.0000   128.0000 </r>
       <r>    12.5622     0.0000   128.0000 </r>
       <r>    12.6248     0.0000   128.0000 </r>
       <r>    12.6875     0.0000   128.0000 </r>
       <r>    12.7501     0.0000   128.0000 </r>
       <r>    12.8128     0.0000   128.0000 </r>
       <r>    12.8754     0.0000   128.0000 </r>
       <r>    12.9380     0.0000   128.0000 </r>
       <r>    13.0007     0.0000   128.0000 </r>
       <r>    13.0633     0.0000   128.0000 </r>
       <r>    13.1259     0.0000   128.0000 </r>
       <r>    13.1886     0.0000   128.0000 </r>
      </set>
     </set>
    </array>
   </total>
  </dos>
 </calculation>
 <structure name="finalpos" >
  <crystal>
   <varray name="basis" >
    <v>       0.00000000       6.37875000       6.37875000 </v>
    <v>       6.37875000       0.00000000       6.37875000 </v>
    <v>       6.37875000       6.37875000       0.00000000 </v>
   </varray>
   <i name="volume">    519.08292081 </i>
   <varray name="rec_basis" >
    <v>      -0.07838526       0.07838526       0.07838526 </v>
    <v>       0.07838526      -0.07838526       0.07838526 </v>
    <v>       0.07838526       0.07838526      -0.07838526 </v>
   </varray>
  </crystal>
  <varray name="positions" >
   <v>       0.99523667       0.99039119       0.01089229 </v>
   <v>       0.99198467       0.01170577       0.33582919 </v>
   <v>       0.01313564       0.99885741       0.66063301 </v>
   <v>       0.01213589       0.33502364       0.99292681 </v>
   <v>       0.99262118       0.33642453       0.32618802 </v>
   <v>       0.01273216       0.33182291       0.66409036 </v>
   <v>       0.00685322       0.66935876       0.98668335 </v>
   <v>       0.99460526       0.65672227       0.34125917 </v>
   <v>       0.01276673       0.66313783       0.65832895 </v>
   <v>       0.32134791       0.00997084       0.00158723 </v>
   <v>       0.33027165       0.01318096       0.32588012 </v>
   <v>       0.33722283       0.98774882       0.66607303 </v>
   <v>       0.32521357       0.33586378       0.99391164 </v>
   <v>       0.32581443       0.34596653       0.33365373 </v>
   <v>       0.33566276       0.33180825       0.67716620 </v>
   <v>       0.33253089       0.67242236       0.98753011 </v>
   <v>       0.32137395       0.67654114       0.33313795 </v>
   <v>       0.33347440       0.66813384       0.65485563 </v>
   <v>       0.67958935       0.99741911       0.99177649 </v>
   <v>       0.67046868       0.99705879       0.32236032 </v>
   <v>       0.66712391       0.00681270       0.67232475 </v>
   <v>       0.67080446       0.33143668       0.00942789 </v>
   <v>       0.65538570       0.34232223       0.33029112 </v>
   <v>       0.66104158       0.34052827       0.67485751 </v>
   <v>       0.66647401       0.66490241       0.99000792 </v>
   <v>       0.65922981       0.66353263       0.33072040 </v>
   <v>       0.67081509       0.67712932       0.65687602 </v>
  </varray>
 </structure>
</modeling>
