<?xml version="1.0" encoding="ISO-8859-1"?>
<modeling>
 <generator>
  <i name="program" type="string">vasp </i>
  <i name="version" type="string">5.3.5  </i>
  <i name="subversion" type="string">31Mar14 (build Jun 17 2014 14:04:22) complex                          parallel </i>
  <i name="platform" type="string">LinuxIfort </i>
  <i name="date" type="string">2025 12 23 </i>
  <i name="time" type="string">01:03:44 </i>
 </generator>
 <incar>
  <i type="string" name="SYSTEM"> Al Random Displacement</i>
  <i type="string" name="PREC">normal</i>
  <i type="string" name="ALGO"> Fast</i>
  <i type="int" name="IBRION">    -1</i>
  <i type="int" name="NSW">     0</i>
  <i name="ENCUT">    300.00000000</i>
  <i type="string" name="LREAL"> Auto</i>
  <i type="int" name="ISMEAR">     1</i>
  <i name="SIGMA">      0.20000000</i>
  <i type="logical" name="LWAVE"> F  </i>
  <i type="logical" name="LCHARG"> F  </i>
 </incar>
 <kpoints>
  <generation param="Monkhorst-Pack">
   <v type="int" name="divisions">       4        4        4 </v>
   <v name="usershift">      0.00000000       0.00000000       0.00000000 </v>
   <v name="genvec1">      0.25000000       0.00000000       0.00000000 </v>
   <v name="genvec2">      0.00000000       0.25000000       0.00000000 </v>
   <v name="genvec3">      0.00000000       0.00000000       0.25000000 </v>
   <v name="shift">      0.50000000       0.50000000       0.50000000 </v>
  </generation>
  <varray name="kpointlist" >
   <v>       0.12500000       0.12500000       0.12500000 </v>
   <v>       0.12500000       0.00000000       0.00000000 </v>
   <v>       0.00000000       0.00000000      -0.12500000 </v>
   <v>       0.00000000       0.12500000       0.00000000 </v>
   <v>       0.37500000       0.12500000       0.12500000 </v>
   <v>       0.12500000       0.37500000       0.12500000 </v>
   <v>       0.12500000       0.12500000       0.37500000 </v>
   <v>       0.12500000       0.00000000      -0.25000000 </v>
   <v>       0.37500000       0.25000000       0.25000000 </v>
   <v>       0.12500000      -0.25000000       0.00000000 </v>
   <v>       0.00000000       0.25000000      -0.12500000 </v>
   <v>       0.25000000       0.00000000      -0.12500000 </v>
   <v>      -0.25000000      -0.25000000      -0.37500000 </v>
   <v>       0.25000000       0.37500000       0.25000000 </v>
   <v>       0.00000000       0.12500000      -0.25000000 </v>
   <v>      -0.25000000       0.12500000       0.00000000 </v>
   <v>      -0.37500000       0.12500000       0.12500000 </v>
   <v>       0.12500000      -0.37500000       0.12500000 </v>
   <v>       0.12500000       0.12500000      -0.37500000 </v>
   <v>       0.12500000       0.00000000       0.50000000 </v>
   <v>      -0.37500000       0.50000000       0.50000000 </v>
   <v>       0.12500000       0.50000000       0.00000000 </v>
   <v>       0.00000000       0.50000000      -0.12500000 </v>
   <v>       0.50000000       0.00000000      -0.12500000 </v>
   <v>       0.50000000       0.50000000       0.37500000 </v>
   <v>       0.50000000      -0.37500000       0.50000000 </v>
   <v>       0.00000000       0.12500000       0.50000000 </v>
   <v>       0.50000000       0.12500000       0.00000000 </v>
   <v>      -0.12500000       0.12500000       0.12500000 </v>
   <v>       0.12500000      -0.12500000       0.12500000 </v>
   <v>       0.12500000       0.12500000      -0.12500000 </v>
   <v>       0.12500000       0.00000000       0.25000000 </v>
   <v>      -0.12500000      -0.25000000      -0.25000000 </v>
   <v>       0.12500000       0.25000000       0.00000000 </v>
   <v>       0.00000000      -0.25000000      -0.12500000 </v>
   <v>      -0.25000000       0.00000000      -0.12500000 </v>
   <v>       0.25000000       0.25000000       0.12500000 </v>
   <v>      -0.25000000      -0.12500000      -0.25000000 </v>
   <v>       0.00000000       0.12500000       0.25000000 </v>
   <v>       0.25000000       0.12500000       0.00000000 </v>
   <v>       0.37500000       0.37500000       0.12500000 </v>
   <v>       0.12500000       0.37500000       0.37500000 </v>
   <v>       0.37500000       0.12500000       0.37500000 </v>
   <v>       0.37500000       0.25000000       0.00000000 </v>
   <v>       0.37500000       0.00000000       0.25000000 </v>
   <v>       0.12500000      -0.25000000      -0.25000000 </v>
   <v>       0.25000000       0.25000000      -0.12500000 </v>
   <v>       0.00000000      -0.25000000      -0.37500000 </v>
   <v>      -0.25000000       0.00000000      -0.37500000 </v>
   <v>       0.25000000       0.37500000       0.00000000 </v>
   <v>      -0.25000000       0.12500000      -0.25000000 </v>
   <v>       0.00000000       0.37500000       0.25000000 </v>
   <v>      -0.37500000       0.37500000       0.12500000 </v>
   <v>       0.12500000      -0.37500000       0.37500000 </v>
   <v>       0.37500000       0.12500000      -0.37500000 </v>
   <v>       0.37500000       0.25000000      -0.25000000 </v>
   <v>      -0.37500000       0.25000000       0.50000000 </v>
   <v>       0.12500000       0.50000000      -0.25000000 </v>
   <v>       0.25000000       0.50000000      -0.12500000 </v>
   <v>       0.25000000      -0.25000000      -0.37500000 </v>
   <v>       0.50000000      -0.25000000       0.37500000 </v>
   <v>       0.50000000      -0.37500000       0.25000000 </v>
   <v>      -0.25000000       0.12500000       0.50000000 </v>
   <v>      -0.25000000       0.37500000       0.25000000 </v>
   <v>      -0.12500000       0.25000000       0.50000000 </v>
   <v>      -0.37500000       0.25000000      -0.25000000 </v>
   <v>       0.37500000       0.50000000      -0.25000000 </v>
   <v>       0.25000000       0.50000000      -0.37500000 </v>
   <v>       0.50000000      -0.25000000       0.12500000 </v>
   <v>       0.25000000      -0.25000000       0.37500000 </v>
   <v>       0.50000000      -0.12500000       0.25000000 </v>
   <v>      -0.25000000      -0.37500000       0.25000000 </v>
   <v>      -0.25000000       0.37500000       0.50000000 </v>
   <v>       0.37500000      -0.12500000      -0.37500000 </v>
   <v>      -0.37500000       0.37500000      -0.12500000 </v>
   <v>      -0.12500000      -0.37500000       0.37500000 </v>
   <v>      -0.12500000       0.37500000       0.12500000 </v>
   <v>       0.12500000      -0.12500000       0.37500000 </v>
   <v>       0.37500000       0.12500000      -0.12500000 </v>
   <v>       0.37500000       0.25000000       0.50000000 </v>
   <v>      -0.12500000       0.50000000      -0.25000000 </v>
   <v>       0.12500000       0.25000000      -0.25000000 </v>
   <v>       0.25000000      -0.25000000      -0.12500000 </v>
   <v>       0.50000000      -0.25000000      -0.37500000 </v>
   <v>       0.25000000       0.50000000       0.12500000 </v>
   <v>      -0.25000000      -0.12500000       0.50000000 </v>
   <v>      -0.25000000       0.12500000       0.25000000 </v>
   <v>       0.50000000       0.37500000       0.25000000 </v>
   <v>      -0.12500000       0.25000000      -0.25000000 </v>
   <v>      -0.37500000       0.50000000      -0.25000000 </v>
   <v>       0.12500000       0.25000000       0.50000000 </v>
   <v>       0.50000000      -0.25000000      -0.12500000 </v>
   <v>       0.25000000      -0.25000000       0.12500000 </v>
   <v>       0.25000000       0.50000000       0.37500000 </v>
   <v>      -0.25000000      -0.12500000       0.25000000 </v>
   <v>      -0.25000000      -0.37500000       0.50000000 </v>
   <v>       0.50000000       0.12500000       0.25000000 </v>
   <v>       0.12500000      -0.12500000      -0.37500000 </v>
   <v>      -0.37500000       0.12500000      -0.12500000 </v>
   <v>      -0.12500000      -0.37500000       0.12500000 </v>
   <v>      -0.37500000      -0.37500000       0.12500000 </v>
   <v>       0.12500000      -0.37500000      -0.37500000 </v>
   <v>      -0.37500000       0.12500000      -0.37500000 </v>
   <v>      -0.37500000       0.50000000       0.00000000 </v>
   <v>      -0.37500000       0.00000000       0.50000000 </v>
   <v>       0.12500000       0.50000000       0.50000000 </v>
   <v>       0.50000000       0.50000000      -0.12500000 </v>
   <v>       0.00000000       0.50000000       0.37500000 </v>
   <v>       0.50000000       0.00000000       0.37500000 </v>
   <v>       0.50000000      -0.37500000       0.00000000 </v>
   <v>       0.50000000       0.12500000       0.50000000 </v>
   <v>       0.00000000      -0.37500000       0.50000000 </v>
   <v>       0.37500000       0.37500000       0.37500000 </v>
   <v>       0.37500000       0.00000000       0.00000000 </v>
   <v>       0.00000000       0.00000000      -0.37500000 </v>
   <v>       0.00000000       0.37500000       0.00000000 </v>
   <v>      -0.37500000       0.37500000       0.37500000 </v>
   <v>       0.37500000      -0.37500000       0.37500000 </v>
   <v>       0.37500000       0.37500000      -0.37500000 </v>
   <v>       0.37500000       0.00000000      -0.25000000 </v>
   <v>      -0.37500000       0.25000000       0.25000000 </v>
   <v>       0.37500000      -0.25000000       0.00000000 </v>
   <v>       0.00000000       0.25000000      -0.37500000 </v>
   <v>       0.25000000       0.00000000      -0.37500000 </v>
   <v>      -0.25000000      -0.25000000       0.37500000 </v>
   <v>       0.25000000      -0.37500000       0.25000000 </v>
   <v>       0.00000000       0.37500000      -0.25000000 </v>
   <v>      -0.25000000       0.37500000       0.00000000 </v>
  </varray>
  <varray name="weights" >
   <v>       0.00781250 </v>
   <v>       0.00781250 </v>
   <v>       0.00781250 </v>
   <v>       0.00781250 </v>
   <v>       0.00781250 </v>
   <v>       0.00781250 </v>
   <v>       0.00781250 </v>
   <v>       0.00781250 </v>
   <v>       0.00781250 </v>
   <v>       0.00781250 </v>
   <v>       0.00781250 </v>
   <v>       0.00781250 </v>
   <v>       0.00781250 </v>
   <v>       0.00781250 </v>
   <v>       0.00781250 </v>
   <v>       0.00781250 </v>
   <v>       0.00781250 </v>
   <v>       0.00781250 </v>
   <v>       0.00781250 </v>
   <v>       0.00781250 </v>
   <v>       0.00781250 </v>
   <v>       0.00781250 </v>
   <v>       0.00781250 </v>
   <v>       0.00781250 </v>
   <v>       0.00781250 </v>
   <v>       0.00781250 </v>
   <v>       0.00781250 </v>
   <v>       0.00781250 </v>
   <v>       0.00781250 </v>
   <v>       0.00781250 </v>
   <v>       0.00781250 </v>
   <v>       0.00781250 </v>
   <v>       0.00781250 </v>
   <v>       0.00781250 </v>
   <v>       0.00781250 </v>
   <v>       0.00781250 </v>
   <v>       0.00781250 </v>
   <v>       0.00781250 </v>
   <v>       0.00781250 </v>
   <v>       0.00781250 </v>
   <v>       0.00781250 </v>
   <v>       0.00781250 </v>
   <v>       0.00781250 </v>
   <v>       0.00781250 </v>
   <v>       0.00781250 </v>
   <v>       0.00781250 </v>
   <v>       0.00781250 </v>
   <v>       0.00781250 </v>
   <v>       0.00781250 </v>
   <v>       0.00781250 </v>
   <v>       0.00781250 </v>
   <v>       0.00781250 </v>
   <v>       0.00781250 </v>
   <v>       0.00781250 </v>
   <v>       0.00781250 </v>
   <v>       0.00781250 </v>
   <v>       0.00781250 </v>
   <v>       0.00781250 </v>
   <v>       0.00781250 </v>
   <v>       0.00781250 </v>
   <v>       0.00781250 </v>
   <v>       0.00781250 </v>
   <v>       0.00781250 </v>
   <v>       0.00781250 </v>
   <v>       0.00781250 </v>
   <v>       0.00781250 </v>
   <v>       0.00781250 </v>
   <v>       0.00781250 </v>
   <v>       0.00781250 </v>
   <v>       0.00781250 </v>
   <v>       0.00781250 </v>
   <v>       0.00781250 </v>
   <v>       0.00781250 </v>
   <v>       0.00781250 </v>
   <v>       0.00781250 </v>
   <v>       0.00781250 </v>
   <v>       0.00781250 </v>
   <v>       0.00781250 </v>
   <v>       0.00781250 </v>
   <v>       0.00781250 </v>
   <v>       0.00781250 </v>
   <v>       0.00781250 </v>
   <v>       0.00781250 </v>
   <v>       0.00781250 </v>
   <v>       0.00781250 </v>
   <v>       0.00781250 </v>
   <v>       0.00781250 </v>
   <v>       0.00781250 </v>
   <v>       0.00781250 </v>
   <v>       0.00781250 </v>
   <v>       0.00781250 </v>
   <v>       0.00781250 </v>
   <v>       0.00781250 </v>
   <v>       0.00781250 </v>
   <v>       0.00781250 </v>
   <v>       0.00781250 </v>
   <v>       0.00781250 </v>
   <v>       0.00781250 </v>
   <v>       0.00781250 </v>
   <v>       0.00781250 </v>
   <v>       0.00781250 </v>
   <v>       0.00781250 </v>
   <v>       0.00781250 </v>
   <v>       0.00781250 </v>
   <v>       0.00781250 </v>
   <v>       0.00781250 </v>
   <v>       0.00781250 </v>
   <v>       0.00781250 </v>
   <v>       0.00781250 </v>
   <v>       0.00781250 </v>
   <v>       0.00781250 </v>
   <v>       0.00781250 </v>
   <v>       0.00781250 </v>
   <v>       0.00781250 </v>
   <v>       0.00781250 </v>
   <v>       0.00781250 </v>
   <v>       0.00781250 </v>
   <v>       0.00781250 </v>
   <v>       0.00781250 </v>
   <v>       0.00781250 </v>
   <v>       0.00781250 </v>
   <v>       0.00781250 </v>
   <v>       0.00781250 </v>
   <v>       0.00781250 </v>
   <v>       0.00781250 </v>
   <v>       0.00781250 </v>
   <v>       0.00781250 </v>
   <v>       0.00781250 </v>
  </varray>
 </kpoints>
 <parameters>
  <separator name="general" >
   <i type="string" name="SYSTEM">Al Random Displacement</i>
   <i type="logical" name="LCOMPAT"> F  </i>
  </separator>
  <separator name="electronic" >
   <i type="string" name="PREC">normal</i>
   <i name="ENMAX">    300.00000000</i>
   <i name="ENAUG">    291.05200000</i>
   <i name="EDIFF">      0.00010000</i>
   <i type="int" name="IALGO">    68</i>
   <i type="int" name="IWAVPR">    10</i>
   <i type="int" name="NBANDS">    64</i>
   <i name="NELECT">     81.00000000</i>
   <i type="int" name="TURBO">     0</i>
   <i type="int" name="IRESTART">     0</i>
   <i type="int" name="NREBOOT">     0</i>
   <i type="int" name="NMIN">     0</i>
   <i name="EREF">      0.00000000</i>
   <separator name="electronic smearing" >
    <i type="int" name="ISMEAR">     1</i>
    <i name="SIGMA">      0.20000000</i>
    <i name="KSPACING">      0.50000000</i>
    <i type="logical" name="KGAMMA"> T  </i>
   </separator>
   <separator name="electronic projectors" >
    <i type="logical" name="LREAL"> T  </i>
    <v name="ROPT">     -0.00050000</v>
    <i type="int" name="LMAXPAW">  -100</i>
    <i type="int" name="LMAXMIX">     2</i>
    <i type="logical" name="NLSPLINE"> F  </i>
   </separator>
   <separator name="electronic startup" >
    <i type="int" name="ISTART">     0</i>
    <i type="int" name="ICHARG">     2</i>
    <i type="int" name="INIWAV">     1</i>
   </separator>
   <separator name="electronic spin" >
    <i type="int" name="ISPIN">     1</i>
    <i type="logical" name="LNONCOLLINEAR"> F  </i>
    <v name="MAGMOM">      1.00000000      1.00000000      1.00000000      1.00000000      1.00000000      1.00000000      1.00000000      1.00000000      1.00000000      1.00000000      1.00000000      1.00000000      1.00000000      1.00000000      1.00000000      1.00000000      1.00000000      1.00000000      1.00000000      1.00000000
      1.00000000      1.00000000      1.00000000      1.00000000      1.00000000      1.00000000      1.00000000</v>
    <i name="NUPDOWN">     -1.00000000</i>
    <i type="logical" name="LSORBIT"> F  </i>
    <v name="SAXIS">      0.00000000      0.00000000      1.00000000</v>
    <i type="logical" name="LSPIRAL"> F  </i>
    <v name="QSPIRAL">      0.00000000      0.00000000      0.00000000</v>
    <i type="logical" name="LZEROZ"> F  </i>
   </separator>
   <separator name="electronic exchange-correlation" >
    <i type="logical" name="LASPH"> F  </i>
    <i type="logical" name="LMETAGGA"> F  </i>
   </separator>
   <separator name="electronic convergence" >
    <i type="int" name="NELM">    60</i>
    <i type="int" name="NELMDL">    -5</i>
    <i type="int" name="NELMIN">     2</i>
    <i name="ENINI">    300.00000000</i>
    <separator name="electronic convergence detail" >
     <i type="logical" name="LDIAG"> T  </i>
     <i type="logical" name="LSUBROT"> F  </i>
     <i name="WEIMIN">      0.00000000</i>
     <i name="EBREAK">      0.00000039</i>
     <i name="DEPER">      0.30000000</i>
     <i type="int" name="NRMM">     4</i>
     <i name="TIME">      0.40000000</i>
    </separator>
   </separator>
   <separator name="electronic mixer" >
    <i name="AMIX">      0.40000000</i>
    <i name="BMIX">      1.00000000</i>
    <i name="AMIN">      0.10000000</i>
    <i name="AMIX_MAG">      1.60000000</i>
    <i name="BMIX_MAG">      1.00000000</i>
    <separator name="electronic mixer details" >
     <i type="int" name="IMIX">     4</i>
     <i type="int" name="MAXMIX">   -45</i>
     <i name="WC">    100.00000000</i>
     <i type="int" name="INIMIX">     1</i>
     <i type="int" name="MIXPRE">     1</i>
     <i type="int" name="MREMOVE">     5</i>
    </separator>
   </separator>
   <separator name="electronic dipolcorrection" >
    <i type="logical" name="LDIPOL"> F  </i>
    <i type="logical" name="LMONO"> F  </i>
    <i type="int" name="IDIPOL">     0</i>
    <i name="EPSILON">      1.00000000</i>
    <v name="DIPOL">   -100.00000000   -100.00000000   -100.00000000</v>
    <i name="EFIELD">      0.00000000</i>
   </separator>
  </separator>
  <separator name="grids" >
   <i type="int" name="NGX">    36</i>
   <i type="int" name="NGY">    36</i>
   <i type="int" name="NGZ">    36</i>
   <i type="int" name="NGXF">    72</i>
   <i type="int" name="NGYF">    72</i>
   <i type="int" name="NGZF">    72</i>
   <i type="logical" name="ADDGRID"> F  </i>
  </separator>
  <separator name="ionic" >
   <i type="int" name="NSW">     0</i>
   <i type="int" name="IBRION">    -1</i>
   <i type="int" name="ISIF">     2</i>
   <i name="PSTRESS">      0.00000000</i>
   <i name="EDIFFG">      0.00100000</i>
   <i type="int" name="NFREE">     0</i>
   <i name="POTIM">      0.50000000</i>
   <i name="SMASS">     -3.00000000</i>
   <i name="SCALEE">      1.00000000</i>
  </separator>
  <separator name="ionic md" >
   <i name="TEBEG">      0.00010000</i>
   <i name="TEEND">      0.00010000</i>
   <i type="int" name="NBLOCK">     1</i>
   <i type="int" name="KBLOCK">     1</i>
   <i type="int" name="NPACO">   256</i>
   <i name="APACO">     16.00000000</i>
  </separator>
  <separator name="symmetry" >
   <i type="int" name="ISYM">     2</i>
   <i name="SYMPREC">      0.00001000</i>
  </separator>
  <separator name="dos" >
   <i type="logical" name="LORBIT"> F  </i>
   <v name="RWIGS">     -1.00000000</v>
   <i type="int" name="NEDOS">   301</i>
   <i name="EMIN">     10.00000000</i>
   <i name="EMAX">    -10.00000000</i>
   <i name="EFERMI">      0.00000000</i>
  </separator>
  <separator name="writing" >
   <i type="int" name="NWRITE">     2</i>
   <i type="logical" name="LWAVE"> F  </i>
   <i type="logical" name="LCHARG"> F  </i>
   <i type="logical" name="LPARD"> F  </i>
   <i type="logical" name="LVTOT"> F  </i>
   <i type="logical" name="LVHAR"> F  </i>
   <i type="logical" name="LELF"> F  </i>
   <i type="logical" name="LOPTICS"> F  </i>
   <v name="STM">      0.00000000      0.00000000      0.00000000      0.00000000      0.00000000      0.00000000      0.00000000</v>
  </separator>
  <separator name="performance" >
   <i type="int" name="NPAR">    16</i>
   <i type="int" name="NSIM">     4</i>
   <i type="int" name="NBLK">    -1</i>
   <i type="logical" name="LPLANE"> T  </i>
   <i type="logical" name="LSCALAPACK"> F  </i>
   <i type="logical" name="LSCAAWARE"> F  </i>
   <i type="logical" name="LSCALU"> F  </i>
   <i type="logical" name="LASYNC"> F  </i>
   <i type="logical" name="LORBITALREAL"> F  </i>
  </separator>
  <separator name="miscellaneous" >
   <i type="int" name="IDIOT">     3</i>
   <i type="logical" name="LMUSIC"> F  </i>
   <v name="POMASS">     26.98100000</v>
   <v name="DARWINR">      0.00000000</v>
   <v name="DARWINV">      1.00000000</v>
   <i type="logical" name="LCORR"> T  </i>
  </separator>
  <i type="logical" name="GGA_COMPAT"> T  </i>
  <i type="logical" name="LBERRY"> F  </i>
  <i type="int" name="ICORELEVEL">     0</i>
  <i type="logical" name="LDAU"> F  </i>
  <i type="int" name="I_CONSTRAINED_M">     0</i>
  <separator name="electronic exchange-correlation" >
   <i type="string" name="GGA">--</i>
   <i type="int" name="VOSKOWN">     0</i>
   <i type="logical" name="LHFCALC"> F  </i>
   <i type="string" name="PRECFOCK"></i>
   <i type="logical" name="LSYMGRAD"> F  </i>
   <i type="logical" name="LHFONE"> F  </i>
   <i type="logical" name="LRHFCALC"> F  </i>
   <i type="logical" name="LTHOMAS"> F  </i>
   <i type="logical" name="LMODELHF"> F  </i>
   <i name="ENCUT4O">     -1.00000000</i>
   <i type="int" name="EXXOEP">     0</i>
   <i type="int" name="FOURORBIT">     0</i>
   <i name="AEXX">      0.00000000</i>
   <i name="HFALPHA">      0.00000000</i>
   <i name="MCALPHA">      0.00000000</i>
   <i name="ALDAX">      1.00000000</i>
   <i name="AGGAX">      1.00000000</i>
   <i name="ALDAC">      1.00000000</i>
   <i name="AGGAC">      1.00000000</i>
   <i type="int" name="NKREDX">     1</i>
   <i type="int" name="NKREDY">     1</i>
   <i type="int" name="NKREDZ">     1</i>
   <i type="logical" name="SHIFTRED"> F  </i>
   <i type="logical" name="ODDONLY"> F  </i>
   <i type="logical" name="EVENONLY"> F  </i>
   <i type="int" name="LMAXFOCK">     0</i>
   <i type="int" name="NMAXFOCKAE">     0</i>
   <i type="logical" name="LFOCKAEDFT"> F  </i>
   <i name="HFSCREEN">      0.00000000</i>
   <i name="HFSCREENC">      0.00000000</i>
   <i type="int" name="NBANDSGWLOW">     0</i>
  </separator>
  <separator name="vdW DFT" >
   <i type="logical" name="LUSE_VDW"> F  </i>
   <i name="Zab_VDW">     -0.84910000</i>
   <i name="PARAM1">      0.12340000</i>
   <i name="PARAM2">      1.00000000</i>
   <i name="PARAM3">      0.00000000</i>
  </separator>
  <separator name="model GW" >
   <i type="int" name="MODEL_GW">     0</i>
   <i name="MODEL_EPS0">      7.26413417</i>
   <i name="MODEL_ALPHA">      1.00000000</i>
  </separator>
  <separator name="linear response parameters" >
   <i type="logical" name="LEPSILON"> F  </i>
   <i type="logical" name="LRPA"> F  </i>
   <i type="logical" name="LNABLA"> F  </i>
   <i type="logical" name="LVEL"> F  </i>
   <i type="int" name="KINTER">     0</i>
   <i name="CSHIFT">      0.10000000</i>
   <i name="OMEGAMAX">     -1.00000000</i>
   <i name="DEG_THRESHOLD">      0.00200000</i>
  </separator>
  <separator name="orbital magnetization" >
   <i type="logical" name="NUCIND"> F  </i>
   <v name="MAGPOS">      0.00000000      0.00000000      0.00000000</v>
   <i type="logical" name="LNICSALL"> T  </i>
   <i type="logical" name="ORBITALMAG"> F  </i>
   <i type="logical" name="LMAGBLOCH"> F  </i>
   <i type="logical" name="LCHIMAG"> F  </i>
   <i type="logical" name="LGAUGE"> T  </i>
   <i type="int" name="MAGATOM">     0</i>
   <v name="MAGDIPOL">      0.00000000      0.00000000      0.00000000</v>
   <v name="AVECCONST">      0.00000000      0.00000000      0.00000000</v>
  </separator>
  <separator name="response functions" >
   <i type="logical" name="LADDER"> F  </i>
   <i type="logical" name="LFXC"> F  </i>
   <i type="logical" name="LHARTREE"> T  </i>
   <i type="int" name="IBSE">     0</i>
   <i type="logical" name="LTCTE"> F  </i>
   <i type="logical" name="LTETE"> F  </i>
   <i type="logical" name="LTRIPLET"> F  </i>
   <i type="logical" name="LFXCEPS"> F  </i>
   <i type="logical" name="LFXHEG"> F  </i>
   <i type="logical" name="L2ORDER"> F  </i>
   <i type="logical" name="LUSEW"> F  </i>
   <i name="ENCUTGW">     -2.00000000</i>
   <i name="ENCUTGWSOFT">     -2.00000000</i>
   <i name="ENCUTLF">     -1.00000000</i>
   <i type="int" name="LMAXMP2">    -1</i>
   <i name="SCISSOR">      0.00000000</i>
   <i type="int" name="NOMEGA">     0</i>
   <i type="int" name="NOMEGAR">     0</i>
   <i type="int" name="NBANDSGW">    -1</i>
   <i type="int" name="NBANDSO">    -1</i>
   <i type="int" name="NBANDSV">    -1</i>
   <i type="int" name="NELM">     1</i>
   <i type="int" name="DIM">     3</i>
   <i type="int" name="ANTIRES">     0</i>
   <i name="OMEGAMAX">    -30.00000000</i>
   <i name="OMEGAMIN">    -30.00000000</i>
   <i name="OMEGATL">   -200.00000000</i>
   <i type="int" name="OMEGAGRID">     0</i>
   <i name="CSHIFT">     -0.10000000</i>
   <i type="logical" name="SELFENERGY"> F  </i>
   <i type="logical" name="LSPECTRAL"> F  </i>
   <i type="logical" name="ODDONLYGW"> F  </i>
   <i type="logical" name="EVENONLYGW"> F  </i>
   <i type="int" name="NKREDLFX">     1</i>
   <i type="int" name="NKREDLFY">     1</i>
   <i type="int" name="NKREDLFZ">     1</i>
   <i type="int" name="MAXMEM">  1800</i>
   <i type="int" name="TELESCOPE">     0</i>
   <i type="int" name="TAUPAR">     1</i>
  </separator>
  <separator name="External order field" >
   <i name="OFIELD_KAPPA">      0.00000000</i>
   <v name="OFIELD_K">      0.00000000      0.00000000      0.00000000</v>
   <i name="OFIELD_Q6_NEAR">      0.00000000</i>
   <i name="OFIELD_Q6_FAR">      0.00000000</i>
   <i name="OFIELD_A">      0.00000000</i>
  </separator>
 </parameters>
 <atominfo>
  <atoms>      27 </atoms>
  <types>       1 </types>
  <array name="atoms" >
   <dimension dim="1">ion</dimension>
   <field type="string">element</field>
   <field type="int">atomtype</field>
   <set>
    <rc><c>Al</c><c>   1</c></rc>
    <rc><c>Al</c><c>   1</c></rc>
    <rc><c>Al</c><c>   1</c></rc>
    <rc><c>Al</c><c>   1</c></rc>
    <rc><c>Al</c><c>   1</c></rc>
    <rc><c>Al</c><c>   1</c></rc>
    <rc><c>Al</c><c>   1</c></rc>
    <rc><c>Al</c><c>   1</c></rc>
    <rc><c>Al</c><c>   1</c></rc>
    <rc><c>Al</c><c>   1</c></rc>
    <rc><c>Al</c><c>   1</c></rc>
    <rc><c>Al</c><c>   1</c></rc>
    <rc><c>Al</c><c>   1</c></rc>
    <rc><c>Al</c><c>   1</c></rc>
    <rc><c>Al</c><c>   1</c></rc>
    <rc><c>Al</c><c>   1</c></rc>
    <rc><c>Al</c><c>   1</c></rc>
    <rc><c>Al</c><c>   1</c></rc>
    <rc><c>Al</c><c>   1</c></rc>
    <rc><c>Al</c><c>   1</c></rc>
    <rc><c>Al</c><c>   1</c></rc>
    <rc><c>Al</c><c>   1</c></rc>
    <rc><c>Al</c><c>   1</c></rc>
    <rc><c>Al</c><c>   1</c></rc>
    <rc><c>Al</c><c>   1</c></rc>
    <rc><c>Al</c><c>   1</c></rc>
    <rc><c>Al</c><c>   1</c></rc>
   </set>
  </array>
  <array name="atomtypes" >
   <dimension dim="1">type</dimension>
   <field type="int">atomspertype</field>
   <field type="string">element</field>
   <field>mass</field>
   <field>valence</field>
   <field type="string">pseudopotential</field>
   <set>
    <rc><c>  27</c><c>Al</c><c>     26.98100000</c><c>      3.00000000</c><c>  PAW_PBE Al 04Jan2001                  </c></rc>
   </set>
  </array>
 </atominfo>
 <structure name="initialpos" >
  <crystal>
   <varray name="basis" >
    <v>       0.00000000       5.46750000       5.46750000 </v>
    <v>       5.46750000       0.00000000       5.46750000 </v>
    <v>       5.46750000       5.46750000       0.00000000 </v>
   </varray>
   <i name="volume">    326.88603759 </i>
   <varray name="rec_basis" >
    <v>      -0.09144947       0.09144947       0.09144947 </v>
    <v>       0.09144947      -0.09144947       0.09144947 </v>
    <v>       0.09144947       0.09144947      -0.09144947 </v>
   </varray>
  </crystal>
  <varray name="positions" >
   <v>       0.92432038       0.01145101       0.01725127 </v>
   <v>       0.03473667       0.03559095       0.25683753 </v>
   <v>       0.97161413       0.96486266       0.74482341 </v>
   <v>       0.92734180       0.36273853       0.04696142 </v>
   <v>       0.96684319       0.31458461       0.30653657 </v>
   <v>       0.06775157       0.30469728       0.68018229 </v>
   <v>       0.03091415       0.72508333       0.95378249 </v>
   <v>       0.94908234       0.62991788       0.36017798 </v>
   <v>       0.05601448       0.61583760       0.70032548 </v>
   <v>       0.27935256       0.97491312       0.06863609 </v>
   <v>       0.40219880       0.96126172       0.28940734 </v>
   <v>       0.28775210       0.07600236       0.64664592 </v>
   <v>       0.38975224       0.29703366       0.03271804 </v>
   <v>       0.40639015       0.29635855       0.33773800 </v>
   <v>       0.30744091       0.41249317       0.63808360 </v>
   <v>       0.30663672       0.73107918       0.94379181 </v>
   <v>       0.33425177       0.65574136       0.40233963 </v>
   <v>       0.38978075       0.60961422       0.69796540 </v>
   <v>       0.70292456       0.94552447       0.96486604 </v>
   <v>       0.63311991       0.95485162       0.34025573 </v>
   <v>       0.73719443       0.96773814       0.67595795 </v>
   <v>       0.74495788       0.29842481       0.98438558 </v>
   <v>       0.62121351       0.28784342       0.37200917 </v>
   <v>       0.59199835       0.37533754       0.66734908 </v>
   <v>       0.70346303       0.58884856       0.02799368 </v>
   <v>       0.67717392       0.59291498       0.38512189 </v>
   <v>       0.69582026       0.60227130       0.64723813 </v>
  </varray>
 </structure>
 <calculation>
  <scstep>
   <time name="dav">    7.42    7.43</time>
   <time name="total">    7.44    7.46</time>
   <energy>
    <i name="alphaZ">     -7.49059958 </i>
    <i name="ewald">  -2032.54576744 </i>
    <i name="hartreedc">    -50.38487432 </i>
    <i name="XCdc">   -692.52903949 </i>
    <i name="pawpsdc">   1787.40424240 </i>
    <i name="pawaedc">   -924.63176043 </i>
    <i name="eentropy">     -0.00349895 </i>
    <i name="bandstr">    629.47800893 </i>
    <i name="atom">   1445.51584806 </i>
    <i name="e_fr_energy">    154.81255918 </i>
    <i name="e_wo_entrp">    154.81605813 </i>
    <i name="e_0_energy">    154.81372550 </i>
   </energy>
  </scstep>
  <scstep>
   <time name="dav">    9.11    9.12</time>
   <time name="total">    9.12    9.13</time>
   <energy>
    <i name="e_fr_energy">    -27.77540168 </i>
    <i name="e_wo_entrp">    -27.77411602 </i>
    <i name="e_0_energy">    -27.77497312 </i>
   </energy>
  </scstep>
  <scstep>
   <time name="dav">    9.41    9.41</time>
   <time name="total">    9.41    9.43</time>
   <energy>
    <i name="e_fr_energy">    -35.41829488 </i>
    <i name="e_wo_entrp">    -35.41956885 </i>
    <i name="e_0_energy">    -35.41871954 </i>
   </energy>
  </scstep>
  <scstep>
   <time name="dav">    8.76    8.77</time>
   <time name="total">    8.77    8.79</time>
   <energy>
    <i name="e_fr_energy">    -35.50639085 </i>
    <i name="e_wo_entrp">    -35.50761129 </i>
    <i name="e_0_energy">    -35.50679766 </i>
   </energy>
  </scstep>
  <scstep>
   <time name="dav">    9.41    9.41</time>
   <time name="total">    9.73    9.75</time>
   <energy>
    <i name="e_fr_energy">    -35.50778248 </i>
    <i name="e_wo_entrp">    -35.50900238 </i>
    <i name="e_0_energy">    -35.50818911 </i>
   </energy>
  </scstep>
  <scstep>
   <time name="diag">    1.11    1.11</time>
   <time name="diis">    3.82    3.82</time>
   <time name="orth">    0.17    0.17</time>
   <time name="total">    5.44    5.46</time>
   <energy>
    <i name="e_fr_energy">    -24.47871837 </i>
    <i name="e_wo_entrp">    -24.47739168 </i>
    <i name="e_0_energy">    -24.47827614 </i>
   </energy>
  </scstep>
  <scstep>
   <time name="diag">    1.12    1.12</time>
   <time name="diis">    4.44    4.44</time>
   <time name="orth">    0.17    0.17</time>
   <time name="total">    6.07    6.08</time>
   <energy>
    <i name="e_fr_energy">    -23.41469921 </i>
    <i name="e_wo_entrp">    -23.41419588 </i>
    <i name="e_0_energy">    -23.41453143 </i>
   </energy>
  </scstep>
  <scstep>
   <time name="diag">    1.11    1.11</time>
   <time name="diis">    4.59    4.59</time>
   <time name="orth">    0.17    0.17</time>
   <time name="total">    6.22    6.24</time>
   <energy>
    <i name="e_fr_energy">    -23.20065235 </i>
    <i name="e_wo_entrp">    -23.20081585 </i>
    <i name="e_0_energy">    -23.20070685 </i>
   </energy>
  </scstep>
  <scstep>
   <time name="diag">    1.11    1.11</time>
   <time name="diis">    4.51    4.51</time>
   <time name="orth">    0.17    0.17</time>
   <time name="total">    6.13    6.15</time>
   <energy>
    <i name="e_fr_energy">    -23.17137277 </i>
    <i name="e_wo_entrp">    -23.17149484 </i>
    <i name="e_0_energy">    -23.17141346 </i>
   </energy>
  </scstep>
  <scstep>
   <time name="diag">    1.11    1.11</time>
   <time name="diis">    4.44    4.45</time>
   <time name="orth">    0.17    0.17</time>
   <time name="total">    6.06    6.09</time>
   <energy>
    <i name="e_fr_energy">    -23.16675077 </i>
    <i name="e_wo_entrp">    -23.16681535 </i>
    <i name="e_0_energy">    -23.16677229 </i>
   </energy>
  </scstep>
  <scstep>
   <time name="diag">    1.11    1.11</time>
   <time name="diis">    4.54    4.54</time>
   <time name="orth">    0.17    0.17</time>
   <time name="total">    6.15    6.17</time>
   <energy>
    <i name="e_fr_energy">    -23.16595271 </i>
    <i name="e_wo_entrp">    -23.16602939 </i>
    <i name="e_0_energy">    -23.16597827 </i>
   </energy>
  </scstep>
  <scstep>
   <time name="diag">    1.11    1.11</time>
   <time name="diis">    3.26    3.26</time>
   <time name="orth">    0.17    0.17</time>
   <time name="total">    4.55    4.57</time>
   <energy>
    <i name="alphaZ">     -7.49059958 </i>
    <i name="ewald">  -2032.54576744 </i>
    <i name="hartreedc">    -84.57621324 </i>
    <i name="XCdc">   -685.24096349 </i>
    <i name="pawpsdc">  10738.62825343 </i>
    <i name="pawaedc">  -9881.80753361 </i>
    <i name="eentropy">      0.00007729 </i>
    <i name="bandstr">    484.35099696 </i>
    <i name="atom">   1445.51584806 </i>
    <i name="e_fr_energy">    -23.16590162 </i>
    <i name="e_wo_entrp">    -23.16597891 </i>
    <i name="e_0_energy">    -23.16592739 </i>
   </energy>
  </scstep>
  <structure>
   <crystal>
    <varray name="basis" >
     <v>       0.00000000       5.46750000       5.46750000 </v>
     <v>       5.46750000       0.00000000       5.46750000 </v>
     <v>       5.46750000       5.46750000       0.00000000 </v>
    </varray>
    <i name="volume">    326.88603759 </i>
    <varray name="rec_basis" >
     <v>      -0.09144947       0.09144947       0.09144947 </v>
     <v>       0.09144947      -0.09144947       0.09144947 </v>
     <v>       0.09144947       0.09144947      -0.09144947 </v>
    </varray>
   </crystal>
   <varray name="positions" >
    <v>       0.92432038       0.01145101       0.01725127 </v>
    <v>       0.03473667       0.03559095       0.25683753 </v>
    <v>       0.97161413       0.96486266       0.74482341 </v>
    <v>       0.92734180       0.36273853       0.04696142 </v>
    <v>       0.96684319       0.31458461       0.30653657 </v>
    <v>       0.06775157       0.30469728       0.68018229 </v>
    <v>       0.03091415       0.72508333       0.95378249 </v>
    <v>       0.94908234       0.62991788       0.36017798 </v>
    <v>       0.05601448       0.61583760       0.70032548 </v>
    <v>       0.27935256       0.97491312       0.06863609 </v>
    <v>       0.40219880       0.96126172       0.28940734 </v>
    <v>       0.28775210       0.07600236       0.64664592 </v>
    <v>       0.38975224       0.29703366       0.03271804 </v>
    <v>       0.40639015       0.29635855       0.33773800 </v>
    <v>       0.30744091       0.41249317       0.63808360 </v>
    <v>       0.30663672       0.73107918       0.94379181 </v>
    <v>       0.33425177       0.65574136       0.40233963 </v>
    <v>       0.38978075       0.60961422       0.69796540 </v>
    <v>       0.70292456       0.94552447       0.96486604 </v>
    <v>       0.63311991       0.95485162       0.34025573 </v>
    <v>       0.73719443       0.96773814       0.67595795 </v>
    <v>       0.74495788       0.29842481       0.98438558 </v>
    <v>       0.62121351       0.28784342       0.37200917 </v>
    <v>       0.59199835       0.37533754       0.66734908 </v>
    <v>       0.70346303       0.58884856       0.02799368 </v>
    <v>       0.67717392       0.59291498       0.38512189 </v>
    <v>       0.69582026       0.60227130       0.64723813 </v>
   </varray>
  </structure>
  <varray name="forces" >
   <v>      -1.74750665       9.67660273       0.98815961 </v>
   <v>      10.77462448       0.49306026     -15.38376820 </v>
   <v>      -5.97885866     -10.49595923      18.56046084 </v>
   <v>     -12.41688733       9.67343690       6.22671570 </v>
   <v>       5.55952022       7.94758960       2.47544578 </v>
   <v>      10.91352350     -11.24290247      -2.05353823 </v>
   <v>      -4.61261242      12.47194150     -13.43665123 </v>
   <v>      -3.55562158       3.04560629       7.76196077 </v>
   <v>      11.47643637      -9.71354387      -3.00140179 </v>
   <v>     -15.24674546       0.90102350      11.77955108 </v>
   <v>       2.63915060      -3.59006410      -4.85746240 </v>
   <v>     -12.79050082      11.34852627      -2.97329215 </v>
   <v>       0.98587645      -2.13200116      -0.59940366 </v>
   <v>       0.22932591     -15.08540482      -6.47656293 </v>
   <v>     -10.87730431      13.27390661      -9.09021410 </v>
   <v>       1.72265215       5.85947532       2.47762930 </v>
   <v>      -3.14623212      -9.30628317       7.58924916 </v>
   <v>      14.81888842     -10.73405483       0.86889373 </v>
   <v>       9.63838763      -0.74329173      -8.83419526 </v>
   <v>       1.41113779       6.61327046       4.39060911 </v>
   <v>      -5.46599657      -8.17033804      -2.58316106 </v>
   <v>       4.28191037     -10.44631320      -3.51613552 </v>
   <v>       0.19360997      11.86120415       9.05364357 </v>
   <v>     -15.59393587      14.94845468      -6.90151950 </v>
   <v>      12.48487287     -13.77905637       1.14059686 </v>
   <v>      -3.58959182      -8.69294955       4.02970309 </v>
   <v>       7.89187688       6.01806427       2.36468744 </v>
  </varray>
  <varray name="stress" >
   <v>    1105.69091511    -171.34348222     -31.22628981 </v>
   <v>    -171.34348225    1084.42072381      86.41417709 </v>
   <v>     -31.22628988      86.41417738     923.63775640 </v>
  </varray>
  <energy>
   <i name="e_fr_energy">    -23.16590162 </i>
   <i name="e_wo_entrp">    -23.16592739 </i>
   <i name="e_0_energy">      0.00007729 </i>
  </energy>
  <time name="totalsc">   94.37   94.64</time>
  <eigenvalues>
   <array>
    <dimension dim="1">band</dimension>
    <dimension dim="2">kpoint</dimension>
    <dimension dim="3">spin</dimension>
    <field>eigene</field>
    <field>occ</field>
    <set>
     <set comment="spin 1">
      <set comment="kpoint 1">
       <r>   -2.3266    1.0000 </r>
       <r>   -0.3087    1.0000 </r>
       <r>    0.2049    1.0000 </r>
       <r>    0.7018    1.0000 </r>
       <r>    1.1602    1.0000 </r>
       <r>    1.5185    1.0000 </r>
       <r>    1.6954    1.0000 </r>
       <r>    1.9733    1.0000 </r>
       <r>    2.1384    1.0000 </r>
       <r>    2.6098    1.0000 </r>
       <r>    2.8017    1.0000 </r>
       <r>    2.9920    1.0000 </r>
       <r>    3.5653    1.0000 </r>
       <r>    3.6667    1.0000 </r>
       <r>    4.2099    1.0000 </r>
       <r>    5.4386    1.0000 </r>
       <r>    6.1216    1.0000 </r>
       <r>    6.3765    1.0000 </r>
       <r>    6.5551    1.0000 </r>
       <r>    6.9091    1.0000 </r>
       <r>    7.0961    1.0000 </r>
       <r>    7.3607    1.0000 </r>
       <r>    7.5785    1.0000 </r>
       <r>    7.8258    1.0000 </r>
       <r>    8.0042    1.0000 </r>
       <r>    8.2574    1.0000 </r>
       <r>    8.3803    1.0000 </r>
       <r>    8.6138    1.0000 </r>
       <r>    8.9526    1.0000 </r>
       <r>    9.0871    1.0000 </r>
       <r>    9.3019    1.0000 </r>
       <r>    9.5187    1.0000 </r>
       <r>    9.6971    1.0000 </r>
       <r>    9.9654    1.0000 </r>
       <r>   10.0882    1.0000 </r>
       <r>   10.3210    1.0000 </r>
       <r>   10.5056    1.0000 </r>
       <r>   10.7170    1.0000 </r>
       <r>   10.8739    1.0014 </r>
       <r>   11.0314    1.0196 </r>
       <r>   11.1150    1.0353 </r>
       <r>   11.2207    0.9702 </r>
       <r>   11.4334    0.2349 </r>
       <r>   11.5109    0.0333 </r>
       <r>   11.7390   -0.0122 </r>
       <r>   11.9012   -0.0005 </r>
       <r>   12.1280   -0.0000 </r>
       <r>   12.1394   -0.0000 </r>
       <r>   12.4076   -0.0000 </r>
       <r>   12.4357   -0.0000 </r>
       <r>   12.6280   -0.0000 </r>
       <r>   12.7408   -0.0000 </r>
       <r>   13.0301   -0.0000 </r>
       <r>   13.2034   -0.0000 </r>
       <r>   13.3821   -0.0000 </r>
       <r>   13.5701   -0.0000 </r>
       <r>   13.7358   -0.0000 </r>
       <r>   13.9902   -0.0000 </r>
       <r>   14.2822   -0.0000 </r>
       <r>   14.7263   -0.0000 </r>
       <r>   14.9572   -0.0000 </r>
       <r>   15.5084   -0.0000 </r>
       <r>   16.3264   -0.0000 </r>
       <r>   16.6930   -0.0000 </r>
      </set>
      <set comment="kpoint 2">
       <r>   -2.3256    1.0000 </r>
       <r>   -0.3632    1.0000 </r>
       <r>    0.3394    1.0000 </r>
       <r>    0.7247    1.0000 </r>
       <r>    1.0712    1.0000 </r>
       <r>    1.4035    1.0000 </r>
       <r>    1.6946    1.0000 </r>
       <r>    1.9752    1.0000 </r>
       <r>    2.1606    1.0000 </r>
       <r>    2.5884    1.0000 </r>
       <r>    2.9152    1.0000 </r>
       <r>    3.1874    1.0000 </r>
       <r>    3.3753    1.0000 </r>
       <r>    3.6358    1.0000 </r>
       <r>    4.2291    1.0000 </r>
       <r>    5.3965    1.0000 </r>
       <r>    6.1293    1.0000 </r>
       <r>    6.5005    1.0000 </r>
       <r>    6.6746    1.0000 </r>
       <r>    6.8356    1.0000 </r>
       <r>    7.0335    1.0000 </r>
       <r>    7.2845    1.0000 </r>
       <r>    7.5445    1.0000 </r>
       <r>    7.7369    1.0000 </r>
       <r>    7.9667    1.0000 </r>
       <r>    8.2763    1.0000 </r>
       <r>    8.5731    1.0000 </r>
       <r>    8.6104    1.0000 </r>
       <r>    8.7694    1.0000 </r>
       <r>    9.0434    1.0000 </r>
       <r>    9.3175    1.0000 </r>
       <r>    9.5106    1.0000 </r>
       <r>    9.6421    1.0000 </r>
       <r>    9.9488    1.0000 </r>
       <r>   10.2336    1.0000 </r>
       <r>   10.4110    1.0000 </r>
       <r>   10.5093    1.0000 </r>
       <r>   10.7007    1.0000 </r>
       <r>   10.8964    1.0022 </r>
       <r>   11.0607    1.0263 </r>
       <r>   11.3026    0.7570 </r>
       <r>   11.3531    0.5581 </r>
       <r>   11.4556    0.1623 </r>
       <r>   11.5635   -0.0233 </r>
       <r>   11.8109   -0.0037 </r>
       <r>   11.8658   -0.0012 </r>
       <r>   12.0035   -0.0000 </r>
       <r>   12.1049   -0.0000 </r>
       <r>   12.2759   -0.0000 </r>
       <r>   12.3322   -0.0000 </r>
       <r>   12.6043   -0.0000 </r>
       <r>   12.7722   -0.0000 </r>
       <r>   12.9276   -0.0000 </r>
       <r>   13.0671   -0.0000 </r>
       <r>   13.2890   -0.0000 </r>
       <r>   13.6119   -0.0000 </r>
       <r>   13.7546   -0.0000 </r>
       <r>   13.9906   -0.0000 </r>
       <r>   14.4677   -0.0000 </r>
       <r>   14.7059   -0.0000 </r>
       <r>   15.0250   -0.0000 </r>
       <r>   15.4996   -0.0000 </r>
       <r>   16.2466   -0.0000 </r>
       <r>   16.4182   -0.0000 </r>
      </set>
      <set comment="kpoint 3">
       <r>   -2.3257    1.0000 </r>
       <r>   -0.3723    1.0000 </r>
       <r>    0.3231    1.0000 </r>
       <r>    0.7489    1.0000 </r>
       <r>    1.1473    1.0000 </r>
       <r>    1.3576    1.0000 </r>
       <r>    1.7515    1.0000 </r>
       <r>    1.9773    1.0000 </r>
       <r>    2.1354    1.0000 </r>
       <r>    2.4622    1.0000 </r>
       <r>    2.7870    1.0000 </r>
       <r>    3.1894    1.0000 </r>
       <r>    3.5946    1.0000 </r>
       <r>    3.6984    1.0000 </r>
       <r>    4.1233    1.0000 </r>
       <r>    5.5125    1.0000 </r>
       <r>    6.0547    1.0000 </r>
       <r>    6.3427    1.0000 </r>
       <r>    6.6117    1.0000 </r>
       <r>    6.9150    1.0000 </r>
       <r>    7.1776    1.0000 </r>
       <r>    7.3714    1.0000 </r>
       <r>    7.4492    1.0000 </r>
       <r>    7.6614    1.0000 </r>
       <r>    8.0408    1.0000 </r>
       <r>    8.3189    1.0000 </r>
       <r>    8.4035    1.0000 </r>
       <r>    8.7165    1.0000 </r>
       <r>    8.9071    1.0000 </r>
       <r>    9.1658    1.0000 </r>
       <r>    9.3001    1.0000 </r>
       <r>    9.4333    1.0000 </r>
       <r>    9.7264    1.0000 </r>
       <r>    9.8997    1.0000 </r>
       <r>   10.0508    1.0000 </r>
       <r>   10.3146    1.0000 </r>
       <r>   10.5869    1.0000 </r>
       <r>   10.7687    1.0001 </r>
       <r>   10.8142    1.0003 </r>
       <r>   10.9090    1.0028 </r>
       <r>   11.1059    1.0346 </r>
       <r>   11.2932    0.7895 </r>
       <r>   11.4701    0.1211 </r>
       <r>   11.6303   -0.0343 </r>
       <r>   11.7007   -0.0199 </r>
       <r>   11.8385   -0.0021 </r>
       <r>   12.0386   -0.0000 </r>
       <r>   12.1728   -0.0000 </r>
       <r>   12.3181   -0.0000 </r>
       <r>   12.5528   -0.0000 </r>
       <r>   12.7065   -0.0000 </r>
       <r>   12.8344   -0.0000 </r>
       <r>   13.0304   -0.0000 </r>
       <r>   13.1234   -0.0000 </r>
       <r>   13.3259   -0.0000 </r>
       <r>   13.4955   -0.0000 </r>
       <r>   13.7748   -0.0000 </r>
       <r>   14.0311   -0.0000 </r>
       <r>   14.3387   -0.0000 </r>
       <r>   14.7727   -0.0000 </r>
       <r>   15.0839   -0.0000 </r>
       <r>   15.3384   -0.0000 </r>
       <r>   16.2210   -0.0000 </r>
       <r>   16.5968   -0.0000 </r>
      </set>
      <set comment="kpoint 4">
       <r>   -2.3269    1.0000 </r>
       <r>   -0.3354    1.0000 </r>
       <r>    0.2532    1.0000 </r>
       <r>    0.7519    1.0000 </r>
       <r>    1.1694    1.0000 </r>
       <r>    1.3869    1.0000 </r>
       <r>    1.7168    1.0000 </r>
       <r>    1.9500    1.0000 </r>
       <r>    2.1890    1.0000 </r>
       <r>    2.4245    1.0000 </r>
       <r>    2.8511    1.0000 </r>
       <r>    3.2574    1.0000 </r>
       <r>    3.4122    1.0000 </r>
       <r>    3.7556    1.0000 </r>
       <r>    4.1484    1.0000 </r>
       <r>    5.5109    1.0000 </r>
       <r>    6.0457    1.0000 </r>
       <r>    6.3368    1.0000 </r>
       <r>    6.5864    1.0000 </r>
       <r>    6.9489    1.0000 </r>
       <r>    7.1738    1.0000 </r>
       <r>    7.3487    1.0000 </r>
       <r>    7.5066    1.0000 </r>
       <r>    7.7637    1.0000 </r>
       <r>    7.9362    1.0000 </r>
       <r>    8.2477    1.0000 </r>
       <r>    8.5108    1.0000 </r>
       <r>    8.6562    1.0000 </r>
       <r>    8.9223    1.0000 </r>
       <r>    9.0242    1.0000 </r>
       <r>    9.2115    1.0000 </r>
       <r>    9.5821    1.0000 </r>
       <r>    9.7076    1.0000 </r>
       <r>    9.8912    1.0000 </r>
       <r>   10.1767    1.0000 </r>
       <r>   10.3518    1.0000 </r>
       <r>   10.5781    1.0000 </r>
       <r>   10.6259    1.0000 </r>
       <r>   10.9116    1.0030 </r>
       <r>   11.0047    1.0140 </r>
       <r>   11.1462    1.0328 </r>
       <r>   11.2023    0.9957 </r>
       <r>   11.4477    0.1869 </r>
       <r>   11.6034   -0.0352 </r>
       <r>   11.6506   -0.0311 </r>
       <r>   11.9189   -0.0003 </r>
       <r>   12.0779   -0.0000 </r>
       <r>   12.1308   -0.0000 </r>
       <r>   12.3461   -0.0000 </r>
       <r>   12.4888   -0.0000 </r>
       <r>   12.6431   -0.0000 </r>
       <r>   12.8571   -0.0000 </r>
       <r>   13.0387   -0.0000 </r>
       <r>   13.1571   -0.0000 </r>
       <r>   13.3145   -0.0000 </r>
       <r>   13.5226   -0.0000 </r>
       <r>   13.6842   -0.0000 </r>
       <r>   14.0611   -0.0000 </r>
       <r>   14.3885   -0.0000 </r>
       <r>   14.8329   -0.0000 </r>
       <r>   14.8969   -0.0000 </r>
       <r>   15.4633   -0.0000 </r>
       <r>   16.3479   -0.0000 </r>
       <r>   16.6856   -0.0000 </r>
      </set>
      <set comment="kpoint 5">
       <r>   -2.0761    1.0000 </r>
       <r>   -0.8108    1.0000 </r>
       <r>   -0.0156    1.0000 </r>
       <r>    0.4941    1.0000 </r>
       <r>    0.9238    1.0000 </r>
       <r>    1.5060    1.0000 </r>
       <r>    1.6928    1.0000 </r>
       <r>    2.0605    1.0000 </r>
       <r>    2.3347    1.0000 </r>
       <r>    2.9440    1.0000 </r>
       <r>    3.3381    1.0000 </r>
       <r>    3.7144    1.0000 </r>
       <r>    4.2083    1.0000 </r>
       <r>    4.2951    1.0000 </r>
       <r>    4.4799    1.0000 </r>
       <r>    5.0467    1.0000 </r>
       <r>    5.4608    1.0000 </r>
       <r>    5.8423    1.0000 </r>
       <r>    5.9790    1.0000 </r>
       <r>    6.4114    1.0000 </r>
       <r>    6.8881    1.0000 </r>
       <r>    7.2163    1.0000 </r>
       <r>    7.2795    1.0000 </r>
       <r>    7.6512    1.0000 </r>
       <r>    7.8389    1.0000 </r>
       <r>    7.9405    1.0000 </r>
       <r>    8.1394    1.0000 </r>
       <r>    8.3227    1.0000 </r>
       <r>    8.7003    1.0000 </r>
       <r>    9.0325    1.0000 </r>
       <r>    9.1671    1.0000 </r>
       <r>    9.3747    1.0000 </r>
       <r>    9.5249    1.0000 </r>
       <r>    9.7266    1.0000 </r>
       <r>    9.8295    1.0000 </r>
       <r>   10.1807    1.0000 </r>
       <r>   10.2773    1.0000 </r>
       <r>   10.4833    1.0000 </r>
       <r>   10.6973    1.0000 </r>
       <r>   10.9281    1.0041 </r>
       <r>   11.4743    0.1101 </r>
       <r>   11.6272   -0.0346 </r>
       <r>   11.7771   -0.0067 </r>
       <r>   12.1598   -0.0000 </r>
       <r>   12.2033   -0.0000 </r>
       <r>   12.4051   -0.0000 </r>
       <r>   12.5145   -0.0000 </r>
       <r>   12.7505   -0.0000 </r>
       <r>   12.8466   -0.0000 </r>
       <r>   13.0124   -0.0000 </r>
       <r>   13.1809   -0.0000 </r>
       <r>   13.3340   -0.0000 </r>
       <r>   13.5467   -0.0000 </r>
       <r>   13.6373   -0.0000 </r>
       <r>   13.7681   -0.0000 </r>
       <r>   14.2006   -0.0000 </r>
       <r>   14.5317   -0.0000 </r>
       <r>   14.7276   -0.0000 </r>
       <r>   14.9611   -0.0000 </r>
       <r>   15.1664   -0.0000 </r>
       <r>   15.3452   -0.0000 </r>
       <r>   15.5170   -0.0000 </r>
       <r>   15.7799   -0.0000 </r>
       <r>   16.2119   -0.0000 </r>
      </set>
      <set comment="kpoint 6">
       <r>   -2.0679    1.0000 </r>
       <r>   -0.8880    1.0000 </r>
       <r>    0.0796    1.0000 </r>
       <r>    0.6182    1.0000 </r>
       <r>    0.9098    1.0000 </r>
       <r>    1.3682    1.0000 </r>
       <r>    1.5543    1.0000 </r>
       <r>    2.2037    1.0000 </r>
       <r>    2.3828    1.0000 </r>
       <r>    2.8279    1.0000 </r>
       <r>    3.2917    1.0000 </r>
       <r>    3.6629    1.0000 </r>
       <r>    4.1052    1.0000 </r>
       <r>    4.4892    1.0000 </r>
       <r>    4.8768    1.0000 </r>
       <r>    5.0132    1.0000 </r>
       <r>    5.2806    1.0000 </r>
       <r>    5.6275    1.0000 </r>
       <r>    6.0709    1.0000 </r>
       <r>    6.5415    1.0000 </r>
       <r>    6.7186    1.0000 </r>
       <r>    7.0250    1.0000 </r>
       <r>    7.4305    1.0000 </r>
       <r>    7.6370    1.0000 </r>
       <r>    7.8259    1.0000 </r>
       <r>    8.0219    1.0000 </r>
       <r>    8.3737    1.0000 </r>
       <r>    8.4799    1.0000 </r>
       <r>    8.5803    1.0000 </r>
       <r>    8.7135    1.0000 </r>
       <r>    9.0767    1.0000 </r>
       <r>    9.2931    1.0000 </r>
       <r>    9.5665    1.0000 </r>
       <r>    9.7956    1.0000 </r>
       <r>   10.0610    1.0000 </r>
       <r>   10.2135    1.0000 </r>
       <r>   10.3761    1.0000 </r>
       <r>   10.4749    1.0000 </r>
       <r>   10.6662    1.0000 </r>
       <r>   10.9022    1.0025 </r>
       <r>   11.4051    0.3414 </r>
       <r>   11.6107   -0.0355 </r>
       <r>   11.8940   -0.0006 </r>
       <r>   11.9951   -0.0000 </r>
       <r>   12.0892   -0.0000 </r>
       <r>   12.2037   -0.0000 </r>
       <r>   12.3931   -0.0000 </r>
       <r>   12.6421   -0.0000 </r>
       <r>   12.7915   -0.0000 </r>
       <r>   12.9819   -0.0000 </r>
       <r>   13.2362   -0.0000 </r>
       <r>   13.3881   -0.0000 </r>
       <r>   13.6691   -0.0000 </r>
       <r>   13.9762   -0.0000 </r>
       <r>   14.0242   -0.0000 </r>
       <r>   14.2335   -0.0000 </r>
       <r>   14.5829   -0.0000 </r>
       <r>   14.6439   -0.0000 </r>
       <r>   15.0409   -0.0000 </r>
       <r>   15.2475   -0.0000 </r>
       <r>   15.4811   -0.0000 </r>
       <r>   15.5627   -0.0000 </r>
       <r>   15.8311   -0.0000 </r>
       <r>   16.0228   -0.0000 </r>
      </set>
      <set comment="kpoint 7">
       <r>   -2.0733    1.0000 </r>
       <r>   -0.8640    1.0000 </r>
       <r>    0.0120    1.0000 </r>
       <r>    0.5204    1.0000 </r>
       <r>    1.2311    1.0000 </r>
       <r>    1.3648    1.0000 </r>
       <r>    1.6734    1.0000 </r>
       <r>    2.0251    1.0000 </r>
       <r>    2.3663    1.0000 </r>
       <r>    2.3988    1.0000 </r>
       <r>    3.5342    1.0000 </r>
       <r>    3.7714    1.0000 </r>
       <r>    4.0642    1.0000 </r>
       <r>    4.5712    1.0000 </r>
       <r>    4.7535    1.0000 </r>
       <r>    5.0553    1.0000 </r>
       <r>    5.2660    1.0000 </r>
       <r>    5.6579    1.0000 </r>
       <r>    6.1989    1.0000 </r>
       <r>    6.4357    1.0000 </r>
       <r>    6.9056    1.0000 </r>
       <r>    7.0291    1.0000 </r>
       <r>    7.2820    1.0000 </r>
       <r>    7.6227    1.0000 </r>
       <r>    7.8288    1.0000 </r>
       <r>    7.9708    1.0000 </r>
       <r>    8.1638    1.0000 </r>
       <r>    8.5354    1.0000 </r>
       <r>    8.8575    1.0000 </r>
       <r>    9.0220    1.0000 </r>
       <r>    9.1685    1.0000 </r>
       <r>    9.2966    1.0000 </r>
       <r>    9.5149    1.0000 </r>
       <r>    9.6464    1.0000 </r>
       <r>    9.8835    1.0000 </r>
       <r>   10.0246    1.0000 </r>
       <r>   10.1841    1.0000 </r>
       <r>   10.4498    1.0000 </r>
       <r>   10.5503    1.0000 </r>
       <r>   10.7788    1.0001 </r>
       <r>   11.2706    0.8597 </r>
       <r>   11.7045   -0.0191 </r>
       <r>   11.7915   -0.0053 </r>
       <r>   12.0071   -0.0000 </r>
       <r>   12.1890   -0.0000 </r>
       <r>   12.4439   -0.0000 </r>
       <r>   12.6252   -0.0000 </r>
       <r>   12.7168   -0.0000 </r>
       <r>   12.9745   -0.0000 </r>
       <r>   13.0768   -0.0000 </r>
       <r>   13.2488   -0.0000 </r>
       <r>   13.4361   -0.0000 </r>
       <r>   13.5096   -0.0000 </r>
       <r>   13.7213   -0.0000 </r>
       <r>   14.1608   -0.0000 </r>
       <r>   14.3207   -0.0000 </r>
       <r>   14.5765   -0.0000 </r>
       <r>   14.8333   -0.0000 </r>
       <r>   14.9771   -0.0000 </r>
       <r>   15.2645   -0.0000 </r>
       <r>   15.4271   -0.0000 </r>
       <r>   15.4590   -0.0000 </r>
       <r>   15.8142   -0.0000 </r>
       <r>   15.9029   -0.0000 </r>
      </set>
      <set comment="kpoint 8">
       <r>   -2.0524    1.0000 </r>
       <r>   -0.9816    1.0000 </r>
       <r>    0.3031    1.0000 </r>
       <r>    0.5218    1.0000 </r>
       <r>    1.1053    1.0000 </r>
       <r>    1.1864    1.0000 </r>
       <r>    1.4722    1.0000 </r>
       <r>    1.9927    1.0000 </r>
       <r>    2.5561    1.0000 </r>
       <r>    2.8226    1.0000 </r>
       <r>    3.3215    1.0000 </r>
       <r>    3.7912    1.0000 </r>
       <r>    4.1202    1.0000 </r>
       <r>    4.4534    1.0000 </r>
       <r>    4.7774    1.0000 </r>
       <r>    4.9448    1.0000 </r>
       <r>    5.3543    1.0000 </r>
       <r>    5.6974    1.0000 </r>
       <r>    6.2193    1.0000 </r>
       <r>    6.4810    1.0000 </r>
       <r>    6.7011    1.0000 </r>
       <r>    6.9009    1.0000 </r>
       <r>    7.3305    1.0000 </r>
       <r>    7.4706    1.0000 </r>
       <r>    7.8311    1.0000 </r>
       <r>    8.0395    1.0000 </r>
       <r>    8.2479    1.0000 </r>
       <r>    8.5033    1.0000 </r>
       <r>    8.8604    1.0000 </r>
       <r>    8.9658    1.0000 </r>
       <r>    9.1350    1.0000 </r>
       <r>    9.2676    1.0000 </r>
       <r>    9.4426    1.0000 </r>
       <r>    9.7073    1.0000 </r>
       <r>    9.9518    1.0000 </r>
       <r>   10.0951    1.0000 </r>
       <r>   10.5657    1.0000 </r>
       <r>   10.7254    1.0000 </r>
       <r>   10.8143    1.0003 </r>
       <r>   10.8926    1.0020 </r>
       <r>   11.2247    0.9636 </r>
       <r>   11.4300    0.2469 </r>
       <r>   11.7125   -0.0173 </r>
       <r>   11.8853   -0.0008 </r>
       <r>   12.1576   -0.0000 </r>
       <r>   12.3455   -0.0000 </r>
       <r>   12.5214   -0.0000 </r>
       <r>   12.8062   -0.0000 </r>
       <r>   12.8760   -0.0000 </r>
       <r>   13.0607   -0.0000 </r>
       <r>   13.1935   -0.0000 </r>
       <r>   13.4048   -0.0000 </r>
       <r>   13.5477   -0.0000 </r>
       <r>   13.7763   -0.0000 </r>
       <r>   14.0281   -0.0000 </r>
       <r>   14.2383   -0.0000 </r>
       <r>   14.3548   -0.0000 </r>
       <r>   14.5284   -0.0000 </r>
       <r>   14.9799   -0.0000 </r>
       <r>   15.2620   -0.0000 </r>
       <r>   15.3659   -0.0000 </r>
       <r>   15.6542   -0.0000 </r>
       <r>   15.8177   -0.0000 </r>
       <r>   16.2022   -0.0000 </r>
      </set>
      <set comment="kpoint 9">
       <r>   -2.0814    1.0000 </r>
       <r>   -0.7402    1.0000 </r>
       <r>   -0.1616    1.0000 </r>
       <r>    0.5499    1.0000 </r>
       <r>    0.8587    1.0000 </r>
       <r>    1.6163    1.0000 </r>
       <r>    1.8487    1.0000 </r>
       <r>    2.0960    1.0000 </r>
       <r>    2.2836    1.0000 </r>
       <r>    2.7725    1.0000 </r>
       <r>    3.3598    1.0000 </r>
       <r>    3.5013    1.0000 </r>
       <r>    4.2461    1.0000 </r>
       <r>    4.3379    1.0000 </r>
       <r>    4.6576    1.0000 </r>
       <r>    5.0262    1.0000 </r>
       <r>    5.4154    1.0000 </r>
       <r>    5.7727    1.0000 </r>
       <r>    5.8707    1.0000 </r>
       <r>    6.5103    1.0000 </r>
       <r>    6.9089    1.0000 </r>
       <r>    7.2583    1.0000 </r>
       <r>    7.4001    1.0000 </r>
       <r>    7.6896    1.0000 </r>
       <r>    7.7894    1.0000 </r>
       <r>    7.9886    1.0000 </r>
       <r>    8.2780    1.0000 </r>
       <r>    8.4408    1.0000 </r>
       <r>    8.6963    1.0000 </r>
       <r>    8.9409    1.0000 </r>
       <r>    9.1657    1.0000 </r>
       <r>    9.2564    1.0000 </r>
       <r>    9.3859    1.0000 </r>
       <r>    9.6779    1.0000 </r>
       <r>    9.9080    1.0000 </r>
       <r>   10.0293    1.0000 </r>
       <r>   10.2036    1.0000 </r>
       <r>   10.4202    1.0000 </r>
       <r>   10.7832    1.0001 </r>
       <r>   10.9447    1.0055 </r>
       <r>   11.4474    0.1880 </r>
       <r>   11.6533   -0.0305 </r>
       <r>   11.7729   -0.0072 </r>
       <r>   11.8690   -0.0011 </r>
       <r>   12.2829   -0.0000 </r>
       <r>   12.4252   -0.0000 </r>
       <r>   12.5936   -0.0000 </r>
       <r>   12.7285   -0.0000 </r>
       <r>   12.8595   -0.0000 </r>
       <r>   13.0761   -0.0000 </r>
       <r>   13.1835   -0.0000 </r>
       <r>   13.3786   -0.0000 </r>
       <r>   13.6063   -0.0000 </r>
       <r>   13.6431   -0.0000 </r>
       <r>   13.9213   -0.0000 </r>
       <r>   14.2540   -0.0000 </r>
       <r>   14.4574   -0.0000 </r>
       <r>   14.8165   -0.0000 </r>
       <r>   15.0699   -0.0000 </r>
       <r>   15.1394   -0.0000 </r>
       <r>   15.4332   -0.0000 </r>
       <r>   15.6130   -0.0000 </r>
       <r>   15.8149   -0.0000 </r>
       <r>   16.0833   -0.0000 </r>
      </set>
      <set comment="kpoint 10">
       <r>   -2.0803    1.0000 </r>
       <r>   -0.8214    1.0000 </r>
       <r>   -0.0297    1.0000 </r>
       <r>    0.5907    1.0000 </r>
       <r>    1.0917    1.0000 </r>
       <r>    1.3382    1.0000 </r>
       <r>    1.6769    1.0000 </r>
       <r>    1.9277    1.0000 </r>
       <r>    2.3514    1.0000 </r>
       <r>    2.6987    1.0000 </r>
       <r>    3.4633    1.0000 </r>
       <r>    3.8346    1.0000 </r>
       <r>    4.2106    1.0000 </r>
       <r>    4.3550    1.0000 </r>
       <r>    4.6908    1.0000 </r>
       <r>    5.0346    1.0000 </r>
       <r>    5.4263    1.0000 </r>
       <r>    5.6186    1.0000 </r>
       <r>    6.2674    1.0000 </r>
       <r>    6.4499    1.0000 </r>
       <r>    6.6504    1.0000 </r>
       <r>    7.0412    1.0000 </r>
       <r>    7.4836    1.0000 </r>
       <r>    7.6504    1.0000 </r>
       <r>    7.8016    1.0000 </r>
       <r>    7.8441    1.0000 </r>
       <r>    8.0912    1.0000 </r>
       <r>    8.5679    1.0000 </r>
       <r>    8.7581    1.0000 </r>
       <r>    8.9636    1.0000 </r>
       <r>    9.0355    1.0000 </r>
       <r>    9.3726    1.0000 </r>
       <r>    9.6055    1.0000 </r>
       <r>    9.7275    1.0000 </r>
       <r>    9.7900    1.0000 </r>
       <r>   10.0428    1.0000 </r>
       <r>   10.1581    1.0000 </r>
       <r>   10.3763    1.0000 </r>
       <r>   10.7527    1.0001 </r>
       <r>   11.1039    1.0344 </r>
       <r>   11.4701    0.1212 </r>
       <r>   11.5846   -0.0321 </r>
       <r>   11.7414   -0.0118 </r>
       <r>   12.0582   -0.0000 </r>
       <r>   12.1913   -0.0000 </r>
       <r>   12.4024   -0.0000 </r>
       <r>   12.5984   -0.0000 </r>
       <r>   12.7497   -0.0000 </r>
       <r>   12.8654   -0.0000 </r>
       <r>   13.0641   -0.0000 </r>
       <r>   13.2338   -0.0000 </r>
       <r>   13.3597   -0.0000 </r>
       <r>   13.5211   -0.0000 </r>
       <r>   13.7417   -0.0000 </r>
       <r>   14.0612   -0.0000 </r>
       <r>   14.3866   -0.0000 </r>
       <r>   14.4502   -0.0000 </r>
       <r>   14.7727   -0.0000 </r>
       <r>   14.8729   -0.0000 </r>
       <r>   15.2243   -0.0000 </r>
       <r>   15.4056   -0.0000 </r>
       <r>   15.6423   -0.0000 </r>
       <r>   15.7801   -0.0000 </r>
       <r>   15.9033   -0.0000 </r>
      </set>
      <set comment="kpoint 11">
       <r>   -2.0837    1.0000 </r>
       <r>   -0.7819    1.0000 </r>
       <r>   -0.1355    1.0000 </r>
       <r>    0.7340    1.0000 </r>
       <r>    0.9654    1.0000 </r>
       <r>    1.4882    1.0000 </r>
       <r>    1.5802    1.0000 </r>
       <r>    2.0023    1.0000 </r>
       <r>    2.2295    1.0000 </r>
       <r>    2.8454    1.0000 </r>
       <r>    3.4033    1.0000 </r>
       <r>    3.6672    1.0000 </r>
       <r>    4.1269    1.0000 </r>
       <r>    4.4826    1.0000 </r>
       <r>    4.8447    1.0000 </r>
       <r>    5.0766    1.0000 </r>
       <r>    5.2631    1.0000 </r>
       <r>    5.6913    1.0000 </r>
       <r>    6.0668    1.0000 </r>
       <r>    6.3936    1.0000 </r>
       <r>    6.8788    1.0000 </r>
       <r>    7.2124    1.0000 </r>
       <r>    7.4500    1.0000 </r>
       <r>    7.6518    1.0000 </r>
       <r>    7.7259    1.0000 </r>
       <r>    7.8607    1.0000 </r>
       <r>    8.3407    1.0000 </r>
       <r>    8.4842    1.0000 </r>
       <r>    8.7069    1.0000 </r>
       <r>    8.8476    1.0000 </r>
       <r>    9.0487    1.0000 </r>
       <r>    9.1507    1.0000 </r>
       <r>    9.5660    1.0000 </r>
       <r>    9.7616    1.0000 </r>
       <r>    9.8549    1.0000 </r>
       <r>   10.0675    1.0000 </r>
       <r>   10.2256    1.0000 </r>
       <r>   10.4755    1.0000 </r>
       <r>   10.6566    1.0000 </r>
       <r>   10.9781    1.0095 </r>
       <r>   11.4611    0.1463 </r>
       <r>   11.5513   -0.0151 </r>
       <r>   11.7235   -0.0151 </r>
       <r>   12.0101   -0.0000 </r>
       <r>   12.2013   -0.0000 </r>
       <r>   12.2293   -0.0000 </r>
       <r>   12.5077   -0.0000 </r>
       <r>   12.7569   -0.0000 </r>
       <r>   12.9917   -0.0000 </r>
       <r>   13.2213   -0.0000 </r>
       <r>   13.3000   -0.0000 </r>
       <r>   13.4550   -0.0000 </r>
       <r>   13.6229   -0.0000 </r>
       <r>   13.8779   -0.0000 </r>
       <r>   14.0851   -0.0000 </r>
       <r>   14.3604   -0.0000 </r>
       <r>   14.5939   -0.0000 </r>
       <r>   14.7281   -0.0000 </r>
       <r>   14.9895   -0.0000 </r>
       <r>   15.0237   -0.0000 </r>
       <r>   15.4276   -0.0000 </r>
       <r>   15.5948   -0.0000 </r>
       <r>   15.8563   -0.0000 </r>
       <r>   16.2387   -0.0000 </r>
      </set>
      <set comment="kpoint 12">
       <r>   -2.0530    1.0000 </r>
       <r>   -0.9650    1.0000 </r>
       <r>    0.2738    1.0000 </r>
       <r>    0.5155    1.0000 </r>
       <r>    1.0095    1.0000 </r>
       <r>    1.2996    1.0000 </r>
       <r>    1.4366    1.0000 </r>
       <r>    1.9806    1.0000 </r>
       <r>    2.5087    1.0000 </r>
       <r>    3.0935    1.0000 </r>
       <r>    3.3967    1.0000 </r>
       <r>    3.6542    1.0000 </r>
       <r>    3.9717    1.0000 </r>
       <r>    4.3971    1.0000 </r>
       <r>    4.7747    1.0000 </r>
       <r>    5.0628    1.0000 </r>
       <r>    5.3305    1.0000 </r>
       <r>    5.8106    1.0000 </r>
       <r>    6.2236    1.0000 </r>
       <r>    6.4355    1.0000 </r>
       <r>    6.6345    1.0000 </r>
       <r>    6.8088    1.0000 </r>
       <r>    7.3043    1.0000 </r>
       <r>    7.3999    1.0000 </r>
       <r>    7.9591    1.0000 </r>
       <r>    8.0572    1.0000 </r>
       <r>    8.2804    1.0000 </r>
       <r>    8.3041    1.0000 </r>
       <r>    8.7380    1.0000 </r>
       <r>    8.9382    1.0000 </r>
       <r>    9.0956    1.0000 </r>
       <r>    9.3811    1.0000 </r>
       <r>    9.7200    1.0000 </r>
       <r>    9.8907    1.0000 </r>
       <r>   10.0680    1.0000 </r>
       <r>   10.1942    1.0000 </r>
       <r>   10.3356    1.0000 </r>
       <r>   10.6526    1.0000 </r>
       <r>   10.7141    1.0000 </r>
       <r>   10.9565    1.0067 </r>
       <r>   11.3043    0.7510 </r>
       <r>   11.7207   -0.0157 </r>
       <r>   11.8673   -0.0011 </r>
       <r>   11.9909   -0.0000 </r>
       <r>   12.1674   -0.0000 </r>
       <r>   12.3056   -0.0000 </r>
       <r>   12.3732   -0.0000 </r>
       <r>   12.4849   -0.0000 </r>
       <r>   12.7807   -0.0000 </r>
       <r>   12.9377   -0.0000 </r>
       <r>   13.0379   -0.0000 </r>
       <r>   13.3499   -0.0000 </r>
       <r>   13.5744   -0.0000 </r>
       <r>   13.7715   -0.0000 </r>
       <r>   14.0147   -0.0000 </r>
       <r>   14.0919   -0.0000 </r>
       <r>   14.3237   -0.0000 </r>
       <r>   14.5700   -0.0000 </r>
       <r>   14.9744   -0.0000 </r>
       <r>   15.0996   -0.0000 </r>
       <r>   15.4754   -0.0000 </r>
       <r>   15.7485   -0.0000 </r>
       <r>   15.9552   -0.0000 </r>
       <r>   16.2587   -0.0000 </r>
      </set>
      <set comment="kpoint 13">
       <r>   -2.0791    1.0000 </r>
       <r>   -0.7795    1.0000 </r>
       <r>   -0.1400    1.0000 </r>
       <r>    0.5074    1.0000 </r>
       <r>    1.1698    1.0000 </r>
       <r>    1.5206    1.0000 </r>
       <r>    1.7553    1.0000 </r>
       <r>    1.9658    1.0000 </r>
       <r>    2.2139    1.0000 </r>
       <r>    2.8976    1.0000 </r>
       <r>    3.1378    1.0000 </r>
       <r>    3.6016    1.0000 </r>
       <r>    4.1145    1.0000 </r>
       <r>    4.5886    1.0000 </r>
       <r>    4.7695    1.0000 </r>
       <r>    5.1449    1.0000 </r>
       <r>    5.4549    1.0000 </r>
       <r>    5.5901    1.0000 </r>
       <r>    5.9810    1.0000 </r>
       <r>    6.4999    1.0000 </r>
       <r>    6.7581    1.0000 </r>
       <r>    7.0248    1.0000 </r>
       <r>    7.4106    1.0000 </r>
       <r>    7.5271    1.0000 </r>
       <r>    7.9709    1.0000 </r>
       <r>    8.1337    1.0000 </r>
       <r>    8.2670    1.0000 </r>
       <r>    8.5455    1.0000 </r>
       <r>    8.8017    1.0000 </r>
       <r>    8.9160    1.0000 </r>
       <r>    9.1979    1.0000 </r>
       <r>    9.2783    1.0000 </r>
       <r>    9.3568    1.0000 </r>
       <r>    9.5832    1.0000 </r>
       <r>    9.7673    1.0000 </r>
       <r>   10.1804    1.0000 </r>
       <r>   10.2374    1.0000 </r>
       <r>   10.4988    1.0000 </r>
       <r>   10.7155    1.0000 </r>
       <r>   10.8678    1.0012 </r>
       <r>   11.2021    0.9959 </r>
       <r>   11.5756   -0.0291 </r>
       <r>   11.8286   -0.0026 </r>
       <r>   12.0421   -0.0000 </r>
       <r>   12.2485   -0.0000 </r>
       <r>   12.3400   -0.0000 </r>
       <r>   12.5742   -0.0000 </r>
       <r>   12.5969   -0.0000 </r>
       <r>   12.9312   -0.0000 </r>
       <r>   13.0126   -0.0000 </r>
       <r>   13.3170   -0.0000 </r>
       <r>   13.3981   -0.0000 </r>
       <r>   13.4819   -0.0000 </r>
       <r>   13.7362   -0.0000 </r>
       <r>   13.9307   -0.0000 </r>
       <r>   14.2535   -0.0000 </r>
       <r>   14.5752   -0.0000 </r>
       <r>   14.8913   -0.0000 </r>
       <r>   15.2013   -0.0000 </r>
       <r>   15.3075   -0.0000 </r>
       <r>   15.5127   -0.0000 </r>
       <r>   15.6186   -0.0000 </r>
       <r>   15.7910   -0.0000 </r>
       <r>   16.0647   -0.0000 </r>
      </set>
      <set comment="kpoint 14">
       <r>   -2.0672    1.0000 </r>
       <r>   -0.8639    1.0000 </r>
       <r>    0.0090    1.0000 </r>
       <r>    0.5675    1.0000 </r>
       <r>    0.9447    1.0000 </r>
       <r>    1.3632    1.0000 </r>
       <r>    1.6927    1.0000 </r>
       <r>    2.2041    1.0000 </r>
       <r>    2.4885    1.0000 </r>
       <r>    2.7962    1.0000 </r>
       <r>    3.1765    1.0000 </r>
       <r>    3.5572    1.0000 </r>
       <r>    4.0408    1.0000 </r>
       <r>    4.5740    1.0000 </r>
       <r>    4.8340    1.0000 </r>
       <r>    5.0535    1.0000 </r>
       <r>    5.3449    1.0000 </r>
       <r>    5.6414    1.0000 </r>
       <r>    6.1128    1.0000 </r>
       <r>    6.3676    1.0000 </r>
       <r>    6.7326    1.0000 </r>
       <r>    6.9944    1.0000 </r>
       <r>    7.3714    1.0000 </r>
       <r>    7.7649    1.0000 </r>
       <r>    7.9072    1.0000 </r>
       <r>    8.0543    1.0000 </r>
       <r>    8.2755    1.0000 </r>
       <r>    8.5401    1.0000 </r>
       <r>    8.6180    1.0000 </r>
       <r>    8.8265    1.0000 </r>
       <r>    9.1184    1.0000 </r>
       <r>    9.3058    1.0000 </r>
       <r>    9.4814    1.0000 </r>
       <r>    9.8001    1.0000 </r>
       <r>    9.9302    1.0000 </r>
       <r>   10.2258    1.0000 </r>
       <r>   10.4164    1.0000 </r>
       <r>   10.5509    1.0000 </r>
       <r>   10.7397    1.0000 </r>
       <r>   10.9216    1.0036 </r>
       <r>   11.3213    0.6875 </r>
       <r>   11.5582   -0.0200 </r>
       <r>   11.6732   -0.0262 </r>
       <r>   11.8570   -0.0014 </r>
       <r>   12.1852   -0.0000 </r>
       <r>   12.2748   -0.0000 </r>
       <r>   12.3986   -0.0000 </r>
       <r>   12.5803   -0.0000 </r>
       <r>   12.8910   -0.0000 </r>
       <r>   13.0842   -0.0000 </r>
       <r>   13.2155   -0.0000 </r>
       <r>   13.3453   -0.0000 </r>
       <r>   13.5140   -0.0000 </r>
       <r>   13.8880   -0.0000 </r>
       <r>   14.0371   -0.0000 </r>
       <r>   14.2155   -0.0000 </r>
       <r>   14.4840   -0.0000 </r>
       <r>   14.6725   -0.0000 </r>
       <r>   15.1122   -0.0000 </r>
       <r>   15.3326   -0.0000 </r>
       <r>   15.5842   -0.0000 </r>
       <r>   15.6808   -0.0000 </r>
       <r>   15.8807   -0.0000 </r>
       <r>   16.0392   -0.0000 </r>
      </set>
      <set comment="kpoint 15">
       <r>   -2.0773    1.0000 </r>
       <r>   -0.8388    1.0000 </r>
       <r>   -0.0577    1.0000 </r>
       <r>    0.7391    1.0000 </r>
       <r>    0.9562    1.0000 </r>
       <r>    1.4175    1.0000 </r>
       <r>    1.6958    1.0000 </r>
       <r>    1.8620    1.0000 </r>
       <r>    2.3874    1.0000 </r>
       <r>    2.7527    1.0000 </r>
       <r>    3.3205    1.0000 </r>
       <r>    3.6958    1.0000 </r>
       <r>    4.1682    1.0000 </r>
       <r>    4.5088    1.0000 </r>
       <r>    4.8069    1.0000 </r>
       <r>    5.1056    1.0000 </r>
       <r>    5.3531    1.0000 </r>
       <r>    5.6372    1.0000 </r>
       <r>    5.9810    1.0000 </r>
       <r>    6.4406    1.0000 </r>
       <r>    6.9527    1.0000 </r>
       <r>    7.2306    1.0000 </r>
       <r>    7.4138    1.0000 </r>
       <r>    7.5098    1.0000 </r>
       <r>    7.7090    1.0000 </r>
       <r>    7.8748    1.0000 </r>
       <r>    8.2812    1.0000 </r>
       <r>    8.4480    1.0000 </r>
       <r>    8.7796    1.0000 </r>
       <r>    8.9332    1.0000 </r>
       <r>    9.2468    1.0000 </r>
       <r>    9.3214    1.0000 </r>
       <r>    9.5420    1.0000 </r>
       <r>    9.6403    1.0000 </r>
       <r>    9.8529    1.0000 </r>
       <r>   10.0214    1.0000 </r>
       <r>   10.1766    1.0000 </r>
       <r>   10.4116    1.0000 </r>
       <r>   10.6396    1.0000 </r>
       <r>   10.8668    1.0012 </r>
       <r>   11.3634    0.5147 </r>
       <r>   11.5358   -0.0006 </r>
       <r>   11.8037   -0.0042 </r>
       <r>   12.0710   -0.0000 </r>
       <r>   12.1549   -0.0000 </r>
       <r>   12.2699   -0.0000 </r>
       <r>   12.6450   -0.0000 </r>
       <r>   12.7859   -0.0000 </r>
       <r>   12.8995   -0.0000 </r>
       <r>   13.1057   -0.0000 </r>
       <r>   13.3632   -0.0000 </r>
       <r>   13.5090   -0.0000 </r>
       <r>   13.6447   -0.0000 </r>
       <r>   13.8204   -0.0000 </r>
       <r>   14.1988   -0.0000 </r>
       <r>   14.3268   -0.0000 </r>
       <r>   14.5564   -0.0000 </r>
       <r>   14.7763   -0.0000 </r>
       <r>   14.9968   -0.0000 </r>
       <r>   15.0805   -0.0000 </r>
       <r>   15.4227   -0.0000 </r>
       <r>   15.5006   -0.0000 </r>
       <r>   15.6314   -0.0000 </r>
       <r>   16.0779   -0.0000 </r>
      </set>
      <set comment="kpoint 16">
       <r>   -2.0743    1.0000 </r>
       <r>   -0.8491    1.0000 </r>
       <r>    0.0137    1.0000 </r>
       <r>    0.5964    1.0000 </r>
       <r>    1.0324    1.0000 </r>
       <r>    1.2949    1.0000 </r>
       <r>    1.7133    1.0000 </r>
       <r>    1.9568    1.0000 </r>
       <r>    2.2842    1.0000 </r>
       <r>    2.9265    1.0000 </r>
       <r>    3.4324    1.0000 </r>
       <r>    3.7817    1.0000 </r>
       <r>    4.0205    1.0000 </r>
       <r>    4.3289    1.0000 </r>
       <r>    4.7474    1.0000 </r>
       <r>    5.2081    1.0000 </r>
       <r>    5.5516    1.0000 </r>
       <r>    5.5994    1.0000 </r>
       <r>    6.1183    1.0000 </r>
       <r>    6.4086    1.0000 </r>
       <r>    6.5859    1.0000 </r>
       <r>    6.9828    1.0000 </r>
       <r>    7.4389    1.0000 </r>
       <r>    7.5901    1.0000 </r>
       <r>    7.6967    1.0000 </r>
       <r>    7.9639    1.0000 </r>
       <r>    8.1518    1.0000 </r>
       <r>    8.5519    1.0000 </r>
       <r>    8.7549    1.0000 </r>
       <r>    8.9133    1.0000 </r>
       <r>    9.1592    1.0000 </r>
       <r>    9.4189    1.0000 </r>
       <r>    9.6486    1.0000 </r>
       <r>    9.8075    1.0000 </r>
       <r>    9.9123    1.0000 </r>
       <r>   10.1411    1.0000 </r>
       <r>   10.2276    1.0000 </r>
       <r>   10.3535    1.0000 </r>
       <r>   10.7061    1.0000 </r>
       <r>   10.8955    1.0021 </r>
       <r>   11.5595   -0.0209 </r>
       <r>   11.7362   -0.0127 </r>
       <r>   11.8423   -0.0020 </r>
       <r>   12.0764   -0.0000 </r>
       <r>   12.1959   -0.0000 </r>
       <r>   12.2541   -0.0000 </r>
       <r>   12.5158   -0.0000 </r>
       <r>   12.6444   -0.0000 </r>
       <r>   12.7612   -0.0000 </r>
       <r>   12.9617   -0.0000 </r>
       <r>   13.1863   -0.0000 </r>
       <r>   13.3355   -0.0000 </r>
       <r>   13.5082   -0.0000 </r>
       <r>   13.6871   -0.0000 </r>
       <r>   14.1057   -0.0000 </r>
       <r>   14.2783   -0.0000 </r>
       <r>   14.5257   -0.0000 </r>
       <r>   14.6499   -0.0000 </r>
       <r>   14.9620   -0.0000 </r>
       <r>   15.1784   -0.0000 </r>
       <r>   15.4285   -0.0000 </r>
       <r>   15.5439   -0.0000 </r>
       <r>   15.7388   -0.0000 </r>
       <r>   15.9848   -0.0000 </r>
      </set>
      <set comment="kpoint 17">
       <r>   -1.7272    1.0000 </r>
       <r>   -1.3614    1.0000 </r>
       <r>    0.0977    1.0000 </r>
       <r>    0.2059    1.0000 </r>
       <r>    1.0845    1.0000 </r>
       <r>    1.3381    1.0000 </r>
       <r>    1.6137    1.0000 </r>
       <r>    1.9461    1.0000 </r>
       <r>    2.9132    1.0000 </r>
       <r>    3.1436    1.0000 </r>
       <r>    3.3965    1.0000 </r>
       <r>    3.9487    1.0000 </r>
       <r>    4.5188    1.0000 </r>
       <r>    4.6664    1.0000 </r>
       <r>    4.7623    1.0000 </r>
       <r>    5.1683    1.0000 </r>
       <r>    5.5129    1.0000 </r>
       <r>    5.7928    1.0000 </r>
       <r>    5.9420    1.0000 </r>
       <r>    6.1213    1.0000 </r>
       <r>    6.4401    1.0000 </r>
       <r>    6.5781    1.0000 </r>
       <r>    6.7484    1.0000 </r>
       <r>    7.1737    1.0000 </r>
       <r>    7.3608    1.0000 </r>
       <r>    7.7870    1.0000 </r>
       <r>    7.9471    1.0000 </r>
       <r>    8.2352    1.0000 </r>
       <r>    8.4896    1.0000 </r>
       <r>    8.7984    1.0000 </r>
       <r>    8.8872    1.0000 </r>
       <r>    9.4047    1.0000 </r>
       <r>    9.5661    1.0000 </r>
       <r>    9.8630    1.0000 </r>
       <r>   10.1291    1.0000 </r>
       <r>   10.3075    1.0000 </r>
       <r>   10.6347    1.0000 </r>
       <r>   10.7460    1.0001 </r>
       <r>   11.0234    1.0178 </r>
       <r>   11.2118    0.9835 </r>
       <r>   11.5210    0.0178 </r>
       <r>   11.7201   -0.0158 </r>
       <r>   11.8557   -0.0015 </r>
       <r>   12.1415   -0.0000 </r>
       <r>   12.2948   -0.0000 </r>
       <r>   12.4356   -0.0000 </r>
       <r>   12.7227   -0.0000 </r>
       <r>   13.0264   -0.0000 </r>
       <r>   13.1243   -0.0000 </r>
       <r>   13.2647   -0.0000 </r>
       <r>   13.5102   -0.0000 </r>
       <r>   13.7478   -0.0000 </r>
       <r>   13.9714   -0.0000 </r>
       <r>   14.1408   -0.0000 </r>
       <r>   14.1780   -0.0000 </r>
       <r>   14.2953   -0.0000 </r>
       <r>   14.6523   -0.0000 </r>
       <r>   14.7509   -0.0000 </r>
       <r>   14.9607   -0.0000 </r>
       <r>   15.1778   -0.0000 </r>
       <r>   15.3966   -0.0000 </r>
       <r>   15.4882   -0.0000 </r>
       <r>   15.5925   -0.0000 </r>
       <r>   15.8871   -0.0000 </r>
      </set>
      <set comment="kpoint 18">
       <r>   -1.8069    1.0000 </r>
       <r>   -1.2469    1.0000 </r>
       <r>   -0.0181    1.0000 </r>
       <r>    0.5189    1.0000 </r>
       <r>    0.7628    1.0000 </r>
       <r>    1.3617    1.0000 </r>
       <r>    1.6665    1.0000 </r>
       <r>    2.0128    1.0000 </r>
       <r>    2.5143    1.0000 </r>
       <r>    3.2626    1.0000 </r>
       <r>    3.7351    1.0000 </r>
       <r>    4.0505    1.0000 </r>
       <r>    4.3323    1.0000 </r>
       <r>    4.4651    1.0000 </r>
       <r>    4.7055    1.0000 </r>
       <r>    5.2163    1.0000 </r>
       <r>    5.4751    1.0000 </r>
       <r>    5.6761    1.0000 </r>
       <r>    6.0545    1.0000 </r>
       <r>    6.4696    1.0000 </r>
       <r>    6.5491    1.0000 </r>
       <r>    6.8584    1.0000 </r>
       <r>    6.9291    1.0000 </r>
       <r>    7.1644    1.0000 </r>
       <r>    7.3034    1.0000 </r>
       <r>    7.8497    1.0000 </r>
       <r>    7.9155    1.0000 </r>
       <r>    8.0538    1.0000 </r>
       <r>    8.2552    1.0000 </r>
       <r>    8.5931    1.0000 </r>
       <r>    8.8766    1.0000 </r>
       <r>    9.1962    1.0000 </r>
       <r>    9.4009    1.0000 </r>
       <r>    9.5906    1.0000 </r>
       <r>   10.0208    1.0000 </r>
       <r>   10.3303    1.0000 </r>
       <r>   10.5253    1.0000 </r>
       <r>   10.8874    1.0018 </r>
       <r>   11.0646    1.0272 </r>
       <r>   11.2759    0.8444 </r>
       <r>   11.4935    0.0656 </r>
       <r>   11.6272   -0.0346 </r>
       <r>   12.0629   -0.0000 </r>
       <r>   12.2909   -0.0000 </r>
       <r>   12.5653   -0.0000 </r>
       <r>   12.6095   -0.0000 </r>
       <r>   12.8308   -0.0000 </r>
       <r>   12.9305   -0.0000 </r>
       <r>   13.2036   -0.0000 </r>
       <r>   13.3707   -0.0000 </r>
       <r>   13.5295   -0.0000 </r>
       <r>   13.6676   -0.0000 </r>
       <r>   13.8967   -0.0000 </r>
       <r>   14.0742   -0.0000 </r>
       <r>   14.2726   -0.0000 </r>
       <r>   14.4550   -0.0000 </r>
       <r>   14.7045   -0.0000 </r>
       <r>   14.8889   -0.0000 </r>
       <r>   15.0734   -0.0000 </r>
       <r>   15.1635   -0.0000 </r>
       <r>   15.3000   -0.0000 </r>
       <r>   15.4960   -0.0000 </r>
       <r>   15.7027   -0.0000 </r>
       <r>   15.8770   -0.0000 </r>
      </set>
      <set comment="kpoint 19">
       <r>   -1.7143    1.0000 </r>
       <r>   -1.3972    1.0000 </r>
       <r>    0.0627    1.0000 </r>
       <r>    0.3509    1.0000 </r>
       <r>    0.9639    1.0000 </r>
       <r>    1.3667    1.0000 </r>
       <r>    1.6960    1.0000 </r>
       <r>    1.9873    1.0000 </r>
       <r>    2.6647    1.0000 </r>
       <r>    3.1614    1.0000 </r>
       <r>    3.4913    1.0000 </r>
       <r>    3.9249    1.0000 </r>
       <r>    4.1612    1.0000 </r>
       <r>    4.7651    1.0000 </r>
       <r>    4.9835    1.0000 </r>
       <r>    5.2047    1.0000 </r>
       <r>    5.3533    1.0000 </r>
       <r>    5.9507    1.0000 </r>
       <r>    6.0923    1.0000 </r>
       <r>    6.2031    1.0000 </r>
       <r>    6.4147    1.0000 </r>
       <r>    6.6115    1.0000 </r>
       <r>    6.9616    1.0000 </r>
       <r>    7.1151    1.0000 </r>
       <r>    7.2056    1.0000 </r>
       <r>    7.6133    1.0000 </r>
       <r>    8.0768    1.0000 </r>
       <r>    8.2871    1.0000 </r>
       <r>    8.4897    1.0000 </r>
       <r>    8.8372    1.0000 </r>
       <r>    9.1102    1.0000 </r>
       <r>    9.3429    1.0000 </r>
       <r>    9.5011    1.0000 </r>
       <r>    9.5694    1.0000 </r>
       <r>    9.8964    1.0000 </r>
       <r>   10.0023    1.0000 </r>
       <r>   10.3796    1.0000 </r>
       <r>   10.8284    1.0005 </r>
       <r>   11.1204    1.0354 </r>
       <r>   11.3412    0.6077 </r>
       <r>   11.5197    0.0198 </r>
       <r>   11.7192   -0.0159 </r>
       <r>   11.8911   -0.0007 </r>
       <r>   12.1587   -0.0000 </r>
       <r>   12.3045   -0.0000 </r>
       <r>   12.6576   -0.0000 </r>
       <r>   12.8020   -0.0000 </r>
       <r>   12.9232   -0.0000 </r>
       <r>   13.2144   -0.0000 </r>
       <r>   13.5389   -0.0000 </r>
       <r>   13.6127   -0.0000 </r>
       <r>   13.7413   -0.0000 </r>
       <r>   13.9122   -0.0000 </r>
       <r>   13.9922   -0.0000 </r>
       <r>   14.2668   -0.0000 </r>
       <r>   14.4604   -0.0000 </r>
       <r>   14.6966   -0.0000 </r>
       <r>   14.8792   -0.0000 </r>
       <r>   15.0107   -0.0000 </r>
       <r>   15.1699   -0.0000 </r>
       <r>   15.4197   -0.0000 </r>
       <r>   15.5657   -0.0000 </r>
       <r>   15.6695   -0.0000 </r>
       <r>   15.8897   -0.0000 </r>
      </set>
      <set comment="kpoint 20">
       <r>   -1.7494    1.0000 </r>
       <r>   -1.3651    1.0000 </r>
       <r>    0.1510    1.0000 </r>
       <r>    0.3508    1.0000 </r>
       <r>    0.9963    1.0000 </r>
       <r>    1.2937    1.0000 </r>
       <r>    1.5050    1.0000 </r>
       <r>    2.1167    1.0000 </r>
       <r>    2.4501    1.0000 </r>
       <r>    3.2681    1.0000 </r>
       <r>    3.7181    1.0000 </r>
       <r>    3.8852    1.0000 </r>
       <r>    4.2926    1.0000 </r>
       <r>    4.6487    1.0000 </r>
       <r>    4.8956    1.0000 </r>
       <r>    5.0867    1.0000 </r>
       <r>    5.4782    1.0000 </r>
       <r>    5.7600    1.0000 </r>
       <r>    6.1087    1.0000 </r>
       <r>    6.3384    1.0000 </r>
       <r>    6.4984    1.0000 </r>
       <r>    6.7669    1.0000 </r>
       <r>    7.0049    1.0000 </r>
       <r>    7.2505    1.0000 </r>
       <r>    7.3374    1.0000 </r>
       <r>    7.5173    1.0000 </r>
       <r>    7.8390    1.0000 </r>
       <r>    8.1141    1.0000 </r>
       <r>    8.4562    1.0000 </r>
       <r>    8.5986    1.0000 </r>
       <r>    9.0522    1.0000 </r>
       <r>    9.3350    1.0000 </r>
       <r>    9.4228    1.0000 </r>
       <r>    9.7747    1.0000 </r>
       <r>    9.8541    1.0000 </r>
       <r>   10.2462    1.0000 </r>
       <r>   10.4674    1.0000 </r>
       <r>   10.7766    1.0001 </r>
       <r>   11.0554    1.0250 </r>
       <r>   11.3280    0.6609 </r>
       <r>   11.4457    0.1935 </r>
       <r>   11.6447   -0.0322 </r>
       <r>   11.9251   -0.0003 </r>
       <r>   12.1004   -0.0000 </r>
       <r>   12.3302   -0.0000 </r>
       <r>   12.6133   -0.0000 </r>
       <r>   12.9426   -0.0000 </r>
       <r>   13.0449   -0.0000 </r>
       <r>   13.2101   -0.0000 </r>
       <r>   13.3346   -0.0000 </r>
       <r>   13.7245   -0.0000 </r>
       <r>   13.7701   -0.0000 </r>
       <r>   14.0110   -0.0000 </r>
       <r>   14.1479   -0.0000 </r>
       <r>   14.2173   -0.0000 </r>
       <r>   14.4596   -0.0000 </r>
       <r>   14.6246   -0.0000 </r>
       <r>   14.7685   -0.0000 </r>
       <r>   14.9548   -0.0000 </r>
       <r>   15.3359   -0.0000 </r>
       <r>   15.4335   -0.0000 </r>
       <r>   15.6149   -0.0000 </r>
       <r>   15.8265   -0.0000 </r>
       <r>   15.9838   -0.0000 </r>
      </set>
      <set comment="kpoint 21">
       <r>   -1.7835    1.0000 </r>
       <r>   -1.2315    1.0000 </r>
       <r>   -0.1955    1.0000 </r>
       <r>    0.3738    1.0000 </r>
       <r>    0.9354    1.0000 </r>
       <r>    1.4532    1.0000 </r>
       <r>    1.8609    1.0000 </r>
       <r>    2.2014    1.0000 </r>
       <r>    2.6489    1.0000 </r>
       <r>    2.9427    1.0000 </r>
       <r>    3.3917    1.0000 </r>
       <r>    4.0706    1.0000 </r>
       <r>    4.1218    1.0000 </r>
       <r>    4.4681    1.0000 </r>
       <r>    4.9032    1.0000 </r>
       <r>    5.1822    1.0000 </r>
       <r>    5.7419    1.0000 </r>
       <r>    5.7897    1.0000 </r>
       <r>    5.8999    1.0000 </r>
       <r>    6.3166    1.0000 </r>
       <r>    6.4063    1.0000 </r>
       <r>    6.7224    1.0000 </r>
       <r>    6.9699    1.0000 </r>
       <r>    7.0872    1.0000 </r>
       <r>    7.5023    1.0000 </r>
       <r>    7.6977    1.0000 </r>
       <r>    8.0007    1.0000 </r>
       <r>    8.1233    1.0000 </r>
       <r>    8.4382    1.0000 </r>
       <r>    8.9422    1.0000 </r>
       <r>    9.0767    1.0000 </r>
       <r>    9.2681    1.0000 </r>
       <r>    9.4211    1.0000 </r>
       <r>    9.8239    1.0000 </r>
       <r>    9.9109    1.0000 </r>
       <r>   10.2140    1.0000 </r>
       <r>   10.3387    1.0000 </r>
       <r>   10.8654    1.0011 </r>
       <r>   10.9971    1.0126 </r>
       <r>   11.3192    0.6955 </r>
       <r>   11.5094    0.0359 </r>
       <r>   11.6036   -0.0352 </r>
       <r>   11.7381   -0.0124 </r>
       <r>   12.1342   -0.0000 </r>
       <r>   12.2602   -0.0000 </r>
       <r>   12.4566   -0.0000 </r>
       <r>   12.7056   -0.0000 </r>
       <r>   12.9821   -0.0000 </r>
       <r>   13.1535   -0.0000 </r>
       <r>   13.3563   -0.0000 </r>
       <r>   13.5825   -0.0000 </r>
       <r>   13.7641   -0.0000 </r>
       <r>   13.9717   -0.0000 </r>
       <r>   14.1413   -0.0000 </r>
       <r>   14.3291   -0.0000 </r>
       <r>   14.5734   -0.0000 </r>
       <r>   14.8304   -0.0000 </r>
       <r>   14.8611   -0.0000 </r>
       <r>   15.1234   -0.0000 </r>
       <r>   15.2001   -0.0000 </r>
       <r>   15.2875   -0.0000 </r>
       <r>   15.5237   -0.0000 </r>
       <r>   15.7504   -0.0000 </r>
       <r>   15.8642   -0.0000 </r>
      </set>
      <set comment="kpoint 22">
       <r>   -1.7840    1.0000 </r>
       <r>   -1.2629    1.0000 </r>
       <r>   -0.0934    1.0000 </r>
       <r>    0.4495    1.0000 </r>
       <r>    0.8575    1.0000 </r>
       <r>    1.4448    1.0000 </r>
       <r>    1.6791    1.0000 </r>
       <r>    2.0239    1.0000 </r>
       <r>    2.6095    1.0000 </r>
       <r>    3.3374    1.0000 </r>
       <r>    3.5972    1.0000 </r>
       <r>    3.7270    1.0000 </r>
       <r>    4.1769    1.0000 </r>
       <r>    4.8405    1.0000 </r>
       <r>    4.8718    1.0000 </r>
       <r>    5.1772    1.0000 </r>
       <r>    5.3111    1.0000 </r>
       <r>    5.9167    1.0000 </r>
       <r>    6.0805    1.0000 </r>
       <r>    6.2027    1.0000 </r>
       <r>    6.4371    1.0000 </r>
       <r>    6.7463    1.0000 </r>
       <r>    6.9948    1.0000 </r>
       <r>    7.1338    1.0000 </r>
       <r>    7.2773    1.0000 </r>
       <r>    7.5287    1.0000 </r>
       <r>    8.1185    1.0000 </r>
       <r>    8.2887    1.0000 </r>
       <r>    8.4392    1.0000 </r>
       <r>    8.6527    1.0000 </r>
       <r>    9.0068    1.0000 </r>
       <r>    9.1309    1.0000 </r>
       <r>    9.5049    1.0000 </r>
       <r>    9.7509    1.0000 </r>
       <r>    9.9642    1.0000 </r>
       <r>   10.1606    1.0000 </r>
       <r>   10.4895    1.0000 </r>
       <r>   10.8372    1.0006 </r>
       <r>   11.0419    1.0219 </r>
       <r>   11.2539    0.9036 </r>
       <r>   11.5175    0.0229 </r>
       <r>   11.7716   -0.0074 </r>
       <r>   11.8504   -0.0017 </r>
       <r>   12.1316   -0.0000 </r>
       <r>   12.5019   -0.0000 </r>
       <r>   12.6487   -0.0000 </r>
       <r>   12.7783   -0.0000 </r>
       <r>   12.9003   -0.0000 </r>
       <r>   13.2649   -0.0000 </r>
       <r>   13.4738   -0.0000 </r>
       <r>   13.6153   -0.0000 </r>
       <r>   13.7460   -0.0000 </r>
       <r>   14.0403   -0.0000 </r>
       <r>   14.1315   -0.0000 </r>
       <r>   14.2864   -0.0000 </r>
       <r>   14.4233   -0.0000 </r>
       <r>   14.6500   -0.0000 </r>
       <r>   14.7957   -0.0000 </r>
       <r>   14.9139   -0.0000 </r>
       <r>   15.2122   -0.0000 </r>
       <r>   15.2758   -0.0000 </r>
       <r>   15.4313   -0.0000 </r>
       <r>   15.6641   -0.0000 </r>
       <r>   15.7543   -0.0000 </r>
      </set>
      <set comment="kpoint 23">
       <r>   -1.7813    1.0000 </r>
       <r>   -1.2707    1.0000 </r>
       <r>   -0.1176    1.0000 </r>
       <r>    0.5232    1.0000 </r>
       <r>    0.8897    1.0000 </r>
       <r>    1.3151    1.0000 </r>
       <r>    1.7877    1.0000 </r>
       <r>    1.9428    1.0000 </r>
       <r>    2.6564    1.0000 </r>
       <r>    3.2920    1.0000 </r>
       <r>    3.4494    1.0000 </r>
       <r>    3.8694    1.0000 </r>
       <r>    4.2172    1.0000 </r>
       <r>    4.7210    1.0000 </r>
       <r>    5.0183    1.0000 </r>
       <r>    5.1052    1.0000 </r>
       <r>    5.3497    1.0000 </r>
       <r>    5.8840    1.0000 </r>
       <r>    6.0236    1.0000 </r>
       <r>    6.3104    1.0000 </r>
       <r>    6.4773    1.0000 </r>
       <r>    6.7281    1.0000 </r>
       <r>    6.9643    1.0000 </r>
       <r>    7.1494    1.0000 </r>
       <r>    7.4410    1.0000 </r>
       <r>    7.5550    1.0000 </r>
       <r>    7.9087    1.0000 </r>
       <r>    8.2902    1.0000 </r>
       <r>    8.4727    1.0000 </r>
       <r>    8.7095    1.0000 </r>
       <r>    8.8189    1.0000 </r>
       <r>    9.1850    1.0000 </r>
       <r>    9.4114    1.0000 </r>
       <r>    9.7241    1.0000 </r>
       <r>    9.8901    1.0000 </r>
       <r>   10.2646    1.0000 </r>
       <r>   10.5549    1.0000 </r>
       <r>   10.9429    1.0053 </r>
       <r>   11.0113    1.0153 </r>
       <r>   11.2398    0.9352 </r>
       <r>   11.5180    0.0222 </r>
       <r>   11.5799   -0.0306 </r>
       <r>   12.0620   -0.0000 </r>
       <r>   12.2038   -0.0000 </r>
       <r>   12.4673   -0.0000 </r>
       <r>   12.6639   -0.0000 </r>
       <r>   12.8062   -0.0000 </r>
       <r>   12.9912   -0.0000 </r>
       <r>   13.1671   -0.0000 </r>
       <r>   13.3303   -0.0000 </r>
       <r>   13.6489   -0.0000 </r>
       <r>   13.8857   -0.0000 </r>
       <r>   13.9311   -0.0000 </r>
       <r>   14.0700   -0.0000 </r>
       <r>   14.1525   -0.0000 </r>
       <r>   14.4574   -0.0000 </r>
       <r>   14.6158   -0.0000 </r>
       <r>   14.7668   -0.0000 </r>
       <r>   14.9805   -0.0000 </r>
       <r>   15.1779   -0.0000 </r>
       <r>   15.3197   -0.0000 </r>
       <r>   15.5149   -0.0000 </r>
       <r>   15.6640   -0.0000 </r>
       <r>   15.8887   -0.0000 </r>
      </set>
      <set comment="kpoint 24">
       <r>   -1.7612    1.0000 </r>
       <r>   -1.3271    1.0000 </r>
       <r>    0.1737    1.0000 </r>
       <r>    0.2823    1.0000 </r>
       <r>    0.8568    1.0000 </r>
       <r>    1.2896    1.0000 </r>
       <r>    1.5928    1.0000 </r>
       <r>    2.1372    1.0000 </r>
       <r>    2.5856    1.0000 </r>
       <r>    3.2646    1.0000 </r>
       <r>    3.7958    1.0000 </r>
       <r>    3.9544    1.0000 </r>
       <r>    4.2184    1.0000 </r>
       <r>    4.6867    1.0000 </r>
       <r>    4.8963    1.0000 </r>
       <r>    5.1062    1.0000 </r>
       <r>    5.2975    1.0000 </r>
       <r>    5.6493    1.0000 </r>
       <r>    6.1112    1.0000 </r>
       <r>    6.3743    1.0000 </r>
       <r>    6.5210    1.0000 </r>
       <r>    6.6557    1.0000 </r>
       <r>    6.9850    1.0000 </r>
       <r>    7.1523    1.0000 </r>
       <r>    7.1701    1.0000 </r>
       <r>    7.6410    1.0000 </r>
       <r>    7.8584    1.0000 </r>
       <r>    8.0928    1.0000 </r>
       <r>    8.3165    1.0000 </r>
       <r>    8.6476    1.0000 </r>
       <r>    9.1273    1.0000 </r>
       <r>    9.4759    1.0000 </r>
       <r>    9.6056    1.0000 </r>
       <r>    9.8657    1.0000 </r>
       <r>   10.0634    1.0000 </r>
       <r>   10.3831    1.0000 </r>
       <r>   10.6191    1.0000 </r>
       <r>   10.7692    1.0001 </r>
       <r>   11.1203    1.0354 </r>
       <r>   11.2659    0.8727 </r>
       <r>   11.4463    0.1914 </r>
       <r>   11.5744   -0.0286 </r>
       <r>   11.7638   -0.0084 </r>
       <r>   12.1563   -0.0000 </r>
       <r>   12.4999   -0.0000 </r>
       <r>   12.6471   -0.0000 </r>
       <r>   12.7606   -0.0000 </r>
       <r>   12.9110   -0.0000 </r>
       <r>   13.1219   -0.0000 </r>
       <r>   13.2012   -0.0000 </r>
       <r>   13.3997   -0.0000 </r>
       <r>   13.6256   -0.0000 </r>
       <r>   13.8599   -0.0000 </r>
       <r>   13.9670   -0.0000 </r>
       <r>   14.3134   -0.0000 </r>
       <r>   14.5119   -0.0000 </r>
       <r>   14.6399   -0.0000 </r>
       <r>   14.8651   -0.0000 </r>
       <r>   15.0258   -0.0000 </r>
       <r>   15.1223   -0.0000 </r>
       <r>   15.3590   -0.0000 </r>
       <r>   15.6672   -0.0000 </r>
       <r>   15.7367   -0.0000 </r>
       <r>   16.0724   -0.0000 </r>
      </set>
      <set comment="kpoint 25">
       <r>   -1.7857    1.0000 </r>
       <r>   -1.2245    1.0000 </r>
       <r>   -0.1810    1.0000 </r>
       <r>    0.3581    1.0000 </r>
       <r>    0.8452    1.0000 </r>
       <r>    1.5492    1.0000 </r>
       <r>    1.8650    1.0000 </r>
       <r>    2.2471    1.0000 </r>
       <r>    2.5330    1.0000 </r>
       <r>    3.0005    1.0000 </r>
       <r>    3.5381    1.0000 </r>
       <r>    3.9465    1.0000 </r>
       <r>    4.0577    1.0000 </r>
       <r>    4.6305    1.0000 </r>
       <r>    4.8034    1.0000 </r>
       <r>    5.1605    1.0000 </r>
       <r>    5.4195    1.0000 </r>
       <r>    5.8009    1.0000 </r>
       <r>    6.2178    1.0000 </r>
       <r>    6.4752    1.0000 </r>
       <r>    6.5592    1.0000 </r>
       <r>    6.6585    1.0000 </r>
       <r>    6.8735    1.0000 </r>
       <r>    7.0186    1.0000 </r>
       <r>    7.1391    1.0000 </r>
       <r>    7.6978    1.0000 </r>
       <r>    8.0691    1.0000 </r>
       <r>    8.4173    1.0000 </r>
       <r>    8.5654    1.0000 </r>
       <r>    8.7116    1.0000 </r>
       <r>    9.0392    1.0000 </r>
       <r>    9.2258    1.0000 </r>
       <r>    9.4446    1.0000 </r>
       <r>    9.7061    1.0000 </r>
       <r>   10.1426    1.0000 </r>
       <r>   10.3111    1.0000 </r>
       <r>   10.4261    1.0000 </r>
       <r>   10.7429    1.0000 </r>
       <r>   10.9361    1.0047 </r>
       <r>   11.1746    1.0206 </r>
       <r>   11.5417   -0.0067 </r>
       <r>   11.7397   -0.0121 </r>
       <r>   11.8366   -0.0022 </r>
       <r>   11.9640   -0.0001 </r>
       <r>   12.3338   -0.0000 </r>
       <r>   12.5407   -0.0000 </r>
       <r>   12.7439   -0.0000 </r>
       <r>   12.9004   -0.0000 </r>
       <r>   13.1326   -0.0000 </r>
       <r>   13.3209   -0.0000 </r>
       <r>   13.6540   -0.0000 </r>
       <r>   13.6971   -0.0000 </r>
       <r>   13.8980   -0.0000 </r>
       <r>   14.0639   -0.0000 </r>
       <r>   14.4618   -0.0000 </r>
       <r>   14.5889   -0.0000 </r>
       <r>   14.6276   -0.0000 </r>
       <r>   14.8780   -0.0000 </r>
       <r>   15.0666   -0.0000 </r>
       <r>   15.2459   -0.0000 </r>
       <r>   15.3763   -0.0000 </r>
       <r>   15.4651   -0.0000 </r>
       <r>   15.7395   -0.0000 </r>
       <r>   15.9025   -0.0000 </r>
      </set>
      <set comment="kpoint 26">
       <r>   -1.8074    1.0000 </r>
       <r>   -1.2122    1.0000 </r>
       <r>   -0.1021    1.0000 </r>
       <r>    0.4042    1.0000 </r>
       <r>    0.7577    1.0000 </r>
       <r>    1.4590    1.0000 </r>
       <r>    1.8551    1.0000 </r>
       <r>    2.2606    1.0000 </r>
       <r>    2.4650    1.0000 </r>
       <r>    3.0538    1.0000 </r>
       <r>    3.5040    1.0000 </r>
       <r>    3.9944    1.0000 </r>
       <r>    4.2387    1.0000 </r>
       <r>    4.6717    1.0000 </r>
       <r>    4.7077    1.0000 </r>
       <r>    5.0756    1.0000 </r>
       <r>    5.4256    1.0000 </r>
       <r>    5.7576    1.0000 </r>
       <r>    6.2881    1.0000 </r>
       <r>    6.4328    1.0000 </r>
       <r>    6.5727    1.0000 </r>
       <r>    6.7520    1.0000 </r>
       <r>    6.9305    1.0000 </r>
       <r>    7.1502    1.0000 </r>
       <r>    7.3141    1.0000 </r>
       <r>    7.6513    1.0000 </r>
       <r>    8.0398    1.0000 </r>
       <r>    8.0858    1.0000 </r>
       <r>    8.3375    1.0000 </r>
       <r>    8.5692    1.0000 </r>
       <r>    9.0062    1.0000 </r>
       <r>    9.2418    1.0000 </r>
       <r>    9.5804    1.0000 </r>
       <r>    9.8496    1.0000 </r>
       <r>   10.0744    1.0000 </r>
       <r>   10.3034    1.0000 </r>
       <r>   10.4874    1.0000 </r>
       <r>   10.7219    1.0000 </r>
       <r>   10.9302    1.0042 </r>
       <r>   11.3046    0.7500 </r>
       <r>   11.4548    0.1649 </r>
       <r>   11.7366   -0.0126 </r>
       <r>   11.9058   -0.0005 </r>
       <r>   12.0949   -0.0000 </r>
       <r>   12.2227   -0.0000 </r>
       <r>   12.4028   -0.0000 </r>
       <r>   12.6445   -0.0000 </r>
       <r>   12.9294   -0.0000 </r>
       <r>   13.1289   -0.0000 </r>
       <r>   13.3843   -0.0000 </r>
       <r>   13.5783   -0.0000 </r>
       <r>   13.6919   -0.0000 </r>
       <r>   14.0297   -0.0000 </r>
       <r>   14.2517   -0.0000 </r>
       <r>   14.3819   -0.0000 </r>
       <r>   14.5915   -0.0000 </r>
       <r>   14.7768   -0.0000 </r>
       <r>   14.9448   -0.0000 </r>
       <r>   15.0360   -0.0000 </r>
       <r>   15.1310   -0.0000 </r>
       <r>   15.3815   -0.0000 </r>
       <r>   15.5692   -0.0000 </r>
       <r>   15.6607   -0.0000 </r>
       <r>   15.9222   -0.0000 </r>
      </set>
      <set comment="kpoint 27">
       <r>   -1.7093    1.0000 </r>
       <r>   -1.4065    1.0000 </r>
       <r>    0.0078    1.0000 </r>
       <r>    0.4856    1.0000 </r>
       <r>    0.8818    1.0000 </r>
       <r>    1.4139    1.0000 </r>
       <r>    1.6868    1.0000 </r>
       <r>    1.9787    1.0000 </r>
       <r>    2.5922    1.0000 </r>
       <r>    3.0963    1.0000 </r>
       <r>    3.6278    1.0000 </r>
       <r>    3.8398    1.0000 </r>
       <r>    4.2454    1.0000 </r>
       <r>    4.7398    1.0000 </r>
       <r>    5.0471    1.0000 </r>
       <r>    5.1146    1.0000 </r>
       <r>    5.4001    1.0000 </r>
       <r>    5.8582    1.0000 </r>
       <r>    6.0866    1.0000 </r>
       <r>    6.2548    1.0000 </r>
       <r>    6.4000    1.0000 </r>
       <r>    6.7322    1.0000 </r>
       <r>    6.8943    1.0000 </r>
       <r>    7.1365    1.0000 </r>
       <r>    7.3713    1.0000 </r>
       <r>    7.6328    1.0000 </r>
       <r>    7.9288    1.0000 </r>
       <r>    8.2296    1.0000 </r>
       <r>    8.4502    1.0000 </r>
       <r>    8.8437    1.0000 </r>
       <r>    9.1498    1.0000 </r>
       <r>    9.2813    1.0000 </r>
       <r>    9.4156    1.0000 </r>
       <r>    9.5648    1.0000 </r>
       <r>    9.9945    1.0000 </r>
       <r>   10.1459    1.0000 </r>
       <r>   10.1821    1.0000 </r>
       <r>   10.9074    1.0027 </r>
       <r>   11.1531    1.0309 </r>
       <r>   11.2685    0.8657 </r>
       <r>   11.4671    0.1293 </r>
       <r>   11.7511   -0.0102 </r>
       <r>   11.9555   -0.0001 </r>
       <r>   12.1667   -0.0000 </r>
       <r>   12.2559   -0.0000 </r>
       <r>   12.5296   -0.0000 </r>
       <r>   12.9136   -0.0000 </r>
       <r>   12.9621   -0.0000 </r>
       <r>   13.2854   -0.0000 </r>
       <r>   13.4833   -0.0000 </r>
       <r>   13.6715   -0.0000 </r>
       <r>   13.8043   -0.0000 </r>
       <r>   13.9191   -0.0000 </r>
       <r>   14.1207   -0.0000 </r>
       <r>   14.1900   -0.0000 </r>
       <r>   14.3515   -0.0000 </r>
       <r>   14.6586   -0.0000 </r>
       <r>   14.8479   -0.0000 </r>
       <r>   15.0802   -0.0000 </r>
       <r>   15.1331   -0.0000 </r>
       <r>   15.3079   -0.0000 </r>
       <r>   15.4840   -0.0000 </r>
       <r>   15.7272   -0.0000 </r>
       <r>   15.8965   -0.0000 </r>
      </set>
      <set comment="kpoint 28">
       <r>   -1.7303    1.0000 </r>
       <r>   -1.3545    1.0000 </r>
       <r>    0.0556    1.0000 </r>
       <r>    0.3308    1.0000 </r>
       <r>    0.7881    1.0000 </r>
       <r>    1.4289    1.0000 </r>
       <r>    1.7922    1.0000 </r>
       <r>    1.9859    1.0000 </r>
       <r>    2.7011    1.0000 </r>
       <r>    3.2192    1.0000 </r>
       <r>    3.6368    1.0000 </r>
       <r>    3.8753    1.0000 </r>
       <r>    4.1731    1.0000 </r>
       <r>    4.8209    1.0000 </r>
       <r>    4.9316    1.0000 </r>
       <r>    5.1436    1.0000 </r>
       <r>    5.2892    1.0000 </r>
       <r>    5.6761    1.0000 </r>
       <r>    6.0963    1.0000 </r>
       <r>    6.3298    1.0000 </r>
       <r>    6.5040    1.0000 </r>
       <r>    6.6294    1.0000 </r>
       <r>    6.8155    1.0000 </r>
       <r>    7.0412    1.0000 </r>
       <r>    7.1923    1.0000 </r>
       <r>    7.5145    1.0000 </r>
       <r>    8.0730    1.0000 </r>
       <r>    8.2022    1.0000 </r>
       <r>    8.3354    1.0000 </r>
       <r>    8.8620    1.0000 </r>
       <r>    9.2949    1.0000 </r>
       <r>    9.4226    1.0000 </r>
       <r>    9.7322    1.0000 </r>
       <r>    9.8562    1.0000 </r>
       <r>   10.0658    1.0000 </r>
       <r>   10.2127    1.0000 </r>
       <r>   10.4712    1.0000 </r>
       <r>   10.7578    1.0001 </r>
       <r>   11.0182    1.0167 </r>
       <r>   11.2551    0.9008 </r>
       <r>   11.5672   -0.0253 </r>
       <r>   11.6074   -0.0354 </r>
       <r>   11.8824   -0.0008 </r>
       <r>   12.2074   -0.0000 </r>
       <r>   12.3410   -0.0000 </r>
       <r>   12.5536   -0.0000 </r>
       <r>   12.6833   -0.0000 </r>
       <r>   12.8506   -0.0000 </r>
       <r>   13.1092   -0.0000 </r>
       <r>   13.2769   -0.0000 </r>
       <r>   13.5612   -0.0000 </r>
       <r>   13.6911   -0.0000 </r>
       <r>   13.9202   -0.0000 </r>
       <r>   13.9791   -0.0000 </r>
       <r>   14.2742   -0.0000 </r>
       <r>   14.4150   -0.0000 </r>
       <r>   14.5368   -0.0000 </r>
       <r>   14.7657   -0.0000 </r>
       <r>   14.9306   -0.0000 </r>
       <r>   15.1293   -0.0000 </r>
       <r>   15.3229   -0.0000 </r>
       <r>   15.6248   -0.0000 </r>
       <r>   15.7601   -0.0000 </r>
       <r>   15.9835   -0.0000 </r>
      </set>
      <set comment="kpoint 29">
       <r>   -2.1882    1.0000 </r>
       <r>   -0.6779    1.0000 </r>
       <r>    0.1796    1.0000 </r>
       <r>    0.5991    1.0000 </r>
       <r>    1.1681    1.0000 </r>
       <r>    1.3730    1.0000 </r>
       <r>    1.6074    1.0000 </r>
       <r>    1.8508    1.0000 </r>
       <r>    2.2455    1.0000 </r>
       <r>    2.9050    1.0000 </r>
       <r>    3.1943    1.0000 </r>
       <r>    3.4983    1.0000 </r>
       <r>    3.6827    1.0000 </r>
       <r>    4.4076    1.0000 </r>
       <r>    4.6072    1.0000 </r>
       <r>    4.6908    1.0000 </r>
       <r>    5.6847    1.0000 </r>
       <r>    5.9902    1.0000 </r>
       <r>    6.2794    1.0000 </r>
       <r>    6.5053    1.0000 </r>
       <r>    7.0313    1.0000 </r>
       <r>    7.1929    1.0000 </r>
       <r>    7.4434    1.0000 </r>
       <r>    7.6751    1.0000 </r>
       <r>    8.0053    1.0000 </r>
       <r>    8.1266    1.0000 </r>
       <r>    8.4208    1.0000 </r>
       <r>    8.5610    1.0000 </r>
       <r>    8.9387    1.0000 </r>
       <r>    9.0206    1.0000 </r>
       <r>    9.2516    1.0000 </r>
       <r>    9.4393    1.0000 </r>
       <r>    9.6039    1.0000 </r>
       <r>    9.7809    1.0000 </r>
       <r>   10.0575    1.0000 </r>
       <r>   10.1142    1.0000 </r>
       <r>   10.2915    1.0000 </r>
       <r>   10.6364    1.0000 </r>
       <r>   10.7933    1.0002 </r>
       <r>   11.0567    1.0253 </r>
       <r>   11.1918    1.0069 </r>
       <r>   11.4300    0.2469 </r>
       <r>   11.5709   -0.0271 </r>
       <r>   11.6901   -0.0223 </r>
       <r>   11.8978   -0.0006 </r>
       <r>   12.0378   -0.0000 </r>
       <r>   12.2306   -0.0000 </r>
       <r>   12.3810   -0.0000 </r>
       <r>   12.5768   -0.0000 </r>
       <r>   12.6350   -0.0000 </r>
       <r>   12.9603   -0.0000 </r>
       <r>   13.0697   -0.0000 </r>
       <r>   13.3945   -0.0000 </r>
       <r>   13.5654   -0.0000 </r>
       <r>   13.8679   -0.0000 </r>
       <r>   14.1735   -0.0000 </r>
       <r>   14.3042   -0.0000 </r>
       <r>   14.5757   -0.0000 </r>
       <r>   14.8976   -0.0000 </r>
       <r>   14.9985   -0.0000 </r>
       <r>   15.2230   -0.0000 </r>
       <r>   15.6098   -0.0000 </r>
       <r>   15.8024   -0.0000 </r>
       <r>   16.0255   -0.0000 </r>
      </set>
      <set comment="kpoint 30">
       <r>   -2.2111    1.0000 </r>
       <r>   -0.5272    1.0000 </r>
       <r>    0.1038    1.0000 </r>
       <r>    0.5765    1.0000 </r>
       <r>    0.9461    1.0000 </r>
       <r>    1.3308    1.0000 </r>
       <r>    1.7346    1.0000 </r>
       <r>    2.0912    1.0000 </r>
       <r>    2.2466    1.0000 </r>
       <r>    2.7521    1.0000 </r>
       <r>    3.1848    1.0000 </r>
       <r>    3.4390    1.0000 </r>
       <r>    3.8092    1.0000 </r>
       <r>    3.8709    1.0000 </r>
       <r>    4.9146    1.0000 </r>
       <r>    5.0825    1.0000 </r>
       <r>    5.5739    1.0000 </r>
       <r>    6.0473    1.0000 </r>
       <r>    6.1856    1.0000 </r>
       <r>    6.5748    1.0000 </r>
       <r>    6.9669    1.0000 </r>
       <r>    7.3130    1.0000 </r>
       <r>    7.4935    1.0000 </r>
       <r>    7.8153    1.0000 </r>
       <r>    8.0327    1.0000 </r>
       <r>    8.1727    1.0000 </r>
       <r>    8.4846    1.0000 </r>
       <r>    8.5492    1.0000 </r>
       <r>    8.7248    1.0000 </r>
       <r>    8.9620    1.0000 </r>
       <r>    9.1166    1.0000 </r>
       <r>    9.3680    1.0000 </r>
       <r>    9.4211    1.0000 </r>
       <r>    9.6740    1.0000 </r>
       <r>    9.8715    1.0000 </r>
       <r>   10.1891    1.0000 </r>
       <r>   10.2356    1.0000 </r>
       <r>   10.5787    1.0000 </r>
       <r>   10.8406    1.0006 </r>
       <r>   10.9054    1.0026 </r>
       <r>   11.1300    1.0352 </r>
       <r>   11.3619    0.5209 </r>
       <r>   11.4655    0.1337 </r>
       <r>   11.6010   -0.0350 </r>
       <r>   11.9421   -0.0002 </r>
       <r>   12.1286   -0.0000 </r>
       <r>   12.2524   -0.0000 </r>
       <r>   12.5996   -0.0000 </r>
       <r>   12.6927   -0.0000 </r>
       <r>   12.9716   -0.0000 </r>
       <r>   13.1739   -0.0000 </r>
       <r>   13.3363   -0.0000 </r>
       <r>   13.5343   -0.0000 </r>
       <r>   13.6969   -0.0000 </r>
       <r>   13.9587   -0.0000 </r>
       <r>   14.0918   -0.0000 </r>
       <r>   14.3262   -0.0000 </r>
       <r>   14.4820   -0.0000 </r>
       <r>   14.9256   -0.0000 </r>
       <r>   15.0776   -0.0000 </r>
       <r>   15.1563   -0.0000 </r>
       <r>   15.4255   -0.0000 </r>
       <r>   15.8168   -0.0000 </r>
       <r>   16.2880   -0.0000 </r>
      </set>
      <set comment="kpoint 31">
       <r>   -2.1906    1.0000 </r>
       <r>   -0.6424    1.0000 </r>
       <r>    0.1291    1.0000 </r>
       <r>    0.6119    1.0000 </r>
       <r>    0.9819    1.0000 </r>
       <r>    1.4077    1.0000 </r>
       <r>    1.6818    1.0000 </r>
       <r>    2.0967    1.0000 </r>
       <r>    2.3928    1.0000 </r>
       <r>    2.7155    1.0000 </r>
       <r>    2.9539    1.0000 </r>
       <r>    3.4446    1.0000 </r>
       <r>    3.7912    1.0000 </r>
       <r>    4.2872    1.0000 </r>
       <r>    4.7444    1.0000 </r>
       <r>    4.9494    1.0000 </r>
       <r>    5.4486    1.0000 </r>
       <r>    5.8935    1.0000 </r>
       <r>    6.1927    1.0000 </r>
       <r>    6.5359    1.0000 </r>
       <r>    7.0914    1.0000 </r>
       <r>    7.2916    1.0000 </r>
       <r>    7.4949    1.0000 </r>
       <r>    7.6532    1.0000 </r>
       <r>    8.0285    1.0000 </r>
       <r>    8.2414    1.0000 </r>
       <r>    8.4181    1.0000 </r>
       <r>    8.6928    1.0000 </r>
       <r>    8.7804    1.0000 </r>
       <r>    9.0545    1.0000 </r>
       <r>    9.1992    1.0000 </r>
       <r>    9.3607    1.0000 </r>
       <r>    9.5829    1.0000 </r>
       <r>    9.9194    1.0000 </r>
       <r>    9.9859    1.0000 </r>
       <r>   10.1702    1.0000 </r>
       <r>   10.4744    1.0000 </r>
       <r>   10.5743    1.0000 </r>
       <r>   10.7286    1.0000 </r>
       <r>   10.8448    1.0007 </r>
       <r>   10.9990    1.0130 </r>
       <r>   11.1884    1.0101 </r>
       <r>   11.5267    0.0102 </r>
       <r>   11.7520   -0.0101 </r>
       <r>   11.8472   -0.0018 </r>
       <r>   12.1225   -0.0000 </r>
       <r>   12.2866   -0.0000 </r>
       <r>   12.4582   -0.0000 </r>
       <r>   12.5593   -0.0000 </r>
       <r>   12.7292   -0.0000 </r>
       <r>   13.0991   -0.0000 </r>
       <r>   13.2275   -0.0000 </r>
       <r>   13.4250   -0.0000 </r>
       <r>   13.6138   -0.0000 </r>
       <r>   13.9238   -0.0000 </r>
       <r>   14.1455   -0.0000 </r>
       <r>   14.4646   -0.0000 </r>
       <r>   14.6463   -0.0000 </r>
       <r>   14.8014   -0.0000 </r>
       <r>   15.1046   -0.0000 </r>
       <r>   15.2850   -0.0000 </r>
       <r>   15.5642   -0.0000 </r>
       <r>   15.6344   -0.0000 </r>
       <r>   15.9625   -0.0000 </r>
      </set>
      <set comment="kpoint 32">
       <r>   -2.2093    1.0000 </r>
       <r>   -0.5531    1.0000 </r>
       <r>    0.1472    1.0000 </r>
       <r>    0.5054    1.0000 </r>
       <r>    1.0661    1.0000 </r>
       <r>    1.2696    1.0000 </r>
       <r>    1.8262    1.0000 </r>
       <r>    1.9722    1.0000 </r>
       <r>    2.4117    1.0000 </r>
       <r>    2.5958    1.0000 </r>
       <r>    3.0962    1.0000 </r>
       <r>    3.4791    1.0000 </r>
       <r>    3.7580    1.0000 </r>
       <r>    3.9642    1.0000 </r>
       <r>    4.9194    1.0000 </r>
       <r>    5.1255    1.0000 </r>
       <r>    5.5202    1.0000 </r>
       <r>    6.0301    1.0000 </r>
       <r>    6.2241    1.0000 </r>
       <r>    6.6780    1.0000 </r>
       <r>    6.8644    1.0000 </r>
       <r>    7.1426    1.0000 </r>
       <r>    7.5912    1.0000 </r>
       <r>    7.8978    1.0000 </r>
       <r>    8.1611    1.0000 </r>
       <r>    8.1980    1.0000 </r>
       <r>    8.2618    1.0000 </r>
       <r>    8.6252    1.0000 </r>
       <r>    8.7373    1.0000 </r>
       <r>    9.0054    1.0000 </r>
       <r>    9.2880    1.0000 </r>
       <r>    9.3605    1.0000 </r>
       <r>    9.4386    1.0000 </r>
       <r>    9.5633    1.0000 </r>
       <r>    9.8797    1.0000 </r>
       <r>   10.0464    1.0000 </r>
       <r>   10.3419    1.0000 </r>
       <r>   10.5698    1.0000 </r>
       <r>   10.7685    1.0001 </r>
       <r>   10.8811    1.0016 </r>
       <r>   11.0510    1.0240 </r>
       <r>   11.2080    0.9885 </r>
       <r>   11.4920    0.0689 </r>
       <r>   11.5914   -0.0336 </r>
       <r>   11.8361   -0.0022 </r>
       <r>   12.1527   -0.0000 </r>
       <r>   12.4137   -0.0000 </r>
       <r>   12.5995   -0.0000 </r>
       <r>   12.7672   -0.0000 </r>
       <r>   12.9633   -0.0000 </r>
       <r>   13.1654   -0.0000 </r>
       <r>   13.3248   -0.0000 </r>
       <r>   13.4748   -0.0000 </r>
       <r>   13.9182   -0.0000 </r>
       <r>   13.9851   -0.0000 </r>
       <r>   14.2019   -0.0000 </r>
       <r>   14.3242   -0.0000 </r>
       <r>   14.5340   -0.0000 </r>
       <r>   14.7494   -0.0000 </r>
       <r>   14.9423   -0.0000 </r>
       <r>   15.2477   -0.0000 </r>
       <r>   15.4629   -0.0000 </r>
       <r>   15.6761   -0.0000 </r>
       <r>   16.2104   -0.0000 </r>
      </set>
      <set comment="kpoint 33">
       <r>   -2.1918    1.0000 </r>
       <r>   -0.6060    1.0000 </r>
       <r>    0.0037    1.0000 </r>
       <r>    0.6243    1.0000 </r>
       <r>    1.1728    1.0000 </r>
       <r>    1.4126    1.0000 </r>
       <r>    1.7984    1.0000 </r>
       <r>    1.9089    1.0000 </r>
       <r>    2.2332    1.0000 </r>
       <r>    2.7691    1.0000 </r>
       <r>    3.0794    1.0000 </r>
       <r>    3.2122    1.0000 </r>
       <r>    4.0404    1.0000 </r>
       <r>    4.3459    1.0000 </r>
       <r>    4.6361    1.0000 </r>
       <r>    4.7282    1.0000 </r>
       <r>    5.5669    1.0000 </r>
       <r>    5.9401    1.0000 </r>
       <r>    6.2622    1.0000 </r>
       <r>    6.6675    1.0000 </r>
       <r>    6.9308    1.0000 </r>
       <r>    7.2753    1.0000 </r>
       <r>    7.4397    1.0000 </r>
       <r>    7.8215    1.0000 </r>
       <r>    8.0136    1.0000 </r>
       <r>    8.2149    1.0000 </r>
       <r>    8.3774    1.0000 </r>
       <r>    8.6603    1.0000 </r>
       <r>    8.9184    1.0000 </r>
       <r>    9.0639    1.0000 </r>
       <r>    9.2121    1.0000 </r>
       <r>    9.3813    1.0000 </r>
       <r>    9.6524    1.0000 </r>
       <r>    9.7479    1.0000 </r>
       <r>   10.0243    1.0000 </r>
       <r>   10.1389    1.0000 </r>
       <r>   10.2318    1.0000 </r>
       <r>   10.4195    1.0000 </r>
       <r>   10.6999    1.0000 </r>
       <r>   10.8676    1.0012 </r>
       <r>   11.2151    0.9787 </r>
       <r>   11.4018    0.3545 </r>
       <r>   11.4939    0.0648 </r>
       <r>   11.6796   -0.0247 </r>
       <r>   11.8838   -0.0008 </r>
       <r>   12.0512   -0.0000 </r>
       <r>   12.2708   -0.0000 </r>
       <r>   12.3775   -0.0000 </r>
       <r>   12.6210   -0.0000 </r>
       <r>   12.8030   -0.0000 </r>
       <r>   13.0499   -0.0000 </r>
       <r>   13.2274   -0.0000 </r>
       <r>   13.4004   -0.0000 </r>
       <r>   13.5407   -0.0000 </r>
       <r>   13.9090   -0.0000 </r>
       <r>   14.1856   -0.0000 </r>
       <r>   14.3482   -0.0000 </r>
       <r>   14.7360   -0.0000 </r>
       <r>   14.7814   -0.0000 </r>
       <r>   14.9251   -0.0000 </r>
       <r>   15.2385   -0.0000 </r>
       <r>   15.7013   -0.0000 </r>
       <r>   15.8713   -0.0000 </r>
       <r>   16.1744   -0.0000 </r>
      </set>
      <set comment="kpoint 34">
       <r>   -2.1948    1.0000 </r>
       <r>   -0.5703    1.0000 </r>
       <r>   -0.0039    1.0000 </r>
       <r>    0.6461    1.0000 </r>
       <r>    0.9375    1.0000 </r>
       <r>    1.4909    1.0000 </r>
       <r>    1.7959    1.0000 </r>
       <r>    2.0667    1.0000 </r>
       <r>    2.2538    1.0000 </r>
       <r>    2.7266    1.0000 </r>
       <r>    3.0516    1.0000 </r>
       <r>    3.4608    1.0000 </r>
       <r>    3.6343    1.0000 </r>
       <r>    4.3675    1.0000 </r>
       <r>    4.7671    1.0000 </r>
       <r>    4.9709    1.0000 </r>
       <r>    5.3378    1.0000 </r>
       <r>    6.0028    1.0000 </r>
       <r>    6.1809    1.0000 </r>
       <r>    6.4736    1.0000 </r>
       <r>    6.9857    1.0000 </r>
       <r>    7.3130    1.0000 </r>
       <r>    7.4962    1.0000 </r>
       <r>    7.9288    1.0000 </r>
       <r>    8.0762    1.0000 </r>
       <r>    8.3054    1.0000 </r>
       <r>    8.4053    1.0000 </r>
       <r>    8.5342    1.0000 </r>
       <r>    8.6604    1.0000 </r>
       <r>    8.9922    1.0000 </r>
       <r>    9.2448    1.0000 </r>
       <r>    9.4884    1.0000 </r>
       <r>    9.6467    1.0000 </r>
       <r>    9.7785    1.0000 </r>
       <r>    9.8740    1.0000 </r>
       <r>   10.1934    1.0000 </r>
       <r>   10.3003    1.0000 </r>
       <r>   10.5752    1.0000 </r>
       <r>   10.8195    1.0004 </r>
       <r>   10.9139    1.0031 </r>
       <r>   11.1848    1.0131 </r>
       <r>   11.3329    0.6414 </r>
       <r>   11.4681    0.1266 </r>
       <r>   11.5900   -0.0333 </r>
       <r>   11.7268   -0.0145 </r>
       <r>   12.1046   -0.0000 </r>
       <r>   12.2411   -0.0000 </r>
       <r>   12.4214   -0.0000 </r>
       <r>   12.6215   -0.0000 </r>
       <r>   12.8075   -0.0000 </r>
       <r>   13.0685   -0.0000 </r>
       <r>   13.1782   -0.0000 </r>
       <r>   13.4853   -0.0000 </r>
       <r>   13.7840   -0.0000 </r>
       <r>   13.9497   -0.0000 </r>
       <r>   14.1666   -0.0000 </r>
       <r>   14.4150   -0.0000 </r>
       <r>   14.5260   -0.0000 </r>
       <r>   14.7860   -0.0000 </r>
       <r>   15.1633   -0.0000 </r>
       <r>   15.2815   -0.0000 </r>
       <r>   15.5860   -0.0000 </r>
       <r>   15.7201   -0.0000 </r>
       <r>   16.3074   -0.0000 </r>
      </set>
      <set comment="kpoint 35">
       <r>   -2.1923    1.0000 </r>
       <r>   -0.6327    1.0000 </r>
       <r>    0.0815    1.0000 </r>
       <r>    0.6489    1.0000 </r>
       <r>    1.0919    1.0000 </r>
       <r>    1.3820    1.0000 </r>
       <r>    1.7510    1.0000 </r>
       <r>    1.8843    1.0000 </r>
       <r>    2.4192    1.0000 </r>
       <r>    2.4821    1.0000 </r>
       <r>    3.1831    1.0000 </r>
       <r>    3.5262    1.0000 </r>
       <r>    3.8646    1.0000 </r>
       <r>    4.3164    1.0000 </r>
       <r>    4.6536    1.0000 </r>
       <r>    4.7779    1.0000 </r>
       <r>    5.3394    1.0000 </r>
       <r>    6.1757    1.0000 </r>
       <r>    6.3371    1.0000 </r>
       <r>    6.6292    1.0000 </r>
       <r>    6.9938    1.0000 </r>
       <r>    7.0930    1.0000 </r>
       <r>    7.5657    1.0000 </r>
       <r>    7.7645    1.0000 </r>
       <r>    7.8353    1.0000 </r>
       <r>    8.1858    1.0000 </r>
       <r>    8.4123    1.0000 </r>
       <r>    8.6699    1.0000 </r>
       <r>    8.8973    1.0000 </r>
       <r>    9.0693    1.0000 </r>
       <r>    9.1797    1.0000 </r>
       <r>    9.4009    1.0000 </r>
       <r>    9.5414    1.0000 </r>
       <r>    9.7745    1.0000 </r>
       <r>   10.0003    1.0000 </r>
       <r>   10.1441    1.0000 </r>
       <r>   10.3099    1.0000 </r>
       <r>   10.4423    1.0000 </r>
       <r>   10.8779    1.0015 </r>
       <r>   11.0195    1.0170 </r>
       <r>   11.2240    0.9648 </r>
       <r>   11.3987    0.3673 </r>
       <r>   11.5275    0.0092 </r>
       <r>   11.6521   -0.0308 </r>
       <r>   11.8479   -0.0017 </r>
       <r>   12.0209   -0.0000 </r>
       <r>   12.2333   -0.0000 </r>
       <r>   12.3038   -0.0000 </r>
       <r>   12.5920   -0.0000 </r>
       <r>   12.7367   -0.0000 </r>
       <r>   13.0437   -0.0000 </r>
       <r>   13.2456   -0.0000 </r>
       <r>   13.5761   -0.0000 </r>
       <r>   13.6712   -0.0000 </r>
       <r>   13.8759   -0.0000 </r>
       <r>   14.1386   -0.0000 </r>
       <r>   14.3070   -0.0000 </r>
       <r>   14.5399   -0.0000 </r>
       <r>   14.6695   -0.0000 </r>
       <r>   15.0996   -0.0000 </r>
       <r>   15.3636   -0.0000 </r>
       <r>   15.5421   -0.0000 </r>
       <r>   15.7726   -0.0000 </r>
       <r>   16.2896   -0.0000 </r>
      </set>
      <set comment="kpoint 36">
       <r>   -2.2089    1.0000 </r>
       <r>   -0.5392    1.0000 </r>
       <r>    0.1720    1.0000 </r>
       <r>    0.5433    1.0000 </r>
       <r>    0.8231    1.0000 </r>
       <r>    1.3058    1.0000 </r>
       <r>    1.8243    1.0000 </r>
       <r>    2.1677    1.0000 </r>
       <r>    2.2808    1.0000 </r>
       <r>    2.8099    1.0000 </r>
       <r>    3.1958    1.0000 </r>
       <r>    3.4339    1.0000 </r>
       <r>    3.6315    1.0000 </r>
       <r>    3.8683    1.0000 </r>
       <r>    4.8869    1.0000 </r>
       <r>    5.0813    1.0000 </r>
       <r>    5.5554    1.0000 </r>
       <r>    6.1297    1.0000 </r>
       <r>    6.3643    1.0000 </r>
       <r>    6.5341    1.0000 </r>
       <r>    6.8092    1.0000 </r>
       <r>    7.2154    1.0000 </r>
       <r>    7.4451    1.0000 </r>
       <r>    7.9124    1.0000 </r>
       <r>    8.0906    1.0000 </r>
       <r>    8.2050    1.0000 </r>
       <r>    8.4288    1.0000 </r>
       <r>    8.6155    1.0000 </r>
       <r>    8.6545    1.0000 </r>
       <r>    8.8305    1.0000 </r>
       <r>    9.1789    1.0000 </r>
       <r>    9.4190    1.0000 </r>
       <r>    9.5099    1.0000 </r>
       <r>    9.6553    1.0000 </r>
       <r>    9.8069    1.0000 </r>
       <r>   10.0956    1.0000 </r>
       <r>   10.3518    1.0000 </r>
       <r>   10.6874    1.0000 </r>
       <r>   10.7995    1.0002 </r>
       <r>   11.1018    1.0341 </r>
       <r>   11.2630    0.8804 </r>
       <r>   11.3841    0.4275 </r>
       <r>   11.5515   -0.0152 </r>
       <r>   11.6432   -0.0324 </r>
       <r>   11.8063   -0.0040 </r>
       <r>   12.0189   -0.0000 </r>
       <r>   12.2021   -0.0000 </r>
       <r>   12.5559   -0.0000 </r>
       <r>   12.6760   -0.0000 </r>
       <r>   12.8198   -0.0000 </r>
       <r>   12.9667   -0.0000 </r>
       <r>   13.3159   -0.0000 </r>
       <r>   13.5964   -0.0000 </r>
       <r>   13.8446   -0.0000 </r>
       <r>   13.9062   -0.0000 </r>
       <r>   14.0266   -0.0000 </r>
       <r>   14.3493   -0.0000 </r>
       <r>   14.5301   -0.0000 </r>
       <r>   14.7412   -0.0000 </r>
       <r>   14.8704   -0.0000 </r>
       <r>   15.1995   -0.0000 </r>
       <r>   15.5588   -0.0000 </r>
       <r>   15.8118   -0.0000 </r>
       <r>   16.1090   -0.0000 </r>
      </set>
      <set comment="kpoint 37">
       <r>   -2.1939    1.0000 </r>
       <r>   -0.5397    1.0000 </r>
       <r>   -0.0383    1.0000 </r>
       <r>    0.6049    1.0000 </r>
       <r>    0.8605    1.0000 </r>
       <r>    1.5823    1.0000 </r>
       <r>    1.8545    1.0000 </r>
       <r>    2.0944    1.0000 </r>
       <r>    2.4310    1.0000 </r>
       <r>    2.5843    1.0000 </r>
       <r>    3.0448    1.0000 </r>
       <r>    3.3130    1.0000 </r>
       <r>    3.7786    1.0000 </r>
       <r>    4.1866    1.0000 </r>
       <r>    4.8226    1.0000 </r>
       <r>    4.9477    1.0000 </r>
       <r>    5.3522    1.0000 </r>
       <r>    5.8801    1.0000 </r>
       <r>    6.3142    1.0000 </r>
       <r>    6.5358    1.0000 </r>
       <r>    7.0336    1.0000 </r>
       <r>    7.1803    1.0000 </r>
       <r>    7.5552    1.0000 </r>
       <r>    7.8454    1.0000 </r>
       <r>    8.1458    1.0000 </r>
       <r>    8.2564    1.0000 </r>
       <r>    8.4216    1.0000 </r>
       <r>    8.6605    1.0000 </r>
       <r>    8.8461    1.0000 </r>
       <r>    9.0109    1.0000 </r>
       <r>    9.1372    1.0000 </r>
       <r>    9.3248    1.0000 </r>
       <r>    9.5356    1.0000 </r>
       <r>    9.7836    1.0000 </r>
       <r>    9.8862    1.0000 </r>
       <r>   10.1906    1.0000 </r>
       <r>   10.2678    1.0000 </r>
       <r>   10.6723    1.0000 </r>
       <r>   10.8742    1.0014 </r>
       <r>   10.9926    1.0118 </r>
       <r>   11.2074    0.9894 </r>
       <r>   11.3165    0.7056 </r>
       <r>   11.4230    0.2725 </r>
       <r>   11.6400   -0.0329 </r>
       <r>   11.9690   -0.0001 </r>
       <r>   12.0758   -0.0000 </r>
       <r>   12.2183   -0.0000 </r>
       <r>   12.3435   -0.0000 </r>
       <r>   12.4691   -0.0000 </r>
       <r>   12.7550   -0.0000 </r>
       <r>   13.0605   -0.0000 </r>
       <r>   13.1856   -0.0000 </r>
       <r>   13.4007   -0.0000 </r>
       <r>   13.6223   -0.0000 </r>
       <r>   14.0227   -0.0000 </r>
       <r>   14.1844   -0.0000 </r>
       <r>   14.3572   -0.0000 </r>
       <r>   14.5890   -0.0000 </r>
       <r>   14.7022   -0.0000 </r>
       <r>   15.0599   -0.0000 </r>
       <r>   15.3056   -0.0000 </r>
       <r>   15.4780   -0.0000 </r>
       <r>   15.8024   -0.0000 </r>
       <r>   16.2168   -0.0000 </r>
      </set>
      <set comment="kpoint 38">
       <r>   -2.2101    1.0000 </r>
       <r>   -0.4867    1.0000 </r>
       <r>    0.0381    1.0000 </r>
       <r>    0.5152    1.0000 </r>
       <r>    0.9182    1.0000 </r>
       <r>    1.3606    1.0000 </r>
       <r>    1.9925    1.0000 </r>
       <r>    2.0484    1.0000 </r>
       <r>    2.2940    1.0000 </r>
       <r>    2.8493    1.0000 </r>
       <r>    3.0366    1.0000 </r>
       <r>    3.1835    1.0000 </r>
       <r>    3.7624    1.0000 </r>
       <r>    3.9780    1.0000 </r>
       <r>    4.9691    1.0000 </r>
       <r>    5.0876    1.0000 </r>
       <r>    5.4932    1.0000 </r>
       <r>    6.0395    1.0000 </r>
       <r>    6.2419    1.0000 </r>
       <r>    6.6088    1.0000 </r>
       <r>    7.0115    1.0000 </r>
       <r>    7.0967    1.0000 </r>
       <r>    7.5711    1.0000 </r>
       <r>    7.8744    1.0000 </r>
       <r>    8.1833    1.0000 </r>
       <r>    8.2645    1.0000 </r>
       <r>    8.3376    1.0000 </r>
       <r>    8.6587    1.0000 </r>
       <r>    8.7934    1.0000 </r>
       <r>    8.9439    1.0000 </r>
       <r>    9.1134    1.0000 </r>
       <r>    9.3364    1.0000 </r>
       <r>    9.3958    1.0000 </r>
       <r>    9.5607    1.0000 </r>
       <r>    9.8600    1.0000 </r>
       <r>   10.0083    1.0000 </r>
       <r>   10.3214    1.0000 </r>
       <r>   10.6756    1.0000 </r>
       <r>   10.9108    1.0029 </r>
       <r>   10.9909    1.0116 </r>
       <r>   11.1202    1.0354 </r>
       <r>   11.2733    0.8519 </r>
       <r>   11.4408    0.2095 </r>
       <r>   11.6416   -0.0327 </r>
       <r>   11.9244   -0.0003 </r>
       <r>   11.9803   -0.0001 </r>
       <r>   12.3181   -0.0000 </r>
       <r>   12.5480   -0.0000 </r>
       <r>   12.7068   -0.0000 </r>
       <r>   12.9217   -0.0000 </r>
       <r>   13.0889   -0.0000 </r>
       <r>   13.3936   -0.0000 </r>
       <r>   13.4420   -0.0000 </r>
       <r>   13.8568   -0.0000 </r>
       <r>   14.0162   -0.0000 </r>
       <r>   14.1557   -0.0000 </r>
       <r>   14.2057   -0.0000 </r>
       <r>   14.5075   -0.0000 </r>
       <r>   14.6471   -0.0000 </r>
       <r>   14.9810   -0.0000 </r>
       <r>   15.3152   -0.0000 </r>
       <r>   15.5294   -0.0000 </r>
       <r>   15.9096   -0.0000 </r>
       <r>   16.3161   -0.0000 </r>
      </set>
      <set comment="kpoint 39">
       <r>   -2.1879    1.0000 </r>
       <r>   -0.6859    1.0000 </r>
       <r>    0.1698    1.0000 </r>
       <r>    0.6269    1.0000 </r>
       <r>    1.0896    1.0000 </r>
       <r>    1.4386    1.0000 </r>
       <r>    1.6916    1.0000 </r>
       <r>    1.9855    1.0000 </r>
       <r>    2.1875    1.0000 </r>
       <r>    2.5151    1.0000 </r>
       <r>    3.2907    1.0000 </r>
       <r>    3.5116    1.0000 </r>
       <r>    3.8628    1.0000 </r>
       <r>    4.3212    1.0000 </r>
       <r>    4.6477    1.0000 </r>
       <r>    4.7611    1.0000 </r>
       <r>    5.3557    1.0000 </r>
       <r>    6.1395    1.0000 </r>
       <r>    6.3839    1.0000 </r>
       <r>    6.6246    1.0000 </r>
       <r>    7.0205    1.0000 </r>
       <r>    7.0532    1.0000 </r>
       <r>    7.4817    1.0000 </r>
       <r>    7.7341    1.0000 </r>
       <r>    7.9292    1.0000 </r>
       <r>    8.1391    1.0000 </r>
       <r>    8.4921    1.0000 </r>
       <r>    8.6829    1.0000 </r>
       <r>    8.9016    1.0000 </r>
       <r>    9.1028    1.0000 </r>
       <r>    9.1949    1.0000 </r>
       <r>    9.4095    1.0000 </r>
       <r>    9.6585    1.0000 </r>
       <r>    9.8055    1.0000 </r>
       <r>    9.9484    1.0000 </r>
       <r>   10.0528    1.0000 </r>
       <r>   10.3929    1.0000 </r>
       <r>   10.5014    1.0000 </r>
       <r>   10.6078    1.0000 </r>
       <r>   10.9188    1.0034 </r>
       <r>   11.0730    1.0290 </r>
       <r>   11.3071    0.7407 </r>
       <r>   11.6170   -0.0354 </r>
       <r>   11.7831   -0.0061 </r>
       <r>   11.8344   -0.0023 </r>
       <r>   12.1238   -0.0000 </r>
       <r>   12.2597   -0.0000 </r>
       <r>   12.4525   -0.0000 </r>
       <r>   12.5723   -0.0000 </r>
       <r>   12.8676   -0.0000 </r>
       <r>   13.0103   -0.0000 </r>
       <r>   13.1700   -0.0000 </r>
       <r>   13.3889   -0.0000 </r>
       <r>   13.6750   -0.0000 </r>
       <r>   13.9466   -0.0000 </r>
       <r>   14.1526   -0.0000 </r>
       <r>   14.2672   -0.0000 </r>
       <r>   14.5409   -0.0000 </r>
       <r>   14.7739   -0.0000 </r>
       <r>   15.0263   -0.0000 </r>
       <r>   15.3731   -0.0000 </r>
       <r>   15.4781   -0.0000 </r>
       <r>   15.7830   -0.0000 </r>
       <r>   16.0009   -0.0000 </r>
      </set>
      <set comment="kpoint 40">
       <r>   -2.1901    1.0000 </r>
       <r>   -0.6248    1.0000 </r>
       <r>    0.1410    1.0000 </r>
       <r>    0.5623    1.0000 </r>
       <r>    0.8676    1.0000 </r>
       <r>    1.5123    1.0000 </r>
       <r>    1.7018    1.0000 </r>
       <r>    2.1150    1.0000 </r>
       <r>    2.4067    1.0000 </r>
       <r>    2.7061    1.0000 </r>
       <r>    3.1150    1.0000 </r>
       <r>    3.4184    1.0000 </r>
       <r>    3.7694    1.0000 </r>
       <r>    4.0764    1.0000 </r>
       <r>    4.7732    1.0000 </r>
       <r>    4.9573    1.0000 </r>
       <r>    5.3475    1.0000 </r>
       <r>    5.9802    1.0000 </r>
       <r>    6.3945    1.0000 </r>
       <r>    6.5481    1.0000 </r>
       <r>    6.8527    1.0000 </r>
       <r>    7.3236    1.0000 </r>
       <r>    7.4839    1.0000 </r>
       <r>    7.7588    1.0000 </r>
       <r>    8.0015    1.0000 </r>
       <r>    8.2051    1.0000 </r>
       <r>    8.4110    1.0000 </r>
       <r>    8.5946    1.0000 </r>
       <r>    8.7197    1.0000 </r>
       <r>    9.0599    1.0000 </r>
       <r>    9.2254    1.0000 </r>
       <r>    9.4285    1.0000 </r>
       <r>    9.6127    1.0000 </r>
       <r>    9.8564    1.0000 </r>
       <r>   10.0306    1.0000 </r>
       <r>   10.2196    1.0000 </r>
       <r>   10.4335    1.0000 </r>
       <r>   10.5959    1.0000 </r>
       <r>   10.8043    1.0003 </r>
       <r>   10.9857    1.0107 </r>
       <r>   11.1480    1.0324 </r>
       <r>   11.2825    0.8243 </r>
       <r>   11.5311    0.0048 </r>
       <r>   11.6949   -0.0212 </r>
       <r>   11.8178   -0.0032 </r>
       <r>   12.1830   -0.0000 </r>
       <r>   12.2261   -0.0000 </r>
       <r>   12.3991   -0.0000 </r>
       <r>   12.4703   -0.0000 </r>
       <r>   12.7876   -0.0000 </r>
       <r>   13.0140   -0.0000 </r>
       <r>   13.1287   -0.0000 </r>
       <r>   13.4116   -0.0000 </r>
       <r>   13.6448   -0.0000 </r>
       <r>   13.7097   -0.0000 </r>
       <r>   13.9865   -0.0000 </r>
       <r>   14.3493   -0.0000 </r>
       <r>   14.6139   -0.0000 </r>
       <r>   14.7315   -0.0000 </r>
       <r>   15.0681   -0.0000 </r>
       <r>   15.3993   -0.0000 </r>
       <r>   15.6155   -0.0000 </r>
       <r>   15.7329   -0.0000 </r>
       <r>   16.3018   -0.0000 </r>
      </set>
      <set comment="kpoint 41">
       <r>   -1.9423    1.0000 </r>
       <r>   -0.7590    1.0000 </r>
       <r>   -0.3817    1.0000 </r>
       <r>    0.1644    1.0000 </r>
       <r>    0.6716    1.0000 </r>
       <r>    1.5592    1.0000 </r>
       <r>    2.1670    1.0000 </r>
       <r>    2.5113    1.0000 </r>
       <r>    2.7365    1.0000 </r>
       <r>    3.0269    1.0000 </r>
       <r>    3.4984    1.0000 </r>
       <r>    3.7370    1.0000 </r>
       <r>    4.0760    1.0000 </r>
       <r>    4.2517    1.0000 </r>
       <r>    4.6067    1.0000 </r>
       <r>    4.9093    1.0000 </r>
       <r>    5.1670    1.0000 </r>
       <r>    5.7463    1.0000 </r>
       <r>    5.9232    1.0000 </r>
       <r>    6.1293    1.0000 </r>
       <r>    6.4489    1.0000 </r>
       <r>    6.6750    1.0000 </r>
       <r>    7.3062    1.0000 </r>
       <r>    7.6622    1.0000 </r>
       <r>    7.8496    1.0000 </r>
       <r>    8.0656    1.0000 </r>
       <r>    8.2131    1.0000 </r>
       <r>    8.4460    1.0000 </r>
       <r>    8.8184    1.0000 </r>
       <r>    8.9984    1.0000 </r>
       <r>    9.2880    1.0000 </r>
       <r>    9.4386    1.0000 </r>
       <r>    9.5483    1.0000 </r>
       <r>    9.6543    1.0000 </r>
       <r>    9.8288    1.0000 </r>
       <r>   10.2416    1.0000 </r>
       <r>   10.3706    1.0000 </r>
       <r>   10.5540    1.0000 </r>
       <r>   10.7644    1.0001 </r>
       <r>   10.9451    1.0055 </r>
       <r>   11.1791    1.0176 </r>
       <r>   11.3494    0.5736 </r>
       <r>   11.6058   -0.0353 </r>
       <r>   11.8997   -0.0005 </r>
       <r>   12.0335   -0.0000 </r>
       <r>   12.2020   -0.0000 </r>
       <r>   12.4660   -0.0000 </r>
       <r>   12.6966   -0.0000 </r>
       <r>   13.0894   -0.0000 </r>
       <r>   13.2306   -0.0000 </r>
       <r>   13.6229   -0.0000 </r>
       <r>   13.8860   -0.0000 </r>
       <r>   14.1633   -0.0000 </r>
       <r>   14.2292   -0.0000 </r>
       <r>   14.4579   -0.0000 </r>
       <r>   14.7100   -0.0000 </r>
       <r>   14.8717   -0.0000 </r>
       <r>   14.9252   -0.0000 </r>
       <r>   15.2330   -0.0000 </r>
       <r>   15.3157   -0.0000 </r>
       <r>   15.4712   -0.0000 </r>
       <r>   15.6374   -0.0000 </r>
       <r>   15.7356   -0.0000 </r>
       <r>   15.9277   -0.0000 </r>
      </set>
      <set comment="kpoint 42">
       <r>   -1.9353    1.0000 </r>
       <r>   -0.8455    1.0000 </r>
       <r>   -0.3723    1.0000 </r>
       <r>    0.2328    1.0000 </r>
       <r>    0.9608    1.0000 </r>
       <r>    1.4124    1.0000 </r>
       <r>    1.9250    1.0000 </r>
       <r>    2.4205    1.0000 </r>
       <r>    2.7857    1.0000 </r>
       <r>    3.0343    1.0000 </r>
       <r>    3.3541    1.0000 </r>
       <r>    3.6969    1.0000 </r>
       <r>    4.0676    1.0000 </r>
       <r>    4.5058    1.0000 </r>
       <r>    4.7626    1.0000 </r>
       <r>    4.9143    1.0000 </r>
       <r>    5.3112    1.0000 </r>
       <r>    5.6812    1.0000 </r>
       <r>    5.9170    1.0000 </r>
       <r>    6.1304    1.0000 </r>
       <r>    6.4155    1.0000 </r>
       <r>    6.7799    1.0000 </r>
       <r>    7.2760    1.0000 </r>
       <r>    7.4624    1.0000 </r>
       <r>    7.8378    1.0000 </r>
       <r>    8.1539    1.0000 </r>
       <r>    8.2229    1.0000 </r>
       <r>    8.5564    1.0000 </r>
       <r>    8.7243    1.0000 </r>
       <r>    8.8628    1.0000 </r>
       <r>    9.1700    1.0000 </r>
       <r>    9.4709    1.0000 </r>
       <r>    9.5637    1.0000 </r>
       <r>    9.6980    1.0000 </r>
       <r>    9.8615    1.0000 </r>
       <r>   10.1347    1.0000 </r>
       <r>   10.4083    1.0000 </r>
       <r>   10.4768    1.0000 </r>
       <r>   10.8745    1.0014 </r>
       <r>   10.9384    1.0049 </r>
       <r>   11.1106    1.0350 </r>
       <r>   11.3685    0.4930 </r>
       <r>   11.6209   -0.0352 </r>
       <r>   11.7725   -0.0073 </r>
       <r>   12.0374   -0.0000 </r>
       <r>   12.3012   -0.0000 </r>
       <r>   12.3735   -0.0000 </r>
       <r>   12.7353   -0.0000 </r>
       <r>   12.8813   -0.0000 </r>
       <r>   13.4357   -0.0000 </r>
       <r>   13.7457   -0.0000 </r>
       <r>   13.9353   -0.0000 </r>
       <r>   14.0453   -0.0000 </r>
       <r>   14.1786   -0.0000 </r>
       <r>   14.4957   -0.0000 </r>
       <r>   14.7218   -0.0000 </r>
       <r>   14.8227   -0.0000 </r>
       <r>   15.0240   -0.0000 </r>
       <r>   15.2696   -0.0000 </r>
       <r>   15.3668   -0.0000 </r>
       <r>   15.4554   -0.0000 </r>
       <r>   15.6802   -0.0000 </r>
       <r>   15.8912   -0.0000 </r>
       <r>   16.0701   -0.0000 </r>
      </set>
      <set comment="kpoint 43">
       <r>   -2.0009    1.0000 </r>
       <r>   -0.7149    1.0000 </r>
       <r>   -0.1392    1.0000 </r>
       <r>    0.2831    1.0000 </r>
       <r>    0.5114    1.0000 </r>
       <r>    1.1328    1.0000 </r>
       <r>    2.1839    1.0000 </r>
       <r>    2.5301    1.0000 </r>
       <r>    2.7207    1.0000 </r>
       <r>    3.1771    1.0000 </r>
       <r>    3.3944    1.0000 </r>
       <r>    3.5434    1.0000 </r>
       <r>    4.0503    1.0000 </r>
       <r>    4.3434    1.0000 </r>
       <r>    4.8089    1.0000 </r>
       <r>    4.9708    1.0000 </r>
       <r>    5.4576    1.0000 </r>
       <r>    5.7817    1.0000 </r>
       <r>    5.9790    1.0000 </r>
       <r>    6.3860    1.0000 </r>
       <r>    6.5707    1.0000 </r>
       <r>    6.8642    1.0000 </r>
       <r>    7.2224    1.0000 </r>
       <r>    7.4242    1.0000 </r>
       <r>    7.7161    1.0000 </r>
       <r>    7.9448    1.0000 </r>
       <r>    8.1685    1.0000 </r>
       <r>    8.3144    1.0000 </r>
       <r>    8.5823    1.0000 </r>
       <r>    8.8056    1.0000 </r>
       <r>    8.9930    1.0000 </r>
       <r>    9.2930    1.0000 </r>
       <r>    9.4942    1.0000 </r>
       <r>    9.6477    1.0000 </r>
       <r>    9.8941    1.0000 </r>
       <r>   10.1512    1.0000 </r>
       <r>   10.3784    1.0000 </r>
       <r>   10.7235    1.0000 </r>
       <r>   10.7659    1.0001 </r>
       <r>   11.0473    1.0232 </r>
       <r>   11.2793    0.8341 </r>
       <r>   11.5036    0.0459 </r>
       <r>   11.5428   -0.0077 </r>
       <r>   11.7853   -0.0059 </r>
       <r>   11.8404   -0.0020 </r>
       <r>   12.2030   -0.0000 </r>
       <r>   12.4654   -0.0000 </r>
       <r>   12.7552   -0.0000 </r>
       <r>   13.1560   -0.0000 </r>
       <r>   13.5710   -0.0000 </r>
       <r>   13.7647   -0.0000 </r>
       <r>   14.0743   -0.0000 </r>
       <r>   14.2139   -0.0000 </r>
       <r>   14.4954   -0.0000 </r>
       <r>   14.5747   -0.0000 </r>
       <r>   14.8058   -0.0000 </r>
       <r>   14.9103   -0.0000 </r>
       <r>   15.0319   -0.0000 </r>
       <r>   15.1538   -0.0000 </r>
       <r>   15.3220   -0.0000 </r>
       <r>   15.4726   -0.0000 </r>
       <r>   15.6218   -0.0000 </r>
       <r>   15.8123   -0.0000 </r>
       <r>   16.0007   -0.0000 </r>
      </set>
      <set comment="kpoint 44">
       <r>   -1.9333    1.0000 </r>
       <r>   -0.8677    1.0000 </r>
       <r>   -0.1791    1.0000 </r>
       <r>    0.0861    1.0000 </r>
       <r>    0.6704    1.0000 </r>
       <r>    1.5130    1.0000 </r>
       <r>    2.2102    1.0000 </r>
       <r>    2.3579    1.0000 </r>
       <r>    2.6954    1.0000 </r>
       <r>    3.1964    1.0000 </r>
       <r>    3.5532    1.0000 </r>
       <r>    3.8088    1.0000 </r>
       <r>    4.0739    1.0000 </r>
       <r>    4.2357    1.0000 </r>
       <r>    4.5195    1.0000 </r>
       <r>    4.8544    1.0000 </r>
       <r>    5.2664    1.0000 </r>
       <r>    5.7571    1.0000 </r>
       <r>    5.9291    1.0000 </r>
       <r>    6.1300    1.0000 </r>
       <r>    6.3584    1.0000 </r>
       <r>    6.7840    1.0000 </r>
       <r>    7.1709    1.0000 </r>
       <r>    7.5587    1.0000 </r>
       <r>    7.8066    1.0000 </r>
       <r>    8.0078    1.0000 </r>
       <r>    8.3399    1.0000 </r>
       <r>    8.4361    1.0000 </r>
       <r>    8.8168    1.0000 </r>
       <r>    8.9960    1.0000 </r>
       <r>    9.1959    1.0000 </r>
       <r>    9.3776    1.0000 </r>
       <r>    9.6237    1.0000 </r>
       <r>    9.8014    1.0000 </r>
       <r>   10.0704    1.0000 </r>
       <r>   10.2070    1.0000 </r>
       <r>   10.2481    1.0000 </r>
       <r>   10.6167    1.0000 </r>
       <r>   10.7730    1.0001 </r>
       <r>   10.9887    1.0112 </r>
       <r>   11.2666    0.8707 </r>
       <r>   11.3863    0.4181 </r>
       <r>   11.6366   -0.0335 </r>
       <r>   11.8368   -0.0022 </r>
       <r>   11.9324   -0.0002 </r>
       <r>   12.2066   -0.0000 </r>
       <r>   12.3977   -0.0000 </r>
       <r>   12.6102   -0.0000 </r>
       <r>   13.1369   -0.0000 </r>
       <r>   13.2680   -0.0000 </r>
       <r>   13.6660   -0.0000 </r>
       <r>   13.8781   -0.0000 </r>
       <r>   14.0429   -0.0000 </r>
       <r>   14.3103   -0.0000 </r>
       <r>   14.3388   -0.0000 </r>
       <r>   14.5764   -0.0000 </r>
       <r>   14.9084   -0.0000 </r>
       <r>   14.9871   -0.0000 </r>
       <r>   15.1006   -0.0000 </r>
       <r>   15.3258   -0.0000 </r>
       <r>   15.3842   -0.0000 </r>
       <r>   15.6123   -0.0000 </r>
       <r>   15.7730   -0.0000 </r>
       <r>   16.0063   -0.0000 </r>
      </set>
      <set comment="kpoint 45">
       <r>   -1.9985    1.0000 </r>
       <r>   -0.7589    1.0000 </r>
       <r>   -0.0065    1.0000 </r>
       <r>    0.2083    1.0000 </r>
       <r>    0.5427    1.0000 </r>
       <r>    1.0616    1.0000 </r>
       <r>    2.1654    1.0000 </r>
       <r>    2.4387    1.0000 </r>
       <r>    2.7048    1.0000 </r>
       <r>    3.1870    1.0000 </r>
       <r>    3.5846    1.0000 </r>
       <r>    3.7367    1.0000 </r>
       <r>    4.0186    1.0000 </r>
       <r>    4.3296    1.0000 </r>
       <r>    4.5051    1.0000 </r>
       <r>    5.0592    1.0000 </r>
       <r>    5.5256    1.0000 </r>
       <r>    5.7544    1.0000 </r>
       <r>    6.0239    1.0000 </r>
       <r>    6.4302    1.0000 </r>
       <r>    6.5391    1.0000 </r>
       <r>    6.7250    1.0000 </r>
       <r>    7.1753    1.0000 </r>
       <r>    7.4553    1.0000 </r>
       <r>    7.7544    1.0000 </r>
       <r>    7.8795    1.0000 </r>
       <r>    8.0139    1.0000 </r>
       <r>    8.4966    1.0000 </r>
       <r>    8.5731    1.0000 </r>
       <r>    8.7929    1.0000 </r>
       <r>    9.0327    1.0000 </r>
       <r>    9.2370    1.0000 </r>
       <r>    9.6264    1.0000 </r>
       <r>    9.7310    1.0000 </r>
       <r>    9.8830    1.0000 </r>
       <r>   10.1445    1.0000 </r>
       <r>   10.2478    1.0000 </r>
       <r>   10.5321    1.0000 </r>
       <r>   10.9475    1.0058 </r>
       <r>   11.1114    1.0351 </r>
       <r>   11.2722    0.8552 </r>
       <r>   11.4077    0.3312 </r>
       <r>   11.7364   -0.0127 </r>
       <r>   11.8325   -0.0024 </r>
       <r>   11.9058   -0.0005 </r>
       <r>   12.2371   -0.0000 </r>
       <r>   12.4576   -0.0000 </r>
       <r>   12.6577   -0.0000 </r>
       <r>   13.2384   -0.0000 </r>
       <r>   13.4885   -0.0000 </r>
       <r>   13.8131   -0.0000 </r>
       <r>   13.9901   -0.0000 </r>
       <r>   14.2471   -0.0000 </r>
       <r>   14.3849   -0.0000 </r>
       <r>   14.6173   -0.0000 </r>
       <r>   14.7111   -0.0000 </r>
       <r>   14.8330   -0.0000 </r>
       <r>   14.9539   -0.0000 </r>
       <r>   15.1670   -0.0000 </r>
       <r>   15.3012   -0.0000 </r>
       <r>   15.4186   -0.0000 </r>
       <r>   15.6070   -0.0000 </r>
       <r>   15.7184   -0.0000 </r>
       <r>   16.0202   -0.0000 </r>
      </set>
      <set comment="kpoint 46">
       <r>   -1.9264    1.0000 </r>
       <r>   -0.9335    1.0000 </r>
       <r>   -0.1929    1.0000 </r>
       <r>    0.1398    1.0000 </r>
       <r>    0.9885    1.0000 </r>
       <r>    1.4381    1.0000 </r>
       <r>    1.9149    1.0000 </r>
       <r>    2.0860    1.0000 </r>
       <r>    2.8540    1.0000 </r>
       <r>    3.2220    1.0000 </r>
       <r>    3.4941    1.0000 </r>
       <r>    3.7861    1.0000 </r>
       <r>    4.0581    1.0000 </r>
       <r>    4.3495    1.0000 </r>
       <r>    4.7772    1.0000 </r>
       <r>    5.0014    1.0000 </r>
       <r>    5.3488    1.0000 </r>
       <r>    5.4927    1.0000 </r>
       <r>    5.9259    1.0000 </r>
       <r>    6.1355    1.0000 </r>
       <r>    6.4936    1.0000 </r>
       <r>    6.6254    1.0000 </r>
       <r>    7.2489    1.0000 </r>
       <r>    7.5542    1.0000 </r>
       <r>    7.7576    1.0000 </r>
       <r>    8.0825    1.0000 </r>
       <r>    8.2631    1.0000 </r>
       <r>    8.5016    1.0000 </r>
       <r>    8.6830    1.0000 </r>
       <r>    8.9404    1.0000 </r>
       <r>    9.2141    1.0000 </r>
       <r>    9.4002    1.0000 </r>
       <r>    9.5524    1.0000 </r>
       <r>    9.7133    1.0000 </r>
       <r>    9.9155    1.0000 </r>
       <r>   10.2183    1.0000 </r>
       <r>   10.4504    1.0000 </r>
       <r>   10.7295    1.0000 </r>
       <r>   10.8151    1.0003 </r>
       <r>   10.8574    1.0009 </r>
       <r>   11.1078    1.0348 </r>
       <r>   11.2239    0.9649 </r>
       <r>   11.6665   -0.0277 </r>
       <r>   11.8898   -0.0007 </r>
       <r>   12.1331   -0.0000 </r>
       <r>   12.3032   -0.0000 </r>
       <r>   12.3913   -0.0000 </r>
       <r>   12.8082   -0.0000 </r>
       <r>   12.8512   -0.0000 </r>
       <r>   13.3883   -0.0000 </r>
       <r>   13.6463   -0.0000 </r>
       <r>   13.8202   -0.0000 </r>
       <r>   14.0711   -0.0000 </r>
       <r>   14.2078   -0.0000 </r>
       <r>   14.4478   -0.0000 </r>
       <r>   14.6805   -0.0000 </r>
       <r>   14.7832   -0.0000 </r>
       <r>   14.9855   -0.0000 </r>
       <r>   15.0832   -0.0000 </r>
       <r>   15.2272   -0.0000 </r>
       <r>   15.5364   -0.0000 </r>
       <r>   15.6734   -0.0000 </r>
       <r>   15.8005   -0.0000 </r>
       <r>   15.9348   -0.0000 </r>
      </set>
      <set comment="kpoint 47">
       <r>   -1.9337    1.0000 </r>
       <r>   -0.8825    1.0000 </r>
       <r>   -0.1780    1.0000 </r>
       <r>    0.0955    1.0000 </r>
       <r>    0.7376    1.0000 </r>
       <r>    1.5075    1.0000 </r>
       <r>    2.0614    1.0000 </r>
       <r>    2.3558    1.0000 </r>
       <r>    2.8108    1.0000 </r>
       <r>    3.2242    1.0000 </r>
       <r>    3.4124    1.0000 </r>
       <r>    3.7290    1.0000 </r>
       <r>    4.0266    1.0000 </r>
       <r>    4.3719    1.0000 </r>
       <r>    4.5360    1.0000 </r>
       <r>    5.0345    1.0000 </r>
       <r>    5.3192    1.0000 </r>
       <r>    5.5793    1.0000 </r>
       <r>    6.0141    1.0000 </r>
       <r>    6.1653    1.0000 </r>
       <r>    6.4342    1.0000 </r>
       <r>    6.7232    1.0000 </r>
       <r>    6.9882    1.0000 </r>
       <r>    7.4552    1.0000 </r>
       <r>    7.8103    1.0000 </r>
       <r>    8.2320    1.0000 </r>
       <r>    8.3039    1.0000 </r>
       <r>    8.6170    1.0000 </r>
       <r>    8.7187    1.0000 </r>
       <r>    8.9428    1.0000 </r>
       <r>    9.2077    1.0000 </r>
       <r>    9.3841    1.0000 </r>
       <r>    9.5428    1.0000 </r>
       <r>    9.7316    1.0000 </r>
       <r>   10.0808    1.0000 </r>
       <r>   10.2863    1.0000 </r>
       <r>   10.3577    1.0000 </r>
       <r>   10.4900    1.0000 </r>
       <r>   10.8530    1.0008 </r>
       <r>   10.9658    1.0079 </r>
       <r>   11.0660    1.0275 </r>
       <r>   11.3857    0.4208 </r>
       <r>   11.4974    0.0578 </r>
       <r>   11.6984   -0.0204 </r>
       <r>   11.9761   -0.0001 </r>
       <r>   12.2708   -0.0000 </r>
       <r>   12.4687   -0.0000 </r>
       <r>   12.7282   -0.0000 </r>
       <r>   13.0927   -0.0000 </r>
       <r>   13.2743   -0.0000 </r>
       <r>   13.7171   -0.0000 </r>
       <r>   13.9528   -0.0000 </r>
       <r>   14.1860   -0.0000 </r>
       <r>   14.3490   -0.0000 </r>
       <r>   14.5873   -0.0000 </r>
       <r>   14.7538   -0.0000 </r>
       <r>   14.8626   -0.0000 </r>
       <r>   15.0718   -0.0000 </r>
       <r>   15.1830   -0.0000 </r>
       <r>   15.2430   -0.0000 </r>
       <r>   15.3791   -0.0000 </r>
       <r>   15.5159   -0.0000 </r>
       <r>   15.6800   -0.0000 </r>
       <r>   15.9175   -0.0000 </r>
      </set>
      <set comment="kpoint 48">
       <r>   -1.9255    1.0000 </r>
       <r>   -0.9397    1.0000 </r>
       <r>   -0.2331    1.0000 </r>
       <r>    0.2293    1.0000 </r>
       <r>    0.8877    1.0000 </r>
       <r>    1.4767    1.0000 </r>
       <r>    2.0475    1.0000 </r>
       <r>    2.1770    1.0000 </r>
       <r>    2.5899    1.0000 </r>
       <r>    3.0325    1.0000 </r>
       <r>    3.7489    1.0000 </r>
       <r>    3.8538    1.0000 </r>
       <r>    4.1102    1.0000 </r>
       <r>    4.2972    1.0000 </r>
       <r>    4.5506    1.0000 </r>
       <r>    4.9773    1.0000 </r>
       <r>    5.3377    1.0000 </r>
       <r>    5.6721    1.0000 </r>
       <r>    5.9907    1.0000 </r>
       <r>    6.0781    1.0000 </r>
       <r>    6.5859    1.0000 </r>
       <r>    6.6534    1.0000 </r>
       <r>    7.2337    1.0000 </r>
       <r>    7.5437    1.0000 </r>
       <r>    7.7163    1.0000 </r>
       <r>    8.0370    1.0000 </r>
       <r>    8.3054    1.0000 </r>
       <r>    8.5088    1.0000 </r>
       <r>    8.7561    1.0000 </r>
       <r>    9.0111    1.0000 </r>
       <r>    9.1371    1.0000 </r>
       <r>    9.3184    1.0000 </r>
       <r>    9.4902    1.0000 </r>
       <r>    9.7936    1.0000 </r>
       <r>    9.9177    1.0000 </r>
       <r>   10.0396    1.0000 </r>
       <r>   10.3715    1.0000 </r>
       <r>   10.6600    1.0000 </r>
       <r>   10.8389    1.0006 </r>
       <r>   10.9826    1.0102 </r>
       <r>   11.1495    1.0320 </r>
       <r>   11.3770    0.4573 </r>
       <r>   11.7130   -0.0172 </r>
       <r>   11.8903   -0.0007 </r>
       <r>   12.0048   -0.0000 </r>
       <r>   12.1503   -0.0000 </r>
       <r>   12.2627   -0.0000 </r>
       <r>   12.5979   -0.0000 </r>
       <r>   13.0543   -0.0000 </r>
       <r>   13.6264   -0.0000 </r>
       <r>   13.7746   -0.0000 </r>
       <r>   13.9088   -0.0000 </r>
       <r>   14.0799   -0.0000 </r>
       <r>   14.2028   -0.0000 </r>
       <r>   14.5028   -0.0000 </r>
       <r>   14.5925   -0.0000 </r>
       <r>   14.8993   -0.0000 </r>
       <r>   14.9383   -0.0000 </r>
       <r>   15.0799   -0.0000 </r>
       <r>   15.2920   -0.0000 </r>
       <r>   15.4229   -0.0000 </r>
       <r>   15.5092   -0.0000 </r>
       <r>   15.8824   -0.0000 </r>
       <r>   16.1224   -0.0000 </r>
      </set>
      <set comment="kpoint 49">
       <r>   -1.9989    1.0000 </r>
       <r>   -0.7667    1.0000 </r>
       <r>   -0.0327    1.0000 </r>
       <r>    0.1720    1.0000 </r>
       <r>    0.6932    1.0000 </r>
       <r>    1.0613    1.0000 </r>
       <r>    2.1113    1.0000 </r>
       <r>    2.3174    1.0000 </r>
       <r>    2.8415    1.0000 </r>
       <r>    3.0407    1.0000 </r>
       <r>    3.5185    1.0000 </r>
       <r>    3.8594    1.0000 </r>
       <r>    4.0156    1.0000 </r>
       <r>    4.2478    1.0000 </r>
       <r>    4.6673    1.0000 </r>
       <r>    5.0044    1.0000 </r>
       <r>    5.4430    1.0000 </r>
       <r>    5.9888    1.0000 </r>
       <r>    6.1014    1.0000 </r>
       <r>    6.3551    1.0000 </r>
       <r>    6.5041    1.0000 </r>
       <r>    6.7597    1.0000 </r>
       <r>    7.0585    1.0000 </r>
       <r>    7.4772    1.0000 </r>
       <r>    7.6979    1.0000 </r>
       <r>    7.9385    1.0000 </r>
       <r>    8.0755    1.0000 </r>
       <r>    8.3353    1.0000 </r>
       <r>    8.6462    1.0000 </r>
       <r>    8.8324    1.0000 </r>
       <r>    9.0472    1.0000 </r>
       <r>    9.1169    1.0000 </r>
       <r>    9.6621    1.0000 </r>
       <r>    9.8880    1.0000 </r>
       <r>    9.9688    1.0000 </r>
       <r>   10.1444    1.0000 </r>
       <r>   10.2195    1.0000 </r>
       <r>   10.4895    1.0000 </r>
       <r>   10.8387    1.0006 </r>
       <r>   11.0375    1.0209 </r>
       <r>   11.1456    1.0329 </r>
       <r>   11.3659    0.5041 </r>
       <r>   11.5283    0.0082 </r>
       <r>   11.7050   -0.0190 </r>
       <r>   11.8859   -0.0007 </r>
       <r>   12.3278   -0.0000 </r>
       <r>   12.6249   -0.0000 </r>
       <r>   12.7000   -0.0000 </r>
       <r>   13.4605   -0.0000 </r>
       <r>   13.5944   -0.0000 </r>
       <r>   13.8449   -0.0000 </r>
       <r>   14.1035   -0.0000 </r>
       <r>   14.2171   -0.0000 </r>
       <r>   14.3158   -0.0000 </r>
       <r>   14.6305   -0.0000 </r>
       <r>   14.7239   -0.0000 </r>
       <r>   14.8884   -0.0000 </r>
       <r>   14.9815   -0.0000 </r>
       <r>   15.2317   -0.0000 </r>
       <r>   15.3568   -0.0000 </r>
       <r>   15.4013   -0.0000 </r>
       <r>   15.7147   -0.0000 </r>
       <r>   15.8992   -0.0000 </r>
       <r>   16.0614   -0.0000 </r>
      </set>
      <set comment="kpoint 50">
       <r>   -1.9433    1.0000 </r>
       <r>   -0.7906    1.0000 </r>
       <r>   -0.3424    1.0000 </r>
       <r>    0.1760    1.0000 </r>
       <r>    0.7025    1.0000 </r>
       <r>    1.5504    1.0000 </r>
       <r>    2.1081    1.0000 </r>
       <r>    2.3637    1.0000 </r>
       <r>    2.7187    1.0000 </r>
       <r>    3.2352    1.0000 </r>
       <r>    3.5287    1.0000 </r>
       <r>    3.7092    1.0000 </r>
       <r>    3.9071    1.0000 </r>
       <r>    4.3175    1.0000 </r>
       <r>    4.6542    1.0000 </r>
       <r>    4.9789    1.0000 </r>
       <r>    5.3647    1.0000 </r>
       <r>    5.5440    1.0000 </r>
       <r>    5.9775    1.0000 </r>
       <r>    6.2322    1.0000 </r>
       <r>    6.4041    1.0000 </r>
       <r>    6.6751    1.0000 </r>
       <r>    7.1116    1.0000 </r>
       <r>    7.5258    1.0000 </r>
       <r>    7.7258    1.0000 </r>
       <r>    8.1864    1.0000 </r>
       <r>    8.3647    1.0000 </r>
       <r>    8.4576    1.0000 </r>
       <r>    8.8629    1.0000 </r>
       <r>    8.9314    1.0000 </r>
       <r>    9.2701    1.0000 </r>
       <r>    9.3962    1.0000 </r>
       <r>    9.6184    1.0000 </r>
       <r>    9.7925    1.0000 </r>
       <r>    9.9562    1.0000 </r>
       <r>   10.1076    1.0000 </r>
       <r>   10.3242    1.0000 </r>
       <r>   10.5544    1.0000 </r>
       <r>   10.6384    1.0000 </r>
       <r>   10.9313    1.0043 </r>
       <r>   11.1626    1.0272 </r>
       <r>   11.3605    0.5271 </r>
       <r>   11.5885   -0.0330 </r>
       <r>   11.8332   -0.0024 </r>
       <r>   12.0216   -0.0000 </r>
       <r>   12.2438   -0.0000 </r>
       <r>   12.4249   -0.0000 </r>
       <r>   12.6241   -0.0000 </r>
       <r>   13.1624   -0.0000 </r>
       <r>   13.4141   -0.0000 </r>
       <r>   13.7081   -0.0000 </r>
       <r>   13.8884   -0.0000 </r>
       <r>   14.2680   -0.0000 </r>
       <r>   14.3922   -0.0000 </r>
       <r>   14.4739   -0.0000 </r>
       <r>   14.6668   -0.0000 </r>
       <r>   14.8685   -0.0000 </r>
       <r>   15.1041   -0.0000 </r>
       <r>   15.1984   -0.0000 </r>
       <r>   15.3194   -0.0000 </r>
       <r>   15.4145   -0.0000 </r>
       <r>   15.5016   -0.0000 </r>
       <r>   15.6612   -0.0000 </r>
       <r>   15.9818   -0.0000 </r>
      </set>
      <set comment="kpoint 51">
       <r>   -2.0023    1.0000 </r>
       <r>   -0.7416    1.0000 </r>
       <r>   -0.0954    1.0000 </r>
       <r>    0.3241    1.0000 </r>
       <r>    0.5024    1.0000 </r>
       <r>    1.1470    1.0000 </r>
       <r>    2.0129    1.0000 </r>
       <r>    2.4347    1.0000 </r>
       <r>    2.6944    1.0000 </r>
       <r>    3.1915    1.0000 </r>
       <r>    3.5884    1.0000 </r>
       <r>    3.7275    1.0000 </r>
       <r>    4.1180    1.0000 </r>
       <r>    4.3203    1.0000 </r>
       <r>    4.6163    1.0000 </r>
       <r>    4.8722    1.0000 </r>
       <r>    5.5844    1.0000 </r>
       <r>    5.8903    1.0000 </r>
       <r>    5.9307    1.0000 </r>
       <r>    6.4090    1.0000 </r>
       <r>    6.5744    1.0000 </r>
       <r>    6.8251    1.0000 </r>
       <r>    7.1877    1.0000 </r>
       <r>    7.3823    1.0000 </r>
       <r>    7.6143    1.0000 </r>
       <r>    7.8989    1.0000 </r>
       <r>    8.1102    1.0000 </r>
       <r>    8.2477    1.0000 </r>
       <r>    8.7437    1.0000 </r>
       <r>    8.8608    1.0000 </r>
       <r>    9.1310    1.0000 </r>
       <r>    9.3325    1.0000 </r>
       <r>    9.4245    1.0000 </r>
       <r>    9.7001    1.0000 </r>
       <r>    9.9019    1.0000 </r>
       <r>    9.9939    1.0000 </r>
       <r>   10.1243    1.0000 </r>
       <r>   10.6900    1.0000 </r>
       <r>   10.8868    1.0018 </r>
       <r>   11.0869    1.0318 </r>
       <r>   11.3264    0.6676 </r>
       <r>   11.4470    0.1894 </r>
       <r>   11.6495   -0.0313 </r>
       <r>   11.7970   -0.0048 </r>
       <r>   11.9274   -0.0003 </r>
       <r>   12.2023   -0.0000 </r>
       <r>   12.4948   -0.0000 </r>
       <r>   12.6626   -0.0000 </r>
       <r>   13.4000   -0.0000 </r>
       <r>   13.6008   -0.0000 </r>
       <r>   13.9122   -0.0000 </r>
       <r>   14.1221   -0.0000 </r>
       <r>   14.2274   -0.0000 </r>
       <r>   14.2939   -0.0000 </r>
       <r>   14.5180   -0.0000 </r>
       <r>   14.6725   -0.0000 </r>
       <r>   14.8545   -0.0000 </r>
       <r>   14.9379   -0.0000 </r>
       <r>   15.2116   -0.0000 </r>
       <r>   15.3333   -0.0000 </r>
       <r>   15.5581   -0.0000 </r>
       <r>   15.6855   -0.0000 </r>
       <r>   15.8166   -0.0000 </r>
       <r>   15.9408   -0.0000 </r>
      </set>
      <set comment="kpoint 52">
       <r>   -1.9356    1.0000 </r>
       <r>   -0.8723    1.0000 </r>
       <r>   -0.3211    1.0000 </r>
       <r>    0.2609    1.0000 </r>
       <r>    0.8772    1.0000 </r>
       <r>    1.4188    1.0000 </r>
       <r>    2.0100    1.0000 </r>
       <r>    2.2877    1.0000 </r>
       <r>    2.6783    1.0000 </r>
       <r>    3.0290    1.0000 </r>
       <r>    3.6216    1.0000 </r>
       <r>    3.8873    1.0000 </r>
       <r>    4.0600    1.0000 </r>
       <r>    4.3017    1.0000 </r>
       <r>    4.5258    1.0000 </r>
       <r>    5.0396    1.0000 </r>
       <r>    5.3506    1.0000 </r>
       <r>    5.7448    1.0000 </r>
       <r>    5.9634    1.0000 </r>
       <r>    6.1408    1.0000 </r>
       <r>    6.4929    1.0000 </r>
       <r>    6.6029    1.0000 </r>
       <r>    7.2315    1.0000 </r>
       <r>    7.5449    1.0000 </r>
       <r>    7.8268    1.0000 </r>
       <r>    7.9728    1.0000 </r>
       <r>    8.2786    1.0000 </r>
       <r>    8.5321    1.0000 </r>
       <r>    8.7189    1.0000 </r>
       <r>    9.0103    1.0000 </r>
       <r>    9.1513    1.0000 </r>
       <r>    9.3235    1.0000 </r>
       <r>    9.4798    1.0000 </r>
       <r>    9.6540    1.0000 </r>
       <r>    9.9244    1.0000 </r>
       <r>   10.1668    1.0000 </r>
       <r>   10.4162    1.0000 </r>
       <r>   10.5853    1.0000 </r>
       <r>   10.8178    1.0004 </r>
       <r>   11.0335    1.0200 </r>
       <r>   11.1068    1.0347 </r>
       <r>   11.5669   -0.0251 </r>
       <r>   11.6379   -0.0333 </r>
       <r>   11.8440   -0.0019 </r>
       <r>   12.0321   -0.0000 </r>
       <r>   12.1009   -0.0000 </r>
       <r>   12.4236   -0.0000 </r>
       <r>   12.6874   -0.0000 </r>
       <r>   12.8933   -0.0000 </r>
       <r>   13.5809   -0.0000 </r>
       <r>   13.6995   -0.0000 </r>
       <r>   13.8331   -0.0000 </r>
       <r>   14.1030   -0.0000 </r>
       <r>   14.2667   -0.0000 </r>
       <r>   14.3771   -0.0000 </r>
       <r>   14.6876   -0.0000 </r>
       <r>   14.9294   -0.0000 </r>
       <r>   15.0683   -0.0000 </r>
       <r>   15.0934   -0.0000 </r>
       <r>   15.2440   -0.0000 </r>
       <r>   15.4079   -0.0000 </r>
       <r>   15.5948   -0.0000 </r>
       <r>   15.8028   -0.0000 </r>
       <r>   16.0661   -0.0000 </r>
      </set>
      <set comment="kpoint 53">
       <r>   -1.5688    1.0000 </r>
       <r>   -1.1229    1.0000 </r>
       <r>   -0.6015    1.0000 </r>
       <r>   -0.2434    1.0000 </r>
       <r>    0.9704    1.0000 </r>
       <r>    1.7188    1.0000 </r>
       <r>    2.1363    1.0000 </r>
       <r>    2.5858    1.0000 </r>
       <r>    2.8058    1.0000 </r>
       <r>    3.3455    1.0000 </r>
       <r>    3.6873    1.0000 </r>
       <r>    3.9089    1.0000 </r>
       <r>    4.2281    1.0000 </r>
       <r>    4.3194    1.0000 </r>
       <r>    4.7717    1.0000 </r>
       <r>    5.0885    1.0000 </r>
       <r>    5.2413    1.0000 </r>
       <r>    5.5486    1.0000 </r>
       <r>    5.8515    1.0000 </r>
       <r>    6.2263    1.0000 </r>
       <r>    6.4085    1.0000 </r>
       <r>    6.6594    1.0000 </r>
       <r>    6.9538    1.0000 </r>
       <r>    7.0667    1.0000 </r>
       <r>    7.3213    1.0000 </r>
       <r>    7.5203    1.0000 </r>
       <r>    7.7675    1.0000 </r>
       <r>    7.9792    1.0000 </r>
       <r>    8.3331    1.0000 </r>
       <r>    8.5899    1.0000 </r>
       <r>    9.2025    1.0000 </r>
       <r>    9.3750    1.0000 </r>
       <r>    9.6080    1.0000 </r>
       <r>    9.7569    1.0000 </r>
       <r>   10.1988    1.0000 </r>
       <r>   10.4537    1.0000 </r>
       <r>   10.6362    1.0000 </r>
       <r>   11.0900    1.0323 </r>
       <r>   11.2483    0.9169 </r>
       <r>   11.3927    0.3915 </r>
       <r>   11.6083   -0.0354 </r>
       <r>   11.7157   -0.0167 </r>
       <r>   11.8041   -0.0042 </r>
       <r>   12.0176   -0.0000 </r>
       <r>   12.3059   -0.0000 </r>
       <r>   12.4133   -0.0000 </r>
       <r>   12.6266   -0.0000 </r>
       <r>   12.8713   -0.0000 </r>
       <r>   13.2187   -0.0000 </r>
       <r>   13.4411   -0.0000 </r>
       <r>   13.5370   -0.0000 </r>
       <r>   13.7561   -0.0000 </r>
       <r>   13.9755   -0.0000 </r>
       <r>   14.2476   -0.0000 </r>
       <r>   14.4698   -0.0000 </r>
       <r>   14.6518   -0.0000 </r>
       <r>   14.7476   -0.0000 </r>
       <r>   15.0019   -0.0000 </r>
       <r>   15.2256   -0.0000 </r>
       <r>   15.3383   -0.0000 </r>
       <r>   15.5409   -0.0000 </r>
       <r>   15.6352   -0.0000 </r>
       <r>   15.8538   -0.0000 </r>
       <r>   16.0802   -0.0000 </r>
      </set>
      <set comment="kpoint 54">
       <r>   -1.6056    1.0000 </r>
       <r>   -1.1534    1.0000 </r>
       <r>   -0.6550    1.0000 </r>
       <r>    0.2105    1.0000 </r>
       <r>    0.7298    1.0000 </r>
       <r>    1.5060    1.0000 </r>
       <r>    2.1176    1.0000 </r>
       <r>    2.4536    1.0000 </r>
       <r>    2.8765    1.0000 </r>
       <r>    3.1291    1.0000 </r>
       <r>    3.7382    1.0000 </r>
       <r>    3.9565    1.0000 </r>
       <r>    4.3879    1.0000 </r>
       <r>    4.4691    1.0000 </r>
       <r>    4.8723    1.0000 </r>
       <r>    5.2523    1.0000 </r>
       <r>    5.4741    1.0000 </r>
       <r>    5.6082    1.0000 </r>
       <r>    5.8491    1.0000 </r>
       <r>    6.0228    1.0000 </r>
       <r>    6.3803    1.0000 </r>
       <r>    6.6628    1.0000 </r>
       <r>    6.7577    1.0000 </r>
       <r>    7.0549    1.0000 </r>
       <r>    7.3398    1.0000 </r>
       <r>    7.4868    1.0000 </r>
       <r>    7.8012    1.0000 </r>
       <r>    8.0343    1.0000 </r>
       <r>    8.2793    1.0000 </r>
       <r>    8.4695    1.0000 </r>
       <r>    9.1595    1.0000 </r>
       <r>    9.3352    1.0000 </r>
       <r>    9.6587    1.0000 </r>
       <r>    9.8914    1.0000 </r>
       <r>   10.0361    1.0000 </r>
       <r>   10.2771    1.0000 </r>
       <r>   10.6110    1.0000 </r>
       <r>   10.8366    1.0006 </r>
       <r>   11.0862    1.0316 </r>
       <r>   11.2824    0.8244 </r>
       <r>   11.4377    0.2202 </r>
       <r>   11.6508   -0.0310 </r>
       <r>   11.8487   -0.0017 </r>
       <r>   12.1360   -0.0000 </r>
       <r>   12.3935   -0.0000 </r>
       <r>   12.8067   -0.0000 </r>
       <r>   12.8431   -0.0000 </r>
       <r>   13.0478   -0.0000 </r>
       <r>   13.3284   -0.0000 </r>
       <r>   13.4943   -0.0000 </r>
       <r>   13.7010   -0.0000 </r>
       <r>   13.7546   -0.0000 </r>
       <r>   14.0165   -0.0000 </r>
       <r>   14.1559   -0.0000 </r>
       <r>   14.2947   -0.0000 </r>
       <r>   14.5244   -0.0000 </r>
       <r>   14.8316   -0.0000 </r>
       <r>   15.0886   -0.0000 </r>
       <r>   15.2347   -0.0000 </r>
       <r>   15.4381   -0.0000 </r>
       <r>   15.6019   -0.0000 </r>
       <r>   15.8469   -0.0000 </r>
       <r>   15.9452   -0.0000 </r>
       <r>   16.0873   -0.0000 </r>
      </set>
      <set comment="kpoint 55">
       <r>   -1.6588    1.0000 </r>
       <r>   -1.1851    1.0000 </r>
       <r>   -0.2894    1.0000 </r>
       <r>   -0.0446    1.0000 </r>
       <r>    0.7848    1.0000 </r>
       <r>    1.3626    1.0000 </r>
       <r>    1.8369    1.0000 </r>
       <r>    2.6202    1.0000 </r>
       <r>    2.7632    1.0000 </r>
       <r>    3.4937    1.0000 </r>
       <r>    3.7526    1.0000 </r>
       <r>    4.0610    1.0000 </r>
       <r>    4.2516    1.0000 </r>
       <r>    4.6296    1.0000 </r>
       <r>    4.8948    1.0000 </r>
       <r>    5.3224    1.0000 </r>
       <r>    5.3507    1.0000 </r>
       <r>    5.5770    1.0000 </r>
       <r>    5.7019    1.0000 </r>
       <r>    6.1881    1.0000 </r>
       <r>    6.3561    1.0000 </r>
       <r>    6.6254    1.0000 </r>
       <r>    6.6925    1.0000 </r>
       <r>    7.0732    1.0000 </r>
       <r>    7.3451    1.0000 </r>
       <r>    7.5603    1.0000 </r>
       <r>    7.6699    1.0000 </r>
       <r>    7.8563    1.0000 </r>
       <r>    8.0371    1.0000 </r>
       <r>    8.7301    1.0000 </r>
       <r>    9.0498    1.0000 </r>
       <r>    9.4314    1.0000 </r>
       <r>    9.6486    1.0000 </r>
       <r>    9.7877    1.0000 </r>
       <r>   10.1810    1.0000 </r>
       <r>   10.4385    1.0000 </r>
       <r>   10.6704    1.0000 </r>
       <r>   10.7867    1.0002 </r>
       <r>   11.0880    1.0320 </r>
       <r>   11.3912    0.3979 </r>
       <r>   11.5788   -0.0303 </r>
       <r>   11.6437   -0.0323 </r>
       <r>   11.8151   -0.0034 </r>
       <r>   12.0951   -0.0000 </r>
       <r>   12.2821   -0.0000 </r>
       <r>   12.5571   -0.0000 </r>
       <r>   12.8243   -0.0000 </r>
       <r>   13.0609   -0.0000 </r>
       <r>   13.1394   -0.0000 </r>
       <r>   13.5201   -0.0000 </r>
       <r>   13.6011   -0.0000 </r>
       <r>   13.8236   -0.0000 </r>
       <r>   14.0492   -0.0000 </r>
       <r>   14.2381   -0.0000 </r>
       <r>   14.4524   -0.0000 </r>
       <r>   14.5010   -0.0000 </r>
       <r>   14.9953   -0.0000 </r>
       <r>   15.1475   -0.0000 </r>
       <r>   15.3311   -0.0000 </r>
       <r>   15.4286   -0.0000 </r>
       <r>   15.6961   -0.0000 </r>
       <r>   15.8305   -0.0000 </r>
       <r>   15.8941   -0.0000 </r>
       <r>   16.2170   -0.0000 </r>
      </set>
      <set comment="kpoint 56">
       <r>   -1.5478    1.0000 </r>
       <r>   -1.2781    1.0000 </r>
       <r>   -0.5062    1.0000 </r>
       <r>    0.1196    1.0000 </r>
       <r>    0.6116    1.0000 </r>
       <r>    1.6930    1.0000 </r>
       <r>    2.0205    1.0000 </r>
       <r>    2.4381    1.0000 </r>
       <r>    2.8839    1.0000 </r>
       <r>    3.3504    1.0000 </r>
       <r>    3.7044    1.0000 </r>
       <r>    4.0442    1.0000 </r>
       <r>    4.2745    1.0000 </r>
       <r>    4.6369    1.0000 </r>
       <r>    4.7944    1.0000 </r>
       <r>    5.1841    1.0000 </r>
       <r>    5.3514    1.0000 </r>
       <r>    5.6072    1.0000 </r>
       <r>    5.7967    1.0000 </r>
       <r>    6.0469    1.0000 </r>
       <r>    6.2261    1.0000 </r>
       <r>    6.3859    1.0000 </r>
       <r>    6.6264    1.0000 </r>
       <r>    7.2401    1.0000 </r>
       <r>    7.4630    1.0000 </r>
       <r>    7.5730    1.0000 </r>
       <r>    7.7552    1.0000 </r>
       <r>    8.0532    1.0000 </r>
       <r>    8.3431    1.0000 </r>
       <r>    8.4901    1.0000 </r>
       <r>    9.2870    1.0000 </r>
       <r>    9.4938    1.0000 </r>
       <r>    9.6019    1.0000 </r>
       <r>    9.9549    1.0000 </r>
       <r>   10.1030    1.0000 </r>
       <r>   10.4055    1.0000 </r>
       <r>   10.6717    1.0000 </r>
       <r>   10.7864    1.0002 </r>
       <r>   11.2182    0.9742 </r>
       <r>   11.2723    0.8547 </r>
       <r>   11.4084    0.3285 </r>
       <r>   11.5976   -0.0346 </r>
       <r>   11.8167   -0.0033 </r>
       <r>   12.0813   -0.0000 </r>
       <r>   12.3280   -0.0000 </r>
       <r>   12.5837   -0.0000 </r>
       <r>   12.9459   -0.0000 </r>
       <r>   13.0960   -0.0000 </r>
       <r>   13.2296   -0.0000 </r>
       <r>   13.3238   -0.0000 </r>
       <r>   13.6138   -0.0000 </r>
       <r>   13.7067   -0.0000 </r>
       <r>   13.8379   -0.0000 </r>
       <r>   14.0500   -0.0000 </r>
       <r>   14.3666   -0.0000 </r>
       <r>   14.6605   -0.0000 </r>
       <r>   15.0304   -0.0000 </r>
       <r>   15.1588   -0.0000 </r>
       <r>   15.2827   -0.0000 </r>
       <r>   15.5337   -0.0000 </r>
       <r>   15.6431   -0.0000 </r>
       <r>   15.7472   -0.0000 </r>
       <r>   15.8829   -0.0000 </r>
       <r>   16.0298   -0.0000 </r>
      </set>
      <set comment="kpoint 57">
       <r>   -1.6924    1.0000 </r>
       <r>   -1.0806    1.0000 </r>
       <r>   -0.4447    1.0000 </r>
       <r>    0.0419    1.0000 </r>
       <r>    0.7106    1.0000 </r>
       <r>    1.4121    1.0000 </r>
       <r>    1.9171    1.0000 </r>
       <r>    2.6127    1.0000 </r>
       <r>    2.8913    1.0000 </r>
       <r>    3.3420    1.0000 </r>
       <r>    3.7590    1.0000 </r>
       <r>    3.8671    1.0000 </r>
       <r>    4.3609    1.0000 </r>
       <r>    4.5452    1.0000 </r>
       <r>    4.9030    1.0000 </r>
       <r>    5.1142    1.0000 </r>
       <r>    5.4022    1.0000 </r>
       <r>    5.6957    1.0000 </r>
       <r>    5.9270    1.0000 </r>
       <r>    6.1389    1.0000 </r>
       <r>    6.3097    1.0000 </r>
       <r>    6.5717    1.0000 </r>
       <r>    6.9140    1.0000 </r>
       <r>    7.0236    1.0000 </r>
       <r>    7.3325    1.0000 </r>
       <r>    7.5523    1.0000 </r>
       <r>    7.7488    1.0000 </r>
       <r>    7.8906    1.0000 </r>
       <r>    8.2773    1.0000 </r>
       <r>    8.6753    1.0000 </r>
       <r>    8.9402    1.0000 </r>
       <r>    9.2784    1.0000 </r>
       <r>    9.5404    1.0000 </r>
       <r>    9.7916    1.0000 </r>
       <r>   10.0309    1.0000 </r>
       <r>   10.2277    1.0000 </r>
       <r>   10.5665    1.0000 </r>
       <r>   10.8042    1.0003 </r>
       <r>   11.1024    1.0342 </r>
       <r>   11.4811    0.0934 </r>
       <r>   11.5601   -0.0213 </r>
       <r>   11.8300   -0.0025 </r>
       <r>   11.9463   -0.0002 </r>
       <r>   12.0826   -0.0000 </r>
       <r>   12.2833   -0.0000 </r>
       <r>   12.5512   -0.0000 </r>
       <r>   12.8290   -0.0000 </r>
       <r>   13.0006   -0.0000 </r>
       <r>   13.3555   -0.0000 </r>
       <r>   13.4927   -0.0000 </r>
       <r>   13.7525   -0.0000 </r>
       <r>   13.8164   -0.0000 </r>
       <r>   14.0644   -0.0000 </r>
       <r>   14.2455   -0.0000 </r>
       <r>   14.4338   -0.0000 </r>
       <r>   14.7281   -0.0000 </r>
       <r>   14.8650   -0.0000 </r>
       <r>   15.0355   -0.0000 </r>
       <r>   15.2700   -0.0000 </r>
       <r>   15.4548   -0.0000 </r>
       <r>   15.5558   -0.0000 </r>
       <r>   15.7744   -0.0000 </r>
       <r>   16.0180   -0.0000 </r>
       <r>   16.1483   -0.0000 </r>
      </set>
      <set comment="kpoint 58">
       <r>   -1.5805    1.0000 </r>
       <r>   -1.0807    1.0000 </r>
       <r>   -0.7251    1.0000 </r>
       <r>   -0.1295    1.0000 </r>
       <r>    1.1094    1.0000 </r>
       <r>    1.6658    1.0000 </r>
       <r>    1.9484    1.0000 </r>
       <r>    2.6059    1.0000 </r>
       <r>    2.8197    1.0000 </r>
       <r>    3.2820    1.0000 </r>
       <r>    3.6846    1.0000 </r>
       <r>    3.8158    1.0000 </r>
       <r>    4.1452    1.0000 </r>
       <r>    4.3838    1.0000 </r>
       <r>    4.7924    1.0000 </r>
       <r>    5.2321    1.0000 </r>
       <r>    5.4014    1.0000 </r>
       <r>    5.5597    1.0000 </r>
       <r>    6.0560    1.0000 </r>
       <r>    6.2235    1.0000 </r>
       <r>    6.4381    1.0000 </r>
       <r>    6.7309    1.0000 </r>
       <r>    6.8559    1.0000 </r>
       <r>    7.1409    1.0000 </r>
       <r>    7.2111    1.0000 </r>
       <r>    7.5186    1.0000 </r>
       <r>    7.6574    1.0000 </r>
       <r>    7.8861    1.0000 </r>
       <r>    8.0888    1.0000 </r>
       <r>    8.5468    1.0000 </r>
       <r>    9.2287    1.0000 </r>
       <r>    9.3350    1.0000 </r>
       <r>    9.6839    1.0000 </r>
       <r>    9.9185    1.0000 </r>
       <r>   10.1802    1.0000 </r>
       <r>   10.5310    1.0000 </r>
       <r>   10.6400    1.0000 </r>
       <r>   10.8491    1.0008 </r>
       <r>   11.1844    1.0134 </r>
       <r>   11.3384    0.6193 </r>
       <r>   11.4078    0.3307 </r>
       <r>   11.7681   -0.0078 </r>
       <r>   12.0101   -0.0000 </r>
       <r>   12.1320   -0.0000 </r>
       <r>   12.3754   -0.0000 </r>
       <r>   12.4585   -0.0000 </r>
       <r>   12.7011   -0.0000 </r>
       <r>   12.8806   -0.0000 </r>
       <r>   13.0009   -0.0000 </r>
       <r>   13.4126   -0.0000 </r>
       <r>   13.5622   -0.0000 </r>
       <r>   13.7753   -0.0000 </r>
       <r>   14.0015   -0.0000 </r>
       <r>   14.2574   -0.0000 </r>
       <r>   14.4435   -0.0000 </r>
       <r>   14.6261   -0.0000 </r>
       <r>   14.8889   -0.0000 </r>
       <r>   15.0341   -0.0000 </r>
       <r>   15.2263   -0.0000 </r>
       <r>   15.4533   -0.0000 </r>
       <r>   15.5376   -0.0000 </r>
       <r>   15.6533   -0.0000 </r>
       <r>   15.9287   -0.0000 </r>
       <r>   16.2275   -0.0000 </r>
      </set>
      <set comment="kpoint 59">
       <r>   -1.5887    1.0000 </r>
       <r>   -1.0634    1.0000 </r>
       <r>   -0.6889    1.0000 </r>
       <r>   -0.1810    1.0000 </r>
       <r>    0.9825    1.0000 </r>
       <r>    1.7611    1.0000 </r>
       <r>    2.0000    1.0000 </r>
       <r>    2.6496    1.0000 </r>
       <r>    2.8270    1.0000 </r>
       <r>    3.3891    1.0000 </r>
       <r>    3.6056    1.0000 </r>
       <r>    3.7911    1.0000 </r>
       <r>    4.1223    1.0000 </r>
       <r>    4.4665    1.0000 </r>
       <r>    4.7491    1.0000 </r>
       <r>    5.0992    1.0000 </r>
       <r>    5.4013    1.0000 </r>
       <r>    5.6426    1.0000 </r>
       <r>    5.9428    1.0000 </r>
       <r>    6.2087    1.0000 </r>
       <r>    6.4420    1.0000 </r>
       <r>    6.5525    1.0000 </r>
       <r>    6.8137    1.0000 </r>
       <r>    7.1759    1.0000 </r>
       <r>    7.2799    1.0000 </r>
       <r>    7.5318    1.0000 </r>
       <r>    7.6871    1.0000 </r>
       <r>    7.9803    1.0000 </r>
       <r>    8.1522    1.0000 </r>
       <r>    8.6346    1.0000 </r>
       <r>    9.2245    1.0000 </r>
       <r>    9.3880    1.0000 </r>
       <r>    9.7363    1.0000 </r>
       <r>    9.8879    1.0000 </r>
       <r>   10.1564    1.0000 </r>
       <r>   10.4289    1.0000 </r>
       <r>   10.6887    1.0000 </r>
       <r>   10.9348    1.0046 </r>
       <r>   11.0226    1.0176 </r>
       <r>   11.3975    0.3722 </r>
       <r>   11.4543    0.1662 </r>
       <r>   11.7495   -0.0105 </r>
       <r>   11.8574   -0.0014 </r>
       <r>   12.0613   -0.0000 </r>
       <r>   12.2158   -0.0000 </r>
       <r>   12.4700   -0.0000 </r>
       <r>   12.8356   -0.0000 </r>
       <r>   13.0076   -0.0000 </r>
       <r>   13.3289   -0.0000 </r>
       <r>   13.4207   -0.0000 </r>
       <r>   13.5235   -0.0000 </r>
       <r>   13.7809   -0.0000 </r>
       <r>   14.0113   -0.0000 </r>
       <r>   14.1848   -0.0000 </r>
       <r>   14.4127   -0.0000 </r>
       <r>   14.7149   -0.0000 </r>
       <r>   14.8621   -0.0000 </r>
       <r>   14.9604   -0.0000 </r>
       <r>   15.1059   -0.0000 </r>
       <r>   15.3319   -0.0000 </r>
       <r>   15.5468   -0.0000 </r>
       <r>   15.6950   -0.0000 </r>
       <r>   15.8493   -0.0000 </r>
       <r>   15.9446   -0.0000 </r>
      </set>
      <set comment="kpoint 60">
       <r>   -1.5528    1.0000 </r>
       <r>   -1.2673    1.0000 </r>
       <r>   -0.5357    1.0000 </r>
       <r>    0.0559    1.0000 </r>
       <r>    0.8912    1.0000 </r>
       <r>    1.5405    1.0000 </r>
       <r>    1.9277    1.0000 </r>
       <r>    2.3408    1.0000 </r>
       <r>    2.9479    1.0000 </r>
       <r>    3.3843    1.0000 </r>
       <r>    3.7644    1.0000 </r>
       <r>    4.0356    1.0000 </r>
       <r>    4.2999    1.0000 </r>
       <r>    4.4902    1.0000 </r>
       <r>    4.8733    1.0000 </r>
       <r>    5.1185    1.0000 </r>
       <r>    5.4151    1.0000 </r>
       <r>    5.5640    1.0000 </r>
       <r>    5.7320    1.0000 </r>
       <r>    6.0545    1.0000 </r>
       <r>    6.4095    1.0000 </r>
       <r>    6.5441    1.0000 </r>
       <r>    6.8109    1.0000 </r>
       <r>    7.2426    1.0000 </r>
       <r>    7.2990    1.0000 </r>
       <r>    7.3945    1.0000 </r>
       <r>    7.8012    1.0000 </r>
       <r>    7.9811    1.0000 </r>
       <r>    8.2915    1.0000 </r>
       <r>    8.7697    1.0000 </r>
       <r>    9.2039    1.0000 </r>
       <r>    9.4794    1.0000 </r>
       <r>    9.6736    1.0000 </r>
       <r>    9.8422    1.0000 </r>
       <r>    9.9376    1.0000 </r>
       <r>   10.3033    1.0000 </r>
       <r>   10.5096    1.0000 </r>
       <r>   10.7755    1.0001 </r>
       <r>   11.0084    1.0147 </r>
       <r>   11.2056    0.9917 </r>
       <r>   11.5833   -0.0317 </r>
       <r>   11.6595   -0.0293 </r>
       <r>   11.8530   -0.0016 </r>
       <r>   12.0749   -0.0000 </r>
       <r>   12.3413   -0.0000 </r>
       <r>   12.7514   -0.0000 </r>
       <r>   12.9942   -0.0000 </r>
       <r>   13.0639   -0.0000 </r>
       <r>   13.2787   -0.0000 </r>
       <r>   13.5265   -0.0000 </r>
       <r>   13.6820   -0.0000 </r>
       <r>   13.9299   -0.0000 </r>
       <r>   13.9936   -0.0000 </r>
       <r>   14.0751   -0.0000 </r>
       <r>   14.2626   -0.0000 </r>
       <r>   14.6597   -0.0000 </r>
       <r>   14.8732   -0.0000 </r>
       <r>   15.0696   -0.0000 </r>
       <r>   15.2077   -0.0000 </r>
       <r>   15.4045   -0.0000 </r>
       <r>   15.4892   -0.0000 </r>
       <r>   15.7049   -0.0000 </r>
       <r>   15.7832   -0.0000 </r>
       <r>   15.9777   -0.0000 </r>
      </set>
      <set comment="kpoint 61">
       <r>   -1.6882    1.0000 </r>
       <r>   -1.0942    1.0000 </r>
       <r>   -0.4080    1.0000 </r>
       <r>    0.0066    1.0000 </r>
       <r>    0.6928    1.0000 </r>
       <r>    1.4957    1.0000 </r>
       <r>    1.8085    1.0000 </r>
       <r>    2.7086    1.0000 </r>
       <r>    2.9031    1.0000 </r>
       <r>    3.3311    1.0000 </r>
       <r>    3.5757    1.0000 </r>
       <r>    3.9811    1.0000 </r>
       <r>    4.4043    1.0000 </r>
       <r>    4.6336    1.0000 </r>
       <r>    4.8356    1.0000 </r>
       <r>    5.1822    1.0000 </r>
       <r>    5.4220    1.0000 </r>
       <r>    5.5765    1.0000 </r>
       <r>    5.8934    1.0000 </r>
       <r>    6.2746    1.0000 </r>
       <r>    6.3240    1.0000 </r>
       <r>    6.5532    1.0000 </r>
       <r>    6.7840    1.0000 </r>
       <r>    6.9231    1.0000 </r>
       <r>    7.3887    1.0000 </r>
       <r>    7.5811    1.0000 </r>
       <r>    7.6517    1.0000 </r>
       <r>    7.8596    1.0000 </r>
       <r>    8.1118    1.0000 </r>
       <r>    8.6638    1.0000 </r>
       <r>    9.1085    1.0000 </r>
       <r>    9.5090    1.0000 </r>
       <r>    9.5438    1.0000 </r>
       <r>    9.7454    1.0000 </r>
       <r>   10.1306    1.0000 </r>
       <r>   10.4511    1.0000 </r>
       <r>   10.5343    1.0000 </r>
       <r>   10.9564    1.0067 </r>
       <r>   11.0987    1.0337 </r>
       <r>   11.2685    0.8656 </r>
       <r>   11.5876   -0.0328 </r>
       <r>   11.7365   -0.0126 </r>
       <r>   12.0015   -0.0000 </r>
       <r>   12.0957   -0.0000 </r>
       <r>   12.2564   -0.0000 </r>
       <r>   12.4796   -0.0000 </r>
       <r>   12.6424   -0.0000 </r>
       <r>   13.0390   -0.0000 </r>
       <r>   13.2302   -0.0000 </r>
       <r>   13.3775   -0.0000 </r>
       <r>   13.5664   -0.0000 </r>
       <r>   13.9637   -0.0000 </r>
       <r>   14.0416   -0.0000 </r>
       <r>   14.3110   -0.0000 </r>
       <r>   14.5423   -0.0000 </r>
       <r>   14.7284   -0.0000 </r>
       <r>   14.8376   -0.0000 </r>
       <r>   14.9645   -0.0000 </r>
       <r>   15.2204   -0.0000 </r>
       <r>   15.3839   -0.0000 </r>
       <r>   15.6056   -0.0000 </r>
       <r>   15.8169   -0.0000 </r>
       <r>   15.9533   -0.0000 </r>
       <r>   16.1778   -0.0000 </r>
      </set>
      <set comment="kpoint 62">
       <r>   -1.6074    1.0000 </r>
       <r>   -1.1349    1.0000 </r>
       <r>   -0.6217    1.0000 </r>
       <r>    0.1316    1.0000 </r>
       <r>    0.5948    1.0000 </r>
       <r>    1.6912    1.0000 </r>
       <r>    2.1125    1.0000 </r>
       <r>    2.4856    1.0000 </r>
       <r>    2.9230    1.0000 </r>
       <r>    3.2359    1.0000 </r>
       <r>    3.6305    1.0000 </r>
       <r>    4.1042    1.0000 </r>
       <r>    4.3100    1.0000 </r>
       <r>    4.5559    1.0000 </r>
       <r>    4.7251    1.0000 </r>
       <r>    5.1206    1.0000 </r>
       <r>    5.3987    1.0000 </r>
       <r>    5.5699    1.0000 </r>
       <r>    5.8402    1.0000 </r>
       <r>    6.0851    1.0000 </r>
       <r>    6.2348    1.0000 </r>
       <r>    6.4500    1.0000 </r>
       <r>    6.8598    1.0000 </r>
       <r>    7.1730    1.0000 </r>
       <r>    7.2806    1.0000 </r>
       <r>    7.5971    1.0000 </r>
       <r>    7.6962    1.0000 </r>
       <r>    8.1366    1.0000 </r>
       <r>    8.2555    1.0000 </r>
       <r>    8.5786    1.0000 </r>
       <r>    9.3254    1.0000 </r>
       <r>    9.4793    1.0000 </r>
       <r>    9.6632    1.0000 </r>
       <r>    9.9798    1.0000 </r>
       <r>   10.1439    1.0000 </r>
       <r>   10.3058    1.0000 </r>
       <r>   10.5652    1.0000 </r>
       <r>   10.8670    1.0012 </r>
       <r>   10.9978    1.0127 </r>
       <r>   11.1108    1.0350 </r>
       <r>   11.5553   -0.0180 </r>
       <r>   11.7263   -0.0145 </r>
       <r>   11.8067   -0.0040 </r>
       <r>   12.0840   -0.0000 </r>
       <r>   12.4485   -0.0000 </r>
       <r>   12.5115   -0.0000 </r>
       <r>   12.9041   -0.0000 </r>
       <r>   12.9948   -0.0000 </r>
       <r>   13.2988   -0.0000 </r>
       <r>   13.3927   -0.0000 </r>
       <r>   13.5362   -0.0000 </r>
       <r>   13.7879   -0.0000 </r>
       <r>   14.0302   -0.0000 </r>
       <r>   14.1560   -0.0000 </r>
       <r>   14.3994   -0.0000 </r>
       <r>   14.5622   -0.0000 </r>
       <r>   14.8849   -0.0000 </r>
       <r>   14.9617   -0.0000 </r>
       <r>   15.1693   -0.0000 </r>
       <r>   15.2412   -0.0000 </r>
       <r>   15.6186   -0.0000 </r>
       <r>   15.7418   -0.0000 </r>
       <r>   15.8226   -0.0000 </r>
       <r>   16.1334   -0.0000 </r>
      </set>
      <set comment="kpoint 63">
       <r>   -1.6656    1.0000 </r>
       <r>   -1.1733    1.0000 </r>
       <r>   -0.3526    1.0000 </r>
       <r>    0.0171    1.0000 </r>
       <r>    0.8933    1.0000 </r>
       <r>    1.2604    1.0000 </r>
       <r>    1.7937    1.0000 </r>
       <r>    2.5867    1.0000 </r>
       <r>    2.9303    1.0000 </r>
       <r>    3.2646    1.0000 </r>
       <r>    3.7444    1.0000 </r>
       <r>    4.0543    1.0000 </r>
       <r>    4.3843    1.0000 </r>
       <r>    4.6691    1.0000 </r>
       <r>    4.8870    1.0000 </r>
       <r>    5.1351    1.0000 </r>
       <r>    5.4266    1.0000 </r>
       <r>    5.6863    1.0000 </r>
       <r>    5.7847    1.0000 </r>
       <r>    6.0834    1.0000 </r>
       <r>    6.3003    1.0000 </r>
       <r>    6.5728    1.0000 </r>
       <r>    6.8922    1.0000 </r>
       <r>    7.1832    1.0000 </r>
       <r>    7.3775    1.0000 </r>
       <r>    7.5015    1.0000 </r>
       <r>    7.6752    1.0000 </r>
       <r>    7.8105    1.0000 </r>
       <r>    8.0773    1.0000 </r>
       <r>    8.7213    1.0000 </r>
       <r>    9.1374    1.0000 </r>
       <r>    9.1994    1.0000 </r>
       <r>    9.5554    1.0000 </r>
       <r>    9.8012    1.0000 </r>
       <r>   10.1504    1.0000 </r>
       <r>   10.3128    1.0000 </r>
       <r>   10.5683    1.0000 </r>
       <r>   10.7281    1.0000 </r>
       <r>   10.9909    1.0116 </r>
       <r>   11.4026    0.3514 </r>
       <r>   11.4720    0.1160 </r>
       <r>   11.8637   -0.0012 </r>
       <r>   11.9674   -0.0001 </r>
       <r>   12.1228   -0.0000 </r>
       <r>   12.3889   -0.0000 </r>
       <r>   12.5917   -0.0000 </r>
       <r>   12.9093   -0.0000 </r>
       <r>   13.0498   -0.0000 </r>
       <r>   13.2450   -0.0000 </r>
       <r>   13.4782   -0.0000 </r>
       <r>   13.7016   -0.0000 </r>
       <r>   13.8507   -0.0000 </r>
       <r>   14.1113   -0.0000 </r>
       <r>   14.3001   -0.0000 </r>
       <r>   14.4536   -0.0000 </r>
       <r>   14.7315   -0.0000 </r>
       <r>   14.8811   -0.0000 </r>
       <r>   14.9817   -0.0000 </r>
       <r>   15.3018   -0.0000 </r>
       <r>   15.3866   -0.0000 </r>
       <r>   15.5282   -0.0000 </r>
       <r>   15.7970   -0.0000 </r>
       <r>   15.8796   -0.0000 </r>
       <r>   16.0880   -0.0000 </r>
      </set>
      <set comment="kpoint 64">
       <r>   -1.5596    1.0000 </r>
       <r>   -1.1454    1.0000 </r>
       <r>   -0.6140    1.0000 </r>
       <r>   -0.2384    1.0000 </r>
       <r>    1.2559    1.0000 </r>
       <r>    1.5576    1.0000 </r>
       <r>    1.8885    1.0000 </r>
       <r>    2.5486    1.0000 </r>
       <r>    2.9984    1.0000 </r>
       <r>    3.2956    1.0000 </r>
       <r>    3.6992    1.0000 </r>
       <r>    3.9026    1.0000 </r>
       <r>    4.1273    1.0000 </r>
       <r>    4.3250    1.0000 </r>
       <r>    4.7023    1.0000 </r>
       <r>    5.1790    1.0000 </r>
       <r>    5.4429    1.0000 </r>
       <r>    5.5699    1.0000 </r>
       <r>    5.9470    1.0000 </r>
       <r>    6.2025    1.0000 </r>
       <r>    6.4029    1.0000 </r>
       <r>    6.6394    1.0000 </r>
       <r>    6.8955    1.0000 </r>
       <r>    7.1308    1.0000 </r>
       <r>    7.2945    1.0000 </r>
       <r>    7.4685    1.0000 </r>
       <r>    7.7148    1.0000 </r>
       <r>    7.9852    1.0000 </r>
       <r>    8.1805    1.0000 </r>
       <r>    8.6895    1.0000 </r>
       <r>    9.0976    1.0000 </r>
       <r>    9.4005    1.0000 </r>
       <r>    9.6916    1.0000 </r>
       <r>    9.8899    1.0000 </r>
       <r>   10.1681    1.0000 </r>
       <r>   10.4622    1.0000 </r>
       <r>   10.6474    1.0000 </r>
       <r>   10.9715    1.0086 </r>
       <r>   11.1418    1.0337 </r>
       <r>   11.2176    0.9750 </r>
       <r>   11.5803   -0.0308 </r>
       <r>   11.6281   -0.0345 </r>
       <r>   11.8686   -0.0011 </r>
       <r>   12.0641   -0.0000 </r>
       <r>   12.2803   -0.0000 </r>
       <r>   12.4628   -0.0000 </r>
       <r>   12.7768   -0.0000 </r>
       <r>   12.9549   -0.0000 </r>
       <r>   13.1690   -0.0000 </r>
       <r>   13.4739   -0.0000 </r>
       <r>   13.5930   -0.0000 </r>
       <r>   13.8728   -0.0000 </r>
       <r>   14.0283   -0.0000 </r>
       <r>   14.1948   -0.0000 </r>
       <r>   14.4210   -0.0000 </r>
       <r>   14.5931   -0.0000 </r>
       <r>   14.8448   -0.0000 </r>
       <r>   14.9806   -0.0000 </r>
       <r>   15.1611   -0.0000 </r>
       <r>   15.3646   -0.0000 </r>
       <r>   15.4425   -0.0000 </r>
       <r>   15.6463   -0.0000 </r>
       <r>   15.8330   -0.0000 </r>
       <r>   16.0317   -0.0000 </r>
      </set>
      <set comment="kpoint 65">
       <r>   -1.5472    1.0000 </r>
       <r>   -1.2820    1.0000 </r>
       <r>   -0.5644    1.0000 </r>
       <r>    0.1858    1.0000 </r>
       <r>    0.7525    1.0000 </r>
       <r>    1.6155    1.0000 </r>
       <r>    1.9134    1.0000 </r>
       <r>    2.4409    1.0000 </r>
       <r>    2.9430    1.0000 </r>
       <r>    3.0640    1.0000 </r>
       <r>    3.8320    1.0000 </r>
       <r>    4.0201    1.0000 </r>
       <r>    4.3593    1.0000 </r>
       <r>    4.6074    1.0000 </r>
       <r>    4.8718    1.0000 </r>
       <r>    5.0959    1.0000 </r>
       <r>    5.3478    1.0000 </r>
       <r>    5.6606    1.0000 </r>
       <r>    5.8150    1.0000 </r>
       <r>    6.1354    1.0000 </r>
       <r>    6.3351    1.0000 </r>
       <r>    6.5982    1.0000 </r>
       <r>    6.8274    1.0000 </r>
       <r>    7.0489    1.0000 </r>
       <r>    7.3270    1.0000 </r>
       <r>    7.4873    1.0000 </r>
       <r>    7.8133    1.0000 </r>
       <r>    7.9693    1.0000 </r>
       <r>    8.2891    1.0000 </r>
       <r>    8.5123    1.0000 </r>
       <r>    9.1445    1.0000 </r>
       <r>    9.4445    1.0000 </r>
       <r>    9.6969    1.0000 </r>
       <r>    9.8576    1.0000 </r>
       <r>   10.1229    1.0000 </r>
       <r>   10.2524    1.0000 </r>
       <r>   10.4957    1.0000 </r>
       <r>   10.7379    1.0000 </r>
       <r>   11.1177    1.0354 </r>
       <r>   11.2699    0.8617 </r>
       <r>   11.4998    0.0531 </r>
       <r>   11.6956   -0.0211 </r>
       <r>   11.9846   -0.0001 </r>
       <r>   12.1705   -0.0000 </r>
       <r>   12.2813   -0.0000 </r>
       <r>   12.6562   -0.0000 </r>
       <r>   12.8413   -0.0000 </r>
       <r>   13.0034   -0.0000 </r>
       <r>   13.2818   -0.0000 </r>
       <r>   13.4204   -0.0000 </r>
       <r>   13.7236   -0.0000 </r>
       <r>   13.7920   -0.0000 </r>
       <r>   14.0026   -0.0000 </r>
       <r>   14.1579   -0.0000 </r>
       <r>   14.5791   -0.0000 </r>
       <r>   14.7363   -0.0000 </r>
       <r>   14.8519   -0.0000 </r>
       <r>   14.9548   -0.0000 </r>
       <r>   15.2292   -0.0000 </r>
       <r>   15.4265   -0.0000 </r>
       <r>   15.4909   -0.0000 </r>
       <r>   15.7594   -0.0000 </r>
       <r>   15.9096   -0.0000 </r>
       <r>   16.0992   -0.0000 </r>
      </set>
      <set comment="kpoint 66">
       <r>   -1.6880    1.0000 </r>
       <r>   -1.1103    1.0000 </r>
       <r>   -0.3721    1.0000 </r>
       <r>    0.0171    1.0000 </r>
       <r>    0.6717    1.0000 </r>
       <r>    1.4869    1.0000 </r>
       <r>    1.7778    1.0000 </r>
       <r>    2.6345    1.0000 </r>
       <r>    2.9301    1.0000 </r>
       <r>    3.2676    1.0000 </r>
       <r>    3.7467    1.0000 </r>
       <r>    4.0402    1.0000 </r>
       <r>    4.3565    1.0000 </r>
       <r>    4.7133    1.0000 </r>
       <r>    4.9556    1.0000 </r>
       <r>    5.2440    1.0000 </r>
       <r>    5.2760    1.0000 </r>
       <r>    5.5050    1.0000 </r>
       <r>    5.7187    1.0000 </r>
       <r>    6.1170    1.0000 </r>
       <r>    6.4118    1.0000 </r>
       <r>    6.5995    1.0000 </r>
       <r>    6.8393    1.0000 </r>
       <r>    7.0740    1.0000 </r>
       <r>    7.3433    1.0000 </r>
       <r>    7.4320    1.0000 </r>
       <r>    7.7087    1.0000 </r>
       <r>    7.8593    1.0000 </r>
       <r>    8.2192    1.0000 </r>
       <r>    8.6275    1.0000 </r>
       <r>    9.0812    1.0000 </r>
       <r>    9.3973    1.0000 </r>
       <r>    9.6009    1.0000 </r>
       <r>    9.7633    1.0000 </r>
       <r>   10.0102    1.0000 </r>
       <r>   10.4323    1.0000 </r>
       <r>   10.6547    1.0000 </r>
       <r>   10.8048    1.0003 </r>
       <r>   11.0870    1.0318 </r>
       <r>   11.3498    0.5720 </r>
       <r>   11.5579   -0.0198 </r>
       <r>   11.8989   -0.0005 </r>
       <r>   12.0002   -0.0000 </r>
       <r>   12.1823   -0.0000 </r>
       <r>   12.2959   -0.0000 </r>
       <r>   12.4849   -0.0000 </r>
       <r>   12.7036   -0.0000 </r>
       <r>   13.0889   -0.0000 </r>
       <r>   13.3338   -0.0000 </r>
       <r>   13.5132   -0.0000 </r>
       <r>   13.5784   -0.0000 </r>
       <r>   13.7981   -0.0000 </r>
       <r>   13.9569   -0.0000 </r>
       <r>   14.0863   -0.0000 </r>
       <r>   14.3889   -0.0000 </r>
       <r>   14.6913   -0.0000 </r>
       <r>   14.7497   -0.0000 </r>
       <r>   15.1173   -0.0000 </r>
       <r>   15.3113   -0.0000 </r>
       <r>   15.4864   -0.0000 </r>
       <r>   15.6371   -0.0000 </r>
       <r>   15.8264   -0.0000 </r>
       <r>   16.0086   -0.0000 </r>
       <r>   16.2296   -0.0000 </r>
      </set>
      <set comment="kpoint 67">
       <r>   -1.5908    1.0000 </r>
       <r>   -1.0004    1.0000 </r>
       <r>   -0.7632    1.0000 </r>
       <r>   -0.1958    1.0000 </r>
       <r>    0.9856    1.0000 </r>
       <r>    1.7741    1.0000 </r>
       <r>    2.0964    1.0000 </r>
       <r>    2.5354    1.0000 </r>
       <r>    3.0326    1.0000 </r>
       <r>    3.2326    1.0000 </r>
       <r>    3.6205    1.0000 </r>
       <r>    3.7973    1.0000 </r>
       <r>    4.1025    1.0000 </r>
       <r>    4.4591    1.0000 </r>
       <r>    4.8674    1.0000 </r>
       <r>    5.0414    1.0000 </r>
       <r>    5.1643    1.0000 </r>
       <r>    5.5166    1.0000 </r>
       <r>    5.9323    1.0000 </r>
       <r>    6.1490    1.0000 </r>
       <r>    6.4468    1.0000 </r>
       <r>    6.7729    1.0000 </r>
       <r>    7.0348    1.0000 </r>
       <r>    7.1705    1.0000 </r>
       <r>    7.4161    1.0000 </r>
       <r>    7.5600    1.0000 </r>
       <r>    7.7642    1.0000 </r>
       <r>    7.8446    1.0000 </r>
       <r>    8.2028    1.0000 </r>
       <r>    8.4971    1.0000 </r>
       <r>    9.1760    1.0000 </r>
       <r>    9.3708    1.0000 </r>
       <r>    9.5677    1.0000 </r>
       <r>    9.9040    1.0000 </r>
       <r>   10.2484    1.0000 </r>
       <r>   10.3774    1.0000 </r>
       <r>   10.5944    1.0000 </r>
       <r>   11.0783    1.0301 </r>
       <r>   11.2803    0.8311 </r>
       <r>   11.4785    0.0995 </r>
       <r>   11.4996    0.0535 </r>
       <r>   11.7037   -0.0192 </r>
       <r>   11.8670   -0.0012 </r>
       <r>   11.9774   -0.0001 </r>
       <r>   12.0694   -0.0000 </r>
       <r>   12.4876   -0.0000 </r>
       <r>   12.5930   -0.0000 </r>
       <r>   13.0172   -0.0000 </r>
       <r>   13.1637   -0.0000 </r>
       <r>   13.5054   -0.0000 </r>
       <r>   13.6257   -0.0000 </r>
       <r>   13.7208   -0.0000 </r>
       <r>   13.9801   -0.0000 </r>
       <r>   14.1858   -0.0000 </r>
       <r>   14.4393   -0.0000 </r>
       <r>   14.6007   -0.0000 </r>
       <r>   14.8359   -0.0000 </r>
       <r>   15.0852   -0.0000 </r>
       <r>   15.1809   -0.0000 </r>
       <r>   15.3547   -0.0000 </r>
       <r>   15.5342   -0.0000 </r>
       <r>   15.5931   -0.0000 </r>
       <r>   15.8455   -0.0000 </r>
       <r>   15.9441   -0.0000 </r>
      </set>
      <set comment="kpoint 68">
       <r>   -1.5829    1.0000 </r>
       <r>   -1.0318    1.0000 </r>
       <r>   -0.7644    1.0000 </r>
       <r>   -0.1858    1.0000 </r>
       <r>    1.2323    1.0000 </r>
       <r>    1.6402    1.0000 </r>
       <r>    1.8416    1.0000 </r>
       <r>    2.6512    1.0000 </r>
       <r>    3.0765    1.0000 </r>
       <r>    3.2329    1.0000 </r>
       <r>    3.5494    1.0000 </r>
       <r>    3.8008    1.0000 </r>
       <r>    3.9759    1.0000 </r>
       <r>    4.5637    1.0000 </r>
       <r>    4.8468    1.0000 </r>
       <r>    5.0276    1.0000 </r>
       <r>    5.2009    1.0000 </r>
       <r>    5.7023    1.0000 </r>
       <r>    6.0147    1.0000 </r>
       <r>    6.3253    1.0000 </r>
       <r>    6.5502    1.0000 </r>
       <r>    6.6229    1.0000 </r>
       <r>    6.7820    1.0000 </r>
       <r>    7.1555    1.0000 </r>
       <r>    7.4019    1.0000 </r>
       <r>    7.4574    1.0000 </r>
       <r>    7.7414    1.0000 </r>
       <r>    7.9514    1.0000 </r>
       <r>    8.1094    1.0000 </r>
       <r>    8.5285    1.0000 </r>
       <r>    9.1634    1.0000 </r>
       <r>    9.4561    1.0000 </r>
       <r>    9.6030    1.0000 </r>
       <r>   10.0002    1.0000 </r>
       <r>   10.2033    1.0000 </r>
       <r>   10.3558    1.0000 </r>
       <r>   10.7053    1.0000 </r>
       <r>   10.8888    1.0019 </r>
       <r>   11.0770    1.0298 </r>
       <r>   11.3677    0.4963 </r>
       <r>   11.4460    0.1923 </r>
       <r>   11.6841   -0.0237 </r>
       <r>   11.8367   -0.0022 </r>
       <r>   12.0546   -0.0000 </r>
       <r>   12.2357   -0.0000 </r>
       <r>   12.3622   -0.0000 </r>
       <r>   12.8073   -0.0000 </r>
       <r>   13.0241   -0.0000 </r>
       <r>   13.1292   -0.0000 </r>
       <r>   13.4180   -0.0000 </r>
       <r>   13.6339   -0.0000 </r>
       <r>   13.8443   -0.0000 </r>
       <r>   13.9805   -0.0000 </r>
       <r>   14.2198   -0.0000 </r>
       <r>   14.5072   -0.0000 </r>
       <r>   14.7322   -0.0000 </r>
       <r>   14.8660   -0.0000 </r>
       <r>   15.0726   -0.0000 </r>
       <r>   15.1479   -0.0000 </r>
       <r>   15.3591   -0.0000 </r>
       <r>   15.4414   -0.0000 </r>
       <r>   15.5760   -0.0000 </r>
       <r>   15.8832   -0.0000 </r>
       <r>   15.9553   -0.0000 </r>
      </set>
      <set comment="kpoint 69">
       <r>   -1.5532    1.0000 </r>
       <r>   -1.2687    1.0000 </r>
       <r>   -0.5037    1.0000 </r>
       <r>    0.1417    1.0000 </r>
       <r>    0.5657    1.0000 </r>
       <r>    1.6047    1.0000 </r>
       <r>    2.1507    1.0000 </r>
       <r>    2.4371    1.0000 </r>
       <r>    2.9557    1.0000 </r>
       <r>    3.1347    1.0000 </r>
       <r>    3.7709    1.0000 </r>
       <r>    4.2261    1.0000 </r>
       <r>    4.3432    1.0000 </r>
       <r>    4.6651    1.0000 </r>
       <r>    4.7472    1.0000 </r>
       <r>    4.9895    1.0000 </r>
       <r>    5.3213    1.0000 </r>
       <r>    5.6863    1.0000 </r>
       <r>    5.8053    1.0000 </r>
       <r>    6.0536    1.0000 </r>
       <r>    6.1507    1.0000 </r>
       <r>    6.4603    1.0000 </r>
       <r>    6.6212    1.0000 </r>
       <r>    6.9558    1.0000 </r>
       <r>    7.3893    1.0000 </r>
       <r>    7.6615    1.0000 </r>
       <r>    7.8498    1.0000 </r>
       <r>    8.1085    1.0000 </r>
       <r>    8.4239    1.0000 </r>
       <r>    8.5200    1.0000 </r>
       <r>    9.2114    1.0000 </r>
       <r>    9.4538    1.0000 </r>
       <r>    9.7176    1.0000 </r>
       <r>    9.8817    1.0000 </r>
       <r>   10.1984    1.0000 </r>
       <r>   10.4553    1.0000 </r>
       <r>   10.6748    1.0000 </r>
       <r>   10.8068    1.0003 </r>
       <r>   10.9639    1.0076 </r>
       <r>   11.3346    0.6345 </r>
       <r>   11.5787   -0.0302 </r>
       <r>   11.6253   -0.0348 </r>
       <r>   11.8181   -0.0032 </r>
       <r>   12.1617   -0.0000 </r>
       <r>   12.2820   -0.0000 </r>
       <r>   12.6497   -0.0000 </r>
       <r>   12.7853   -0.0000 </r>
       <r>   12.9608   -0.0000 </r>
       <r>   13.2836   -0.0000 </r>
       <r>   13.3265   -0.0000 </r>
       <r>   13.4713   -0.0000 </r>
       <r>   13.6972   -0.0000 </r>
       <r>   13.9770   -0.0000 </r>
       <r>   14.1619   -0.0000 </r>
       <r>   14.4294   -0.0000 </r>
       <r>   14.6565   -0.0000 </r>
       <r>   14.8276   -0.0000 </r>
       <r>   15.0955   -0.0000 </r>
       <r>   15.2285   -0.0000 </r>
       <r>   15.5472   -0.0000 </r>
       <r>   15.6107   -0.0000 </r>
       <r>   15.7532   -0.0000 </r>
       <r>   15.9199   -0.0000 </r>
       <r>   16.0037   -0.0000 </r>
      </set>
      <set comment="kpoint 70">
       <r>   -1.6935    1.0000 </r>
       <r>   -1.0925    1.0000 </r>
       <r>   -0.4423    1.0000 </r>
       <r>    0.0729    1.0000 </r>
       <r>    0.7500    1.0000 </r>
       <r>    1.4040    1.0000 </r>
       <r>    1.7941    1.0000 </r>
       <r>    2.6507    1.0000 </r>
       <r>    2.8721    1.0000 </r>
       <r>    3.3473    1.0000 </r>
       <r>    3.6899    1.0000 </r>
       <r>    3.8862    1.0000 </r>
       <r>    4.4526    1.0000 </r>
       <r>    4.6143    1.0000 </r>
       <r>    4.8813    1.0000 </r>
       <r>    5.3351    1.0000 </r>
       <r>    5.4047    1.0000 </r>
       <r>    5.5360    1.0000 </r>
       <r>    5.7187    1.0000 </r>
       <r>    6.2363    1.0000 </r>
       <r>    6.4275    1.0000 </r>
       <r>    6.5829    1.0000 </r>
       <r>    6.8954    1.0000 </r>
       <r>    7.0427    1.0000 </r>
       <r>    7.2225    1.0000 </r>
       <r>    7.5580    1.0000 </r>
       <r>    7.7695    1.0000 </r>
       <r>    7.8712    1.0000 </r>
       <r>    8.2062    1.0000 </r>
       <r>    8.5696    1.0000 </r>
       <r>    8.9398    1.0000 </r>
       <r>    9.3554    1.0000 </r>
       <r>    9.6418    1.0000 </r>
       <r>    9.7823    1.0000 </r>
       <r>   10.0930    1.0000 </r>
       <r>   10.1832    1.0000 </r>
       <r>   10.3889    1.0000 </r>
       <r>   10.7134    1.0000 </r>
       <r>   11.2047    0.9928 </r>
       <r>   11.3835    0.4298 </r>
       <r>   11.5132    0.0296 </r>
       <r>   11.9848   -0.0001 </r>
       <r>   12.1593   -0.0000 </r>
       <r>   12.2198   -0.0000 </r>
       <r>   12.3644   -0.0000 </r>
       <r>   12.5024   -0.0000 </r>
       <r>   12.6787   -0.0000 </r>
       <r>   13.0525   -0.0000 </r>
       <r>   13.2297   -0.0000 </r>
       <r>   13.5348   -0.0000 </r>
       <r>   13.7014   -0.0000 </r>
       <r>   13.9386   -0.0000 </r>
       <r>   14.0618   -0.0000 </r>
       <r>   14.2779   -0.0000 </r>
       <r>   14.4840   -0.0000 </r>
       <r>   14.6983   -0.0000 </r>
       <r>   14.7691   -0.0000 </r>
       <r>   14.8953   -0.0000 </r>
       <r>   15.1950   -0.0000 </r>
       <r>   15.3751   -0.0000 </r>
       <r>   15.5487   -0.0000 </r>
       <r>   15.7797   -0.0000 </r>
       <r>   15.8628   -0.0000 </r>
       <r>   16.1352   -0.0000 </r>
      </set>
      <set comment="kpoint 71">
       <r>   -1.6612    1.0000 </r>
       <r>   -1.1786    1.0000 </r>
       <r>   -0.2851    1.0000 </r>
       <r>   -0.0390    1.0000 </r>
       <r>    0.7675    1.0000 </r>
       <r>    1.3025    1.0000 </r>
       <r>    1.8515    1.0000 </r>
       <r>    2.7364    1.0000 </r>
       <r>    2.8129    1.0000 </r>
       <r>    3.2573    1.0000 </r>
       <r>    3.7332    1.0000 </r>
       <r>    4.1638    1.0000 </r>
       <r>    4.5338    1.0000 </r>
       <r>    4.6713    1.0000 </r>
       <r>    4.9282    1.0000 </r>
       <r>    4.9929    1.0000 </r>
       <r>    5.3474    1.0000 </r>
       <r>    5.6007    1.0000 </r>
       <r>    5.7444    1.0000 </r>
       <r>    6.0141    1.0000 </r>
       <r>    6.2658    1.0000 </r>
       <r>    6.6454    1.0000 </r>
       <r>    6.8143    1.0000 </r>
       <r>    7.1805    1.0000 </r>
       <r>    7.2795    1.0000 </r>
       <r>    7.4314    1.0000 </r>
       <r>    7.6901    1.0000 </r>
       <r>    7.8435    1.0000 </r>
       <r>    8.1497    1.0000 </r>
       <r>    8.7896    1.0000 </r>
       <r>    9.0776    1.0000 </r>
       <r>    9.3948    1.0000 </r>
       <r>    9.6008    1.0000 </r>
       <r>    9.8355    1.0000 </r>
       <r>   10.1475    1.0000 </r>
       <r>   10.3249    1.0000 </r>
       <r>   10.6828    1.0000 </r>
       <r>   10.9503    1.0061 </r>
       <r>   11.0984    1.0337 </r>
       <r>   11.4561    0.1610 </r>
       <r>   11.5577   -0.0197 </r>
       <r>   11.5953   -0.0343 </r>
       <r>   11.9697   -0.0001 </r>
       <r>   12.0677   -0.0000 </r>
       <r>   12.3731   -0.0000 </r>
       <r>   12.5321   -0.0000 </r>
       <r>   12.7128   -0.0000 </r>
       <r>   12.9223   -0.0000 </r>
       <r>   13.2914   -0.0000 </r>
       <r>   13.5112   -0.0000 </r>
       <r>   13.6285   -0.0000 </r>
       <r>   13.7803   -0.0000 </r>
       <r>   13.9476   -0.0000 </r>
       <r>   14.1589   -0.0000 </r>
       <r>   14.3693   -0.0000 </r>
       <r>   14.6436   -0.0000 </r>
       <r>   14.8584   -0.0000 </r>
       <r>   15.1390   -0.0000 </r>
       <r>   15.3243   -0.0000 </r>
       <r>   15.4813   -0.0000 </r>
       <r>   15.6053   -0.0000 </r>
       <r>   15.8015   -0.0000 </r>
       <r>   15.9061   -0.0000 </r>
       <r>   16.0885   -0.0000 </r>
      </set>
      <set comment="kpoint 72">
       <r>   -1.5660    1.0000 </r>
       <r>   -1.1329    1.0000 </r>
       <r>   -0.6314    1.0000 </r>
       <r>   -0.1999    1.0000 </r>
       <r>    1.0291    1.0000 </r>
       <r>    1.6615    1.0000 </r>
       <r>    2.1016    1.0000 </r>
       <r>    2.6606    1.0000 </r>
       <r>    2.9240    1.0000 </r>
       <r>    3.1046    1.0000 </r>
       <r>    3.5907    1.0000 </r>
       <r>    4.0019    1.0000 </r>
       <r>    4.1190    1.0000 </r>
       <r>    4.3317    1.0000 </r>
       <r>    4.8244    1.0000 </r>
       <r>    5.0617    1.0000 </r>
       <r>    5.3872    1.0000 </r>
       <r>    5.6666    1.0000 </r>
       <r>    6.0214    1.0000 </r>
       <r>    6.1367    1.0000 </r>
       <r>    6.3076    1.0000 </r>
       <r>    6.6344    1.0000 </r>
       <r>    6.9386    1.0000 </r>
       <r>    7.1580    1.0000 </r>
       <r>    7.3898    1.0000 </r>
       <r>    7.5533    1.0000 </r>
       <r>    7.6543    1.0000 </r>
       <r>    7.9280    1.0000 </r>
       <r>    8.1664    1.0000 </r>
       <r>    8.5420    1.0000 </r>
       <r>    9.2466    1.0000 </r>
       <r>    9.3871    1.0000 </r>
       <r>    9.6448    1.0000 </r>
       <r>    9.9127    1.0000 </r>
       <r>   10.2378    1.0000 </r>
       <r>   10.3180    1.0000 </r>
       <r>   10.7467    1.0001 </r>
       <r>   10.9165    1.0033 </r>
       <r>   11.1144    1.0353 </r>
       <r>   11.3578    0.5385 </r>
       <r>   11.4939    0.0648 </r>
       <r>   11.6691   -0.0272 </r>
       <r>   11.9337   -0.0002 </r>
       <r>   12.0537   -0.0000 </r>
       <r>   12.2812   -0.0000 </r>
       <r>   12.5633   -0.0000 </r>
       <r>   12.6135   -0.0000 </r>
       <r>   12.8868   -0.0000 </r>
       <r>   13.2548   -0.0000 </r>
       <r>   13.4009   -0.0000 </r>
       <r>   13.6576   -0.0000 </r>
       <r>   13.8652   -0.0000 </r>
       <r>   13.9857   -0.0000 </r>
       <r>   14.2145   -0.0000 </r>
       <r>   14.3997   -0.0000 </r>
       <r>   14.5877   -0.0000 </r>
       <r>   14.7921   -0.0000 </r>
       <r>   15.0277   -0.0000 </r>
       <r>   15.1837   -0.0000 </r>
       <r>   15.3424   -0.0000 </r>
       <r>   15.4752   -0.0000 </r>
       <r>   15.6621   -0.0000 </r>
       <r>   15.8420   -0.0000 </r>
       <r>   16.1697   -0.0000 </r>
      </set>
      <set comment="kpoint 73">
       <r>   -1.6063    1.0000 </r>
       <r>   -1.1374    1.0000 </r>
       <r>   -0.6514    1.0000 </r>
       <r>    0.1019    1.0000 </r>
       <r>    0.8329    1.0000 </r>
       <r>    1.5196    1.0000 </r>
       <r>    2.0434    1.0000 </r>
       <r>    2.4501    1.0000 </r>
       <r>    2.9851    1.0000 </r>
       <r>    3.2469    1.0000 </r>
       <r>    3.6977    1.0000 </r>
       <r>    3.9683    1.0000 </r>
       <r>    4.1228    1.0000 </r>
       <r>    4.5603    1.0000 </r>
       <r>    4.8925    1.0000 </r>
       <r>    5.1136    1.0000 </r>
       <r>    5.4859    1.0000 </r>
       <r>    5.6114    1.0000 </r>
       <r>    5.7836    1.0000 </r>
       <r>    6.1701    1.0000 </r>
       <r>    6.5146    1.0000 </r>
       <r>    6.5742    1.0000 </r>
       <r>    6.7810    1.0000 </r>
       <r>    7.0771    1.0000 </r>
       <r>    7.1759    1.0000 </r>
       <r>    7.4411    1.0000 </r>
       <r>    7.7954    1.0000 </r>
       <r>    8.0131    1.0000 </r>
       <r>    8.4207    1.0000 </r>
       <r>    8.6911    1.0000 </r>
       <r>    9.1875    1.0000 </r>
       <r>    9.3776    1.0000 </r>
       <r>    9.6638    1.0000 </r>
       <r>    9.9385    1.0000 </r>
       <r>   10.1472    1.0000 </r>
       <r>   10.2145    1.0000 </r>
       <r>   10.4989    1.0000 </r>
       <r>   10.6623    1.0000 </r>
       <r>   10.9014    1.0024 </r>
       <r>   11.2233    0.9659 </r>
       <r>   11.4125    0.3124 </r>
       <r>   11.7117   -0.0175 </r>
       <r>   11.8923   -0.0006 </r>
       <r>   12.1037   -0.0000 </r>
       <r>   12.5057   -0.0000 </r>
       <r>   12.5950   -0.0000 </r>
       <r>   12.8516   -0.0000 </r>
       <r>   13.0371   -0.0000 </r>
       <r>   13.3155   -0.0000 </r>
       <r>   13.6000   -0.0000 </r>
       <r>   13.7369   -0.0000 </r>
       <r>   13.8861   -0.0000 </r>
       <r>   14.0747   -0.0000 </r>
       <r>   14.1504   -0.0000 </r>
       <r>   14.4584   -0.0000 </r>
       <r>   14.6800   -0.0000 </r>
       <r>   14.8002   -0.0000 </r>
       <r>   15.0411   -0.0000 </r>
       <r>   15.2245   -0.0000 </r>
       <r>   15.4085   -0.0000 </r>
       <r>   15.5532   -0.0000 </r>
       <r>   15.7107   -0.0000 </r>
       <r>   15.7673   -0.0000 </r>
       <r>   16.0263   -0.0000 </r>
      </set>
      <set comment="kpoint 74">
       <r>   -1.6663    1.0000 </r>
       <r>   -1.1636    1.0000 </r>
       <r>   -0.3240    1.0000 </r>
       <r>   -0.0395    1.0000 </r>
       <r>    0.8685    1.0000 </r>
       <r>    1.2302    1.0000 </r>
       <r>    1.9402    1.0000 </r>
       <r>    2.5372    1.0000 </r>
       <r>    2.7746    1.0000 </r>
       <r>    3.5224    1.0000 </r>
       <r>    3.7855    1.0000 </r>
       <r>    4.0794    1.0000 </r>
       <r>    4.4163    1.0000 </r>
       <r>    4.5138    1.0000 </r>
       <r>    4.7645    1.0000 </r>
       <r>    5.1360    1.0000 </r>
       <r>    5.4220    1.0000 </r>
       <r>    5.6036    1.0000 </r>
       <r>    5.8022    1.0000 </r>
       <r>    6.1904    1.0000 </r>
       <r>    6.2306    1.0000 </r>
       <r>    6.5774    1.0000 </r>
       <r>    6.9154    1.0000 </r>
       <r>    7.0043    1.0000 </r>
       <r>    7.4398    1.0000 </r>
       <r>    7.5179    1.0000 </r>
       <r>    7.6867    1.0000 </r>
       <r>    7.9050    1.0000 </r>
       <r>    8.3319    1.0000 </r>
       <r>    8.7067    1.0000 </r>
       <r>    8.9932    1.0000 </r>
       <r>    9.2428    1.0000 </r>
       <r>    9.4997    1.0000 </r>
       <r>    9.7214    1.0000 </r>
       <r>   10.0651    1.0000 </r>
       <r>   10.3243    1.0000 </r>
       <r>   10.6309    1.0000 </r>
       <r>   10.7413    1.0000 </r>
       <r>   11.1121    1.0351 </r>
       <r>   11.4086    0.3278 </r>
       <r>   11.6859   -0.0233 </r>
       <r>   11.7920   -0.0052 </r>
       <r>   11.9525   -0.0001 </r>
       <r>   12.0865   -0.0000 </r>
       <r>   12.4480   -0.0000 </r>
       <r>   12.6313   -0.0000 </r>
       <r>   12.7797   -0.0000 </r>
       <r>   12.9660   -0.0000 </r>
       <r>   13.2081   -0.0000 </r>
       <r>   13.4921   -0.0000 </r>
       <r>   13.5895   -0.0000 </r>
       <r>   13.8081   -0.0000 </r>
       <r>   14.1202   -0.0000 </r>
       <r>   14.2713   -0.0000 </r>
       <r>   14.5424   -0.0000 </r>
       <r>   14.6477   -0.0000 </r>
       <r>   14.8095   -0.0000 </r>
       <r>   14.9125   -0.0000 </r>
       <r>   15.2486   -0.0000 </r>
       <r>   15.4359   -0.0000 </r>
       <r>   15.6015   -0.0000 </r>
       <r>   15.8013   -0.0000 </r>
       <r>   15.9759   -0.0000 </r>
       <r>   16.0489   -0.0000 </r>
      </set>
      <set comment="kpoint 75">
       <r>   -1.6052    1.0000 </r>
       <r>   -1.1600    1.0000 </r>
       <r>   -0.5832    1.0000 </r>
       <r>    0.1548    1.0000 </r>
       <r>    0.5625    1.0000 </r>
       <r>    1.6386    1.0000 </r>
       <r>    2.1351    1.0000 </r>
       <r>    2.5320    1.0000 </r>
       <r>    2.7838    1.0000 </r>
       <r>    3.2492    1.0000 </r>
       <r>    3.7579    1.0000 </r>
       <r>    4.1042    1.0000 </r>
       <r>    4.3357    1.0000 </r>
       <r>    4.6035    1.0000 </r>
       <r>    4.7671    1.0000 </r>
       <r>    5.0913    1.0000 </r>
       <r>    5.3798    1.0000 </r>
       <r>    5.5905    1.0000 </r>
       <r>    5.8234    1.0000 </r>
       <r>    6.0621    1.0000 </r>
       <r>    6.2367    1.0000 </r>
       <r>    6.3788    1.0000 </r>
       <r>    6.7026    1.0000 </r>
       <r>    7.1277    1.0000 </r>
       <r>    7.3626    1.0000 </r>
       <r>    7.6507    1.0000 </r>
       <r>    7.7472    1.0000 </r>
       <r>    8.0793    1.0000 </r>
       <r>    8.3397    1.0000 </r>
       <r>    8.6061    1.0000 </r>
       <r>    9.3415    1.0000 </r>
       <r>    9.4357    1.0000 </r>
       <r>    9.6431    1.0000 </r>
       <r>    9.7906    1.0000 </r>
       <r>   10.0999    1.0000 </r>
       <r>   10.4712    1.0000 </r>
       <r>   10.6147    1.0000 </r>
       <r>   10.7462    1.0001 </r>
       <r>   11.1036    1.0343 </r>
       <r>   11.3188    0.6970 </r>
       <r>   11.3895    0.4051 </r>
       <r>   11.5636   -0.0234 </r>
       <r>   11.9400   -0.0002 </r>
       <r>   12.0484   -0.0000 </r>
       <r>   12.4280   -0.0000 </r>
       <r>   12.6959   -0.0000 </r>
       <r>   12.9642   -0.0000 </r>
       <r>   13.0849   -0.0000 </r>
       <r>   13.2007   -0.0000 </r>
       <r>   13.3754   -0.0000 </r>
       <r>   13.5637   -0.0000 </r>
       <r>   13.7528   -0.0000 </r>
       <r>   13.9453   -0.0000 </r>
       <r>   14.0566   -0.0000 </r>
       <r>   14.4597   -0.0000 </r>
       <r>   14.7207   -0.0000 </r>
       <r>   14.8931   -0.0000 </r>
       <r>   15.0233   -0.0000 </r>
       <r>   15.1546   -0.0000 </r>
       <r>   15.3760   -0.0000 </r>
       <r>   15.5107   -0.0000 </r>
       <r>   15.6641   -0.0000 </r>
       <r>   15.9185   -0.0000 </r>
       <r>   16.0426   -0.0000 </r>
      </set>
      <set comment="kpoint 76">
       <r>   -1.5556    1.0000 </r>
       <r>   -1.1526    1.0000 </r>
       <r>   -0.6735    1.0000 </r>
       <r>   -0.1379    1.0000 </r>
       <r>    1.1392    1.0000 </r>
       <r>    1.6093    1.0000 </r>
       <r>    2.0267    1.0000 </r>
       <r>    2.6450    1.0000 </r>
       <r>    2.8794    1.0000 </r>
       <r>    3.0044    1.0000 </r>
       <r>    3.6658    1.0000 </r>
       <r>    4.0703    1.0000 </r>
       <r>    4.1437    1.0000 </r>
       <r>    4.2368    1.0000 </r>
       <r>    4.8485    1.0000 </r>
       <r>    5.1804    1.0000 </r>
       <r>    5.3594    1.0000 </r>
       <r>    5.6219    1.0000 </r>
       <r>    5.9398    1.0000 </r>
       <r>    6.3190    1.0000 </r>
       <r>    6.4679    1.0000 </r>
       <r>    6.7136    1.0000 </r>
       <r>    6.9730    1.0000 </r>
       <r>    7.1396    1.0000 </r>
       <r>    7.2418    1.0000 </r>
       <r>    7.4315    1.0000 </r>
       <r>    7.6853    1.0000 </r>
       <r>    7.9524    1.0000 </r>
       <r>    8.0222    1.0000 </r>
       <r>    8.4692    1.0000 </r>
       <r>    9.2397    1.0000 </r>
       <r>    9.4379    1.0000 </r>
       <r>    9.5944    1.0000 </r>
       <r>    9.9342    1.0000 </r>
       <r>   10.2386    1.0000 </r>
       <r>   10.4405    1.0000 </r>
       <r>   10.6841    1.0000 </r>
       <r>   10.7801    1.0001 </r>
       <r>   11.1491    1.0320 </r>
       <r>   11.3806    0.4419 </r>
       <r>   11.5356   -0.0004 </r>
       <r>   11.8000   -0.0045 </r>
       <r>   11.9171   -0.0004 </r>
       <r>   12.0698   -0.0000 </r>
       <r>   12.1988   -0.0000 </r>
       <r>   12.5143   -0.0000 </r>
       <r>   12.6534   -0.0000 </r>
       <r>   12.9550   -0.0000 </r>
       <r>   13.0752   -0.0000 </r>
       <r>   13.4236   -0.0000 </r>
       <r>   13.6233   -0.0000 </r>
       <r>   13.7599   -0.0000 </r>
       <r>   13.9594   -0.0000 </r>
       <r>   14.1989   -0.0000 </r>
       <r>   14.3802   -0.0000 </r>
       <r>   14.6254   -0.0000 </r>
       <r>   14.9462   -0.0000 </r>
       <r>   15.0623   -0.0000 </r>
       <r>   15.2919   -0.0000 </r>
       <r>   15.3480   -0.0000 </r>
       <r>   15.5348   -0.0000 </r>
       <r>   15.7001   -0.0000 </r>
       <r>   15.8711   -0.0000 </r>
       <r>   16.0654   -0.0000 </r>
      </set>
      <set comment="kpoint 77">
       <r>   -1.8371    1.0000 </r>
       <r>   -1.0468    1.0000 </r>
       <r>   -0.3407    1.0000 </r>
       <r>    0.1909    1.0000 </r>
       <r>    1.1179    1.0000 </r>
       <r>    1.5364    1.0000 </r>
       <r>    1.7817    1.0000 </r>
       <r>    2.1965    1.0000 </r>
       <r>    2.7421    1.0000 </r>
       <r>    2.9222    1.0000 </r>
       <r>    3.3995    1.0000 </r>
       <r>    3.9531    1.0000 </r>
       <r>    4.2835    1.0000 </r>
       <r>    4.5412    1.0000 </r>
       <r>    4.8775    1.0000 </r>
       <r>    5.2691    1.0000 </r>
       <r>    5.6021    1.0000 </r>
       <r>    5.7054    1.0000 </r>
       <r>    5.8911    1.0000 </r>
       <r>    6.0531    1.0000 </r>
       <r>    6.3571    1.0000 </r>
       <r>    6.7009    1.0000 </r>
       <r>    6.9484    1.0000 </r>
       <r>    7.1060    1.0000 </r>
       <r>    7.5220    1.0000 </r>
       <r>    7.7152    1.0000 </r>
       <r>    8.0115    1.0000 </r>
       <r>    8.3077    1.0000 </r>
       <r>    8.6652    1.0000 </r>
       <r>    8.8202    1.0000 </r>
       <r>    9.0666    1.0000 </r>
       <r>    9.3040    1.0000 </r>
       <r>    9.6038    1.0000 </r>
       <r>    9.7679    1.0000 </r>
       <r>   10.0820    1.0000 </r>
       <r>   10.3252    1.0000 </r>
       <r>   10.4601    1.0000 </r>
       <r>   10.6514    1.0000 </r>
       <r>   10.8048    1.0003 </r>
       <r>   11.0645    1.0271 </r>
       <r>   11.3010    0.7628 </r>
       <r>   11.6121   -0.0355 </r>
       <r>   11.9096   -0.0004 </r>
       <r>   12.2673   -0.0000 </r>
       <r>   12.4732   -0.0000 </r>
       <r>   12.5978   -0.0000 </r>
       <r>   12.7933   -0.0000 </r>
       <r>   12.8551   -0.0000 </r>
       <r>   13.0307   -0.0000 </r>
       <r>   13.3260   -0.0000 </r>
       <r>   13.4749   -0.0000 </r>
       <r>   13.5415   -0.0000 </r>
       <r>   13.6983   -0.0000 </r>
       <r>   14.1623   -0.0000 </r>
       <r>   14.3252   -0.0000 </r>
       <r>   14.6036   -0.0000 </r>
       <r>   14.7803   -0.0000 </r>
       <r>   14.9144   -0.0000 </r>
       <r>   15.1622   -0.0000 </r>
       <r>   15.3006   -0.0000 </r>
       <r>   15.5089   -0.0000 </r>
       <r>   15.5644   -0.0000 </r>
       <r>   15.7425   -0.0000 </r>
       <r>   15.8638   -0.0000 </r>
      </set>
      <set comment="kpoint 78">
       <r>   -1.8739    1.0000 </r>
       <r>   -1.0419    1.0000 </r>
       <r>   -0.2432    1.0000 </r>
       <r>    0.3889    1.0000 </r>
       <r>    0.9582    1.0000 </r>
       <r>    1.2909    1.0000 </r>
       <r>    1.6740    1.0000 </r>
       <r>    2.2476    1.0000 </r>
       <r>    2.6655    1.0000 </r>
       <r>    3.0949    1.0000 </r>
       <r>    3.6649    1.0000 </r>
       <r>    3.7428    1.0000 </r>
       <r>    4.1928    1.0000 </r>
       <r>    4.6480    1.0000 </r>
       <r>    4.9628    1.0000 </r>
       <r>    5.1873    1.0000 </r>
       <r>    5.5932    1.0000 </r>
       <r>    5.6233    1.0000 </r>
       <r>    6.0042    1.0000 </r>
       <r>    6.2609    1.0000 </r>
       <r>    6.5575    1.0000 </r>
       <r>    6.7146    1.0000 </r>
       <r>    6.8928    1.0000 </r>
       <r>    7.2366    1.0000 </r>
       <r>    7.4089    1.0000 </r>
       <r>    7.7572    1.0000 </r>
       <r>    7.9393    1.0000 </r>
       <r>    8.1473    1.0000 </r>
       <r>    8.4907    1.0000 </r>
       <r>    8.7639    1.0000 </r>
       <r>    9.0254    1.0000 </r>
       <r>    9.2332    1.0000 </r>
       <r>    9.4822    1.0000 </r>
       <r>    9.7625    1.0000 </r>
       <r>    9.9021    1.0000 </r>
       <r>   10.2524    1.0000 </r>
       <r>   10.4465    1.0000 </r>
       <r>   10.6846    1.0000 </r>
       <r>   11.0011    1.0133 </r>
       <r>   11.2254    0.9624 </r>
       <r>   11.3451    0.5913 </r>
       <r>   11.4268    0.2586 </r>
       <r>   11.8724   -0.0010 </r>
       <r>   12.1053   -0.0000 </r>
       <r>   12.3108   -0.0000 </r>
       <r>   12.6515   -0.0000 </r>
       <r>   12.8176   -0.0000 </r>
       <r>   13.0169   -0.0000 </r>
       <r>   13.1483   -0.0000 </r>
       <r>   13.4060   -0.0000 </r>
       <r>   13.4455   -0.0000 </r>
       <r>   13.7526   -0.0000 </r>
       <r>   13.9824   -0.0000 </r>
       <r>   14.1157   -0.0000 </r>
       <r>   14.3862   -0.0000 </r>
       <r>   14.6121   -0.0000 </r>
       <r>   14.8604   -0.0000 </r>
       <r>   15.0104   -0.0000 </r>
       <r>   15.2317   -0.0000 </r>
       <r>   15.3988   -0.0000 </r>
       <r>   15.5209   -0.0000 </r>
       <r>   15.6336   -0.0000 </r>
       <r>   15.7603   -0.0000 </r>
       <r>   15.9861   -0.0000 </r>
      </set>
      <set comment="kpoint 79">
       <r>   -1.8024    1.0000 </r>
       <r>   -1.2042    1.0000 </r>
       <r>   -0.0178    1.0000 </r>
       <r>    0.2549    1.0000 </r>
       <r>    0.7070    1.0000 </r>
       <r>    1.4077    1.0000 </r>
       <r>    1.8842    1.0000 </r>
       <r>    2.1930    1.0000 </r>
       <r>    2.7304    1.0000 </r>
       <r>    3.2241    1.0000 </r>
       <r>    3.6854    1.0000 </r>
       <r>    3.8765    1.0000 </r>
       <r>    4.1105    1.0000 </r>
       <r>    4.4729    1.0000 </r>
       <r>    4.9712    1.0000 </r>
       <r>    5.1204    1.0000 </r>
       <r>    5.3797    1.0000 </r>
       <r>    5.8506    1.0000 </r>
       <r>    5.9465    1.0000 </r>
       <r>    6.3096    1.0000 </r>
       <r>    6.3875    1.0000 </r>
       <r>    6.4871    1.0000 </r>
       <r>    6.7155    1.0000 </r>
       <r>    6.9904    1.0000 </r>
       <r>    7.4366    1.0000 </r>
       <r>    7.6347    1.0000 </r>
       <r>    8.1144    1.0000 </r>
       <r>    8.2956    1.0000 </r>
       <r>    8.7499    1.0000 </r>
       <r>    8.9149    1.0000 </r>
       <r>    9.1846    1.0000 </r>
       <r>    9.3189    1.0000 </r>
       <r>    9.5566    1.0000 </r>
       <r>    9.8504    1.0000 </r>
       <r>   10.2002    1.0000 </r>
       <r>   10.4095    1.0000 </r>
       <r>   10.5159    1.0000 </r>
       <r>   10.7804    1.0001 </r>
       <r>   11.0657    1.0274 </r>
       <r>   11.2086    0.9878 </r>
       <r>   11.2930    0.7901 </r>
       <r>   11.5824   -0.0314 </r>
       <r>   11.8774   -0.0009 </r>
       <r>   11.9938   -0.0000 </r>
       <r>   12.3223   -0.0000 </r>
       <r>   12.3990   -0.0000 </r>
       <r>   12.4921   -0.0000 </r>
       <r>   12.8086   -0.0000 </r>
       <r>   12.9449   -0.0000 </r>
       <r>   13.2353   -0.0000 </r>
       <r>   13.4013   -0.0000 </r>
       <r>   13.5709   -0.0000 </r>
       <r>   13.9304   -0.0000 </r>
       <r>   14.1879   -0.0000 </r>
       <r>   14.3016   -0.0000 </r>
       <r>   14.4166   -0.0000 </r>
       <r>   14.6926   -0.0000 </r>
       <r>   14.8575   -0.0000 </r>
       <r>   15.1371   -0.0000 </r>
       <r>   15.3842   -0.0000 </r>
       <r>   15.5342   -0.0000 </r>
       <r>   15.6062   -0.0000 </r>
       <r>   15.7883   -0.0000 </r>
       <r>   16.0777   -0.0000 </r>
      </set>
      <set comment="kpoint 80">
       <r>   -1.8809    1.0000 </r>
       <r>   -0.9743    1.0000 </r>
       <r>   -0.2996    1.0000 </r>
       <r>    0.2801    1.0000 </r>
       <r>    0.8420    1.0000 </r>
       <r>    1.4791    1.0000 </r>
       <r>    1.7911    1.0000 </r>
       <r>    2.4280    1.0000 </r>
       <r>    2.6315    1.0000 </r>
       <r>    3.0679    1.0000 </r>
       <r>    3.2944    1.0000 </r>
       <r>    3.8617    1.0000 </r>
       <r>    4.1640    1.0000 </r>
       <r>    4.6566    1.0000 </r>
       <r>    5.0667    1.0000 </r>
       <r>    5.2199    1.0000 </r>
       <r>    5.5144    1.0000 </r>
       <r>    5.5837    1.0000 </r>
       <r>    5.8738    1.0000 </r>
       <r>    6.3744    1.0000 </r>
       <r>    6.5089    1.0000 </r>
       <r>    6.7102    1.0000 </r>
       <r>    6.9326    1.0000 </r>
       <r>    7.1858    1.0000 </r>
       <r>    7.4164    1.0000 </r>
       <r>    7.7077    1.0000 </r>
       <r>    7.9617    1.0000 </r>
       <r>    8.2473    1.0000 </r>
       <r>    8.4771    1.0000 </r>
       <r>    8.8295    1.0000 </r>
       <r>    9.1078    1.0000 </r>
       <r>    9.3363    1.0000 </r>
       <r>    9.5365    1.0000 </r>
       <r>    9.6588    1.0000 </r>
       <r>    9.9819    1.0000 </r>
       <r>   10.1664    1.0000 </r>
       <r>   10.4881    1.0000 </r>
       <r>   10.8682    1.0012 </r>
       <r>   11.0656    1.0274 </r>
       <r>   11.1220    1.0355 </r>
       <r>   11.3872    0.4145 </r>
       <r>   11.5464   -0.0110 </r>
       <r>   11.8075   -0.0039 </r>
       <r>   12.0352   -0.0000 </r>
       <r>   12.2662   -0.0000 </r>
       <r>   12.4568   -0.0000 </r>
       <r>   12.5351   -0.0000 </r>
       <r>   12.8357   -0.0000 </r>
       <r>   13.0929   -0.0000 </r>
       <r>   13.2885   -0.0000 </r>
       <r>   13.4755   -0.0000 </r>
       <r>   13.6655   -0.0000 </r>
       <r>   14.1057   -0.0000 </r>
       <r>   14.2646   -0.0000 </r>
       <r>   14.3770   -0.0000 </r>
       <r>   14.6689   -0.0000 </r>
       <r>   14.8263   -0.0000 </r>
       <r>   14.9832   -0.0000 </r>
       <r>   15.1300   -0.0000 </r>
       <r>   15.3972   -0.0000 </r>
       <r>   15.4698   -0.0000 </r>
       <r>   15.6699   -0.0000 </r>
       <r>   15.9015   -0.0000 </r>
       <r>   16.0782   -0.0000 </r>
      </set>
      <set comment="kpoint 81">
       <r>   -1.8350    1.0000 </r>
       <r>   -1.1187    1.0000 </r>
       <r>   -0.2270    1.0000 </r>
       <r>    0.4290    1.0000 </r>
       <r>    0.7876    1.0000 </r>
       <r>    1.2855    1.0000 </r>
       <r>    2.0099    1.0000 </r>
       <r>    2.3075    1.0000 </r>
       <r>    2.5252    1.0000 </r>
       <r>    3.1994    1.0000 </r>
       <r>    3.3767    1.0000 </r>
       <r>    3.9212    1.0000 </r>
       <r>    4.1833    1.0000 </r>
       <r>    4.5548    1.0000 </r>
       <r>    4.9633    1.0000 </r>
       <r>    5.1462    1.0000 </r>
       <r>    5.5805    1.0000 </r>
       <r>    5.7130    1.0000 </r>
       <r>    5.9780    1.0000 </r>
       <r>    6.1680    1.0000 </r>
       <r>    6.3706    1.0000 </r>
       <r>    6.5963    1.0000 </r>
       <r>    6.9406    1.0000 </r>
       <r>    7.2719    1.0000 </r>
       <r>    7.4596    1.0000 </r>
       <r>    7.7224    1.0000 </r>
       <r>    8.1234    1.0000 </r>
       <r>    8.3432    1.0000 </r>
       <r>    8.6201    1.0000 </r>
       <r>    8.6853    1.0000 </r>
       <r>    8.8831    1.0000 </r>
       <r>    9.1815    1.0000 </r>
       <r>    9.5237    1.0000 </r>
       <r>    9.8453    1.0000 </r>
       <r>   10.0270    1.0000 </r>
       <r>   10.2634    1.0000 </r>
       <r>   10.5582    1.0000 </r>
       <r>   10.8221    1.0004 </r>
       <r>   11.0501    1.0238 </r>
       <r>   11.1108    1.0350 </r>
       <r>   11.4148    0.3035 </r>
       <r>   11.4897    0.0736 </r>
       <r>   11.8310   -0.0025 </r>
       <r>   12.1045   -0.0000 </r>
       <r>   12.3171   -0.0000 </r>
       <r>   12.5304   -0.0000 </r>
       <r>   12.6098   -0.0000 </r>
       <r>   12.8570   -0.0000 </r>
       <r>   13.1220   -0.0000 </r>
       <r>   13.2806   -0.0000 </r>
       <r>   13.5477   -0.0000 </r>
       <r>   13.6846   -0.0000 </r>
       <r>   13.9137   -0.0000 </r>
       <r>   14.2198   -0.0000 </r>
       <r>   14.3714   -0.0000 </r>
       <r>   14.4840   -0.0000 </r>
       <r>   14.6784   -0.0000 </r>
       <r>   14.8887   -0.0000 </r>
       <r>   15.0711   -0.0000 </r>
       <r>   15.2464   -0.0000 </r>
       <r>   15.3951   -0.0000 </r>
       <r>   15.6954   -0.0000 </r>
       <r>   15.8111   -0.0000 </r>
       <r>   15.9961   -0.0000 </r>
      </set>
      <set comment="kpoint 82">
       <r>   -1.8305    1.0000 </r>
       <r>   -1.0694    1.0000 </r>
       <r>   -0.3182    1.0000 </r>
       <r>    0.1809    1.0000 </r>
       <r>    1.1063    1.0000 </r>
       <r>    1.4487    1.0000 </r>
       <r>    1.9897    1.0000 </r>
       <r>    2.2184    1.0000 </r>
       <r>    2.5309    1.0000 </r>
       <r>    3.0601    1.0000 </r>
       <r>    3.5846    1.0000 </r>
       <r>    3.7531    1.0000 </r>
       <r>    4.0672    1.0000 </r>
       <r>    4.5740    1.0000 </r>
       <r>    4.8857    1.0000 </r>
       <r>    5.3039    1.0000 </r>
       <r>    5.5595    1.0000 </r>
       <r>    5.7334    1.0000 </r>
       <r>    6.0354    1.0000 </r>
       <r>    6.1000    1.0000 </r>
       <r>    6.3522    1.0000 </r>
       <r>    6.6747    1.0000 </r>
       <r>    6.9549    1.0000 </r>
       <r>    7.1952    1.0000 </r>
       <r>    7.4233    1.0000 </r>
       <r>    7.6454    1.0000 </r>
       <r>    7.9193    1.0000 </r>
       <r>    8.4175    1.0000 </r>
       <r>    8.6402    1.0000 </r>
       <r>    8.9402    1.0000 </r>
       <r>    9.0946    1.0000 </r>
       <r>    9.2830    1.0000 </r>
       <r>    9.6394    1.0000 </r>
       <r>    9.8851    1.0000 </r>
       <r>    9.9894    1.0000 </r>
       <r>   10.1718    1.0000 </r>
       <r>   10.5112    1.0000 </r>
       <r>   10.7104    1.0000 </r>
       <r>   10.8263    1.0004 </r>
       <r>   11.0280    1.0188 </r>
       <r>   11.2589    0.8913 </r>
       <r>   11.4030    0.3499 </r>
       <r>   11.8090   -0.0038 </r>
       <r>   12.1767   -0.0000 </r>
       <r>   12.4459   -0.0000 </r>
       <r>   12.5679   -0.0000 </r>
       <r>   12.8966   -0.0000 </r>
       <r>   12.9896   -0.0000 </r>
       <r>   13.0836   -0.0000 </r>
       <r>   13.2548   -0.0000 </r>
       <r>   13.4739   -0.0000 </r>
       <r>   13.7049   -0.0000 </r>
       <r>   14.0140   -0.0000 </r>
       <r>   14.1346   -0.0000 </r>
       <r>   14.3799   -0.0000 </r>
       <r>   14.4516   -0.0000 </r>
       <r>   14.7264   -0.0000 </r>
       <r>   14.9129   -0.0000 </r>
       <r>   15.1301   -0.0000 </r>
       <r>   15.3384   -0.0000 </r>
       <r>   15.5437   -0.0000 </r>
       <r>   15.7111   -0.0000 </r>
       <r>   15.8233   -0.0000 </r>
       <r>   16.0079   -0.0000 </r>
      </set>
      <set comment="kpoint 83">
       <r>   -1.8233    1.0000 </r>
       <r>   -1.0903    1.0000 </r>
       <r>   -0.2561    1.0000 </r>
       <r>    0.1039    1.0000 </r>
       <r>    1.2128    1.0000 </r>
       <r>    1.4616    1.0000 </r>
       <r>    1.8233    1.0000 </r>
       <r>    2.0804    1.0000 </r>
       <r>    2.7578    1.0000 </r>
       <r>    3.1367    1.0000 </r>
       <r>    3.3993    1.0000 </r>
       <r>    3.6897    1.0000 </r>
       <r>    4.3034    1.0000 </r>
       <r>    4.8199    1.0000 </r>
       <r>    5.0121    1.0000 </r>
       <r>    5.2081    1.0000 </r>
       <r>    5.3798    1.0000 </r>
       <r>    5.7325    1.0000 </r>
       <r>    5.7838    1.0000 </r>
       <r>    6.0616    1.0000 </r>
       <r>    6.2678    1.0000 </r>
       <r>    6.7182    1.0000 </r>
       <r>    6.9617    1.0000 </r>
       <r>    6.9987    1.0000 </r>
       <r>    7.4055    1.0000 </r>
       <r>    7.8651    1.0000 </r>
       <r>    8.0061    1.0000 </r>
       <r>    8.4920    1.0000 </r>
       <r>    8.7095    1.0000 </r>
       <r>    8.8046    1.0000 </r>
       <r>    9.1332    1.0000 </r>
       <r>    9.2728    1.0000 </r>
       <r>    9.6562    1.0000 </r>
       <r>    9.7996    1.0000 </r>
       <r>   10.0696    1.0000 </r>
       <r>   10.2635    1.0000 </r>
       <r>   10.3965    1.0000 </r>
       <r>   10.7838    1.0001 </r>
       <r>   10.9943    1.0121 </r>
       <r>   11.0776    1.0300 </r>
       <r>   11.3673    0.4982 </r>
       <r>   11.4283    0.2532 </r>
       <r>   11.8833   -0.0008 </r>
       <r>   12.0539   -0.0000 </r>
       <r>   12.3568   -0.0000 </r>
       <r>   12.6040   -0.0000 </r>
       <r>   12.7632   -0.0000 </r>
       <r>   12.8890   -0.0000 </r>
       <r>   13.1089   -0.0000 </r>
       <r>   13.2864   -0.0000 </r>
       <r>   13.3738   -0.0000 </r>
       <r>   13.7277   -0.0000 </r>
       <r>   13.9917   -0.0000 </r>
       <r>   14.0953   -0.0000 </r>
       <r>   14.1850   -0.0000 </r>
       <r>   14.3990   -0.0000 </r>
       <r>   14.6271   -0.0000 </r>
       <r>   14.7398   -0.0000 </r>
       <r>   15.0158   -0.0000 </r>
       <r>   15.3011   -0.0000 </r>
       <r>   15.4847   -0.0000 </r>
       <r>   15.7309   -0.0000 </r>
       <r>   15.8512   -0.0000 </r>
       <r>   16.0416   -0.0000 </r>
      </set>
      <set comment="kpoint 84">
       <r>   -1.8839    1.0000 </r>
       <r>   -0.9534    1.0000 </r>
       <r>   -0.3192    1.0000 </r>
       <r>    0.3162    1.0000 </r>
       <r>    0.7510    1.0000 </r>
       <r>    1.4383    1.0000 </r>
       <r>    1.9224    1.0000 </r>
       <r>    2.3929    1.0000 </r>
       <r>    2.6108    1.0000 </r>
       <r>    3.0358    1.0000 </r>
       <r>    3.5352    1.0000 </r>
       <r>    3.8729    1.0000 </r>
       <r>    4.1772    1.0000 </r>
       <r>    4.4160    1.0000 </r>
       <r>    4.9673    1.0000 </r>
       <r>    5.1519    1.0000 </r>
       <r>    5.4215    1.0000 </r>
       <r>    5.6388    1.0000 </r>
       <r>    5.9235    1.0000 </r>
       <r>    6.4206    1.0000 </r>
       <r>    6.6000    1.0000 </r>
       <r>    6.7166    1.0000 </r>
       <r>    6.9838    1.0000 </r>
       <r>    7.2891    1.0000 </r>
       <r>    7.5715    1.0000 </r>
       <r>    7.6671    1.0000 </r>
       <r>    7.9397    1.0000 </r>
       <r>    8.1668    1.0000 </r>
       <r>    8.6281    1.0000 </r>
       <r>    8.8186    1.0000 </r>
       <r>    9.0153    1.0000 </r>
       <r>    9.1851    1.0000 </r>
       <r>    9.3878    1.0000 </r>
       <r>    9.6690    1.0000 </r>
       <r>    9.7934    1.0000 </r>
       <r>   10.2265    1.0000 </r>
       <r>   10.5324    1.0000 </r>
       <r>   10.7607    1.0001 </r>
       <r>   11.1034    1.0343 </r>
       <r>   11.3074    0.7397 </r>
       <r>   11.3899    0.4032 </r>
       <r>   11.6169   -0.0354 </r>
       <r>   11.7471   -0.0109 </r>
       <r>   12.0700   -0.0000 </r>
       <r>   12.3070   -0.0000 </r>
       <r>   12.4214   -0.0000 </r>
       <r>   12.7444   -0.0000 </r>
       <r>   12.8704   -0.0000 </r>
       <r>   13.1106   -0.0000 </r>
       <r>   13.2808   -0.0000 </r>
       <r>   13.5569   -0.0000 </r>
       <r>   13.7188   -0.0000 </r>
       <r>   14.1331   -0.0000 </r>
       <r>   14.2201   -0.0000 </r>
       <r>   14.3058   -0.0000 </r>
       <r>   14.5161   -0.0000 </r>
       <r>   14.6822   -0.0000 </r>
       <r>   14.9938   -0.0000 </r>
       <r>   15.1011   -0.0000 </r>
       <r>   15.4271   -0.0000 </r>
       <r>   15.5421   -0.0000 </r>
       <r>   15.6941   -0.0000 </r>
       <r>   15.8524   -0.0000 </r>
       <r>   16.0513   -0.0000 </r>
      </set>
      <set comment="kpoint 85">
       <r>   -1.8392    1.0000 </r>
       <r>   -1.0997    1.0000 </r>
       <r>   -0.1836    1.0000 </r>
       <r>    0.3195    1.0000 </r>
       <r>    0.6954    1.0000 </r>
       <r>    1.4595    1.0000 </r>
       <r>    1.9564    1.0000 </r>
       <r>    2.2637    1.0000 </r>
       <r>    2.6503    1.0000 </r>
       <r>    3.1865    1.0000 </r>
       <r>    3.5244    1.0000 </r>
       <r>    3.8194    1.0000 </r>
       <r>    4.0959    1.0000 </r>
       <r>    4.6818    1.0000 </r>
       <r>    4.8314    1.0000 </r>
       <r>    5.2054    1.0000 </r>
       <r>    5.5043    1.0000 </r>
       <r>    5.7772    1.0000 </r>
       <r>    5.8362    1.0000 </r>
       <r>    6.0942    1.0000 </r>
       <r>    6.4119    1.0000 </r>
       <r>    6.6765    1.0000 </r>
       <r>    6.9909    1.0000 </r>
       <r>    7.0815    1.0000 </r>
       <r>    7.4374    1.0000 </r>
       <r>    7.7571    1.0000 </r>
       <r>    8.1472    1.0000 </r>
       <r>    8.2630    1.0000 </r>
       <r>    8.5668    1.0000 </r>
       <r>    8.8284    1.0000 </r>
       <r>    9.1218    1.0000 </r>
       <r>    9.3237    1.0000 </r>
       <r>    9.5047    1.0000 </r>
       <r>    9.7765    1.0000 </r>
       <r>   10.0995    1.0000 </r>
       <r>   10.2811    1.0000 </r>
       <r>   10.5512    1.0000 </r>
       <r>   10.7624    1.0001 </r>
       <r>   10.9651    1.0078 </r>
       <r>   11.1203    1.0354 </r>
       <r>   11.2894    0.8020 </r>
       <r>   11.6198   -0.0352 </r>
       <r>   11.7427   -0.0116 </r>
       <r>   12.0554   -0.0000 </r>
       <r>   12.3146   -0.0000 </r>
       <r>   12.4935   -0.0000 </r>
       <r>   12.7568   -0.0000 </r>
       <r>   12.9336   -0.0000 </r>
       <r>   13.1150   -0.0000 </r>
       <r>   13.2192   -0.0000 </r>
       <r>   13.3446   -0.0000 </r>
       <r>   13.5913   -0.0000 </r>
       <r>   14.1390   -0.0000 </r>
       <r>   14.2606   -0.0000 </r>
       <r>   14.4119   -0.0000 </r>
       <r>   14.5112   -0.0000 </r>
       <r>   14.6680   -0.0000 </r>
       <r>   14.8211   -0.0000 </r>
       <r>   15.0719   -0.0000 </r>
       <r>   15.3511   -0.0000 </r>
       <r>   15.4917   -0.0000 </r>
       <r>   15.6089   -0.0000 </r>
       <r>   15.8487   -0.0000 </r>
       <r>   16.0764   -0.0000 </r>
      </set>
      <set comment="kpoint 86">
       <r>   -1.8683    1.0000 </r>
       <r>   -1.0569    1.0000 </r>
       <r>   -0.1739    1.0000 </r>
       <r>    0.2586    1.0000 </r>
       <r>    0.9262    1.0000 </r>
       <r>    1.3917    1.0000 </r>
       <r>    1.7548    1.0000 </r>
       <r>    2.2693    1.0000 </r>
       <r>    2.6241    1.0000 </r>
       <r>    2.9681    1.0000 </r>
       <r>    3.6219    1.0000 </r>
       <r>    3.9100    1.0000 </r>
       <r>    4.2238    1.0000 </r>
       <r>    4.6933    1.0000 </r>
       <r>    4.8111    1.0000 </r>
       <r>    5.1893    1.0000 </r>
       <r>    5.4937    1.0000 </r>
       <r>    5.6892    1.0000 </r>
       <r>    6.0388    1.0000 </r>
       <r>    6.2368    1.0000 </r>
       <r>    6.5460    1.0000 </r>
       <r>    6.7959    1.0000 </r>
       <r>    6.9722    1.0000 </r>
       <r>    7.0478    1.0000 </r>
       <r>    7.3141    1.0000 </r>
       <r>    7.6582    1.0000 </r>
       <r>    7.8984    1.0000 </r>
       <r>    8.3191    1.0000 </r>
       <r>    8.6279    1.0000 </r>
       <r>    8.8674    1.0000 </r>
       <r>    9.0339    1.0000 </r>
       <r>    9.2385    1.0000 </r>
       <r>    9.5331    1.0000 </r>
       <r>    9.7107    1.0000 </r>
       <r>    9.9356    1.0000 </r>
       <r>   10.2317    1.0000 </r>
       <r>   10.4885    1.0000 </r>
       <r>   10.7702    1.0001 </r>
       <r>   10.9971    1.0126 </r>
       <r>   11.1513    1.0314 </r>
       <r>   11.4785    0.0996 </r>
       <r>   11.5252    0.0121 </r>
       <r>   11.6922   -0.0218 </r>
       <r>   12.0050   -0.0000 </r>
       <r>   12.1585   -0.0000 </r>
       <r>   12.5244   -0.0000 </r>
       <r>   12.8086   -0.0000 </r>
       <r>   13.0134   -0.0000 </r>
       <r>   13.1861   -0.0000 </r>
       <r>   13.3794   -0.0000 </r>
       <r>   13.5165   -0.0000 </r>
       <r>   13.5723   -0.0000 </r>
       <r>   13.9696   -0.0000 </r>
       <r>   14.2514   -0.0000 </r>
       <r>   14.3982   -0.0000 </r>
       <r>   14.6054   -0.0000 </r>
       <r>   14.7136   -0.0000 </r>
       <r>   15.0296   -0.0000 </r>
       <r>   15.1655   -0.0000 </r>
       <r>   15.1874   -0.0000 </r>
       <r>   15.5916   -0.0000 </r>
       <r>   15.8045   -0.0000 </r>
       <r>   16.0434   -0.0000 </r>
       <r>   16.1381   -0.0000 </r>
      </set>
      <set comment="kpoint 87">
       <r>   -1.7978    1.0000 </r>
       <r>   -1.2200    1.0000 </r>
       <r>   -0.0339    1.0000 </r>
       <r>    0.1999    1.0000 </r>
       <r>    1.0453    1.0000 </r>
       <r>    1.3089    1.0000 </r>
       <r>    1.7556    1.0000 </r>
       <r>    1.9820    1.0000 </r>
       <r>    2.9807    1.0000 </r>
       <r>    3.1930    1.0000 </r>
       <r>    3.3786    1.0000 </r>
       <r>    3.9438    1.0000 </r>
       <r>    4.2081    1.0000 </r>
       <r>    4.7699    1.0000 </r>
       <r>    4.9126    1.0000 </r>
       <r>    5.2241    1.0000 </r>
       <r>    5.2822    1.0000 </r>
       <r>    5.7515    1.0000 </r>
       <r>    5.8304    1.0000 </r>
       <r>    6.1200    1.0000 </r>
       <r>    6.4469    1.0000 </r>
       <r>    6.5695    1.0000 </r>
       <r>    6.7257    1.0000 </r>
       <r>    7.2599    1.0000 </r>
       <r>    7.4354    1.0000 </r>
       <r>    7.8469    1.0000 </r>
       <r>    8.0723    1.0000 </r>
       <r>    8.1955    1.0000 </r>
       <r>    8.6790    1.0000 </r>
       <r>    8.9668    1.0000 </r>
       <r>    9.1487    1.0000 </r>
       <r>    9.2221    1.0000 </r>
       <r>    9.4279    1.0000 </r>
       <r>    9.7354    1.0000 </r>
       <r>   10.1277    1.0000 </r>
       <r>   10.3240    1.0000 </r>
       <r>   10.4629    1.0000 </r>
       <r>   10.8831    1.0017 </r>
       <r>   11.0354    1.0204 </r>
       <r>   11.2143    0.9799 </r>
       <r>   11.4950    0.0627 </r>
       <r>   11.6127   -0.0355 </r>
       <r>   11.7667   -0.0080 </r>
       <r>   12.0250   -0.0000 </r>
       <r>   12.2060   -0.0000 </r>
       <r>   12.4168   -0.0000 </r>
       <r>   12.8412   -0.0000 </r>
       <r>   12.8841   -0.0000 </r>
       <r>   12.9633   -0.0000 </r>
       <r>   13.0897   -0.0000 </r>
       <r>   13.4219   -0.0000 </r>
       <r>   13.6944   -0.0000 </r>
       <r>   13.8385   -0.0000 </r>
       <r>   13.9888   -0.0000 </r>
       <r>   14.3482   -0.0000 </r>
       <r>   14.5457   -0.0000 </r>
       <r>   14.7591   -0.0000 </r>
       <r>   14.9822   -0.0000 </r>
       <r>   15.0602   -0.0000 </r>
       <r>   15.2510   -0.0000 </r>
       <r>   15.4047   -0.0000 </r>
       <r>   15.7286   -0.0000 </r>
       <r>   15.8616   -0.0000 </r>
       <r>   15.9400   -0.0000 </r>
      </set>
      <set comment="kpoint 88">
       <r>   -1.8442    1.0000 </r>
       <r>   -0.9538    1.0000 </r>
       <r>   -0.4388    1.0000 </r>
       <r>    0.1188    1.0000 </r>
       <r>    0.9743    1.0000 </r>
       <r>    1.6903    1.0000 </r>
       <r>    2.0011    1.0000 </r>
       <r>    2.3212    1.0000 </r>
       <r>    2.5876    1.0000 </r>
       <r>    2.9828    1.0000 </r>
       <r>    3.5064    1.0000 </r>
       <r>    3.9141    1.0000 </r>
       <r>    4.1573    1.0000 </r>
       <r>    4.3374    1.0000 </r>
       <r>    4.8123    1.0000 </r>
       <r>    5.1506    1.0000 </r>
       <r>    5.3151    1.0000 </r>
       <r>    5.6501    1.0000 </r>
       <r>    6.0302    1.0000 </r>
       <r>    6.2295    1.0000 </r>
       <r>    6.4286    1.0000 </r>
       <r>    6.8763    1.0000 </r>
       <r>    6.9521    1.0000 </r>
       <r>    7.3653    1.0000 </r>
       <r>    7.5215    1.0000 </r>
       <r>    7.7656    1.0000 </r>
       <r>    7.9409    1.0000 </r>
       <r>    8.2447    1.0000 </r>
       <r>    8.6353    1.0000 </r>
       <r>    8.9165    1.0000 </r>
       <r>    9.0295    1.0000 </r>
       <r>    9.3303    1.0000 </r>
       <r>    9.4915    1.0000 </r>
       <r>    9.8746    1.0000 </r>
       <r>   10.0424    1.0000 </r>
       <r>   10.2440    1.0000 </r>
       <r>   10.4703    1.0000 </r>
       <r>   10.6545    1.0000 </r>
       <r>   10.9938    1.0121 </r>
       <r>   11.0640    1.0270 </r>
       <r>   11.2761    0.8436 </r>
       <r>   11.4979    0.0568 </r>
       <r>   11.9168   -0.0004 </r>
       <r>   12.0281   -0.0000 </r>
       <r>   12.2379   -0.0000 </r>
       <r>   12.6773   -0.0000 </r>
       <r>   12.8340   -0.0000 </r>
       <r>   12.9898   -0.0000 </r>
       <r>   13.0926   -0.0000 </r>
       <r>   13.2315   -0.0000 </r>
       <r>   13.3714   -0.0000 </r>
       <r>   13.5397   -0.0000 </r>
       <r>   13.9214   -0.0000 </r>
       <r>   14.1605   -0.0000 </r>
       <r>   14.3638   -0.0000 </r>
       <r>   14.5420   -0.0000 </r>
       <r>   14.7500   -0.0000 </r>
       <r>   14.8886   -0.0000 </r>
       <r>   15.0593   -0.0000 </r>
       <r>   15.2518   -0.0000 </r>
       <r>   15.5086   -0.0000 </r>
       <r>   15.6517   -0.0000 </r>
       <r>   15.6929   -0.0000 </r>
       <r>   15.8599   -0.0000 </r>
      </set>
      <set comment="kpoint 89">
       <r>   -1.8867    1.0000 </r>
       <r>   -0.9824    1.0000 </r>
       <r>   -0.3118    1.0000 </r>
       <r>    0.4331    1.0000 </r>
       <r>    0.8513    1.0000 </r>
       <r>    1.3406    1.0000 </r>
       <r>    1.7202    1.0000 </r>
       <r>    2.3438    1.0000 </r>
       <r>    2.4769    1.0000 </r>
       <r>    3.2385    1.0000 </r>
       <r>    3.6409    1.0000 </r>
       <r>    3.7084    1.0000 </r>
       <r>    4.2586    1.0000 </r>
       <r>    4.6722    1.0000 </r>
       <r>    4.9687    1.0000 </r>
       <r>    5.0289    1.0000 </r>
       <r>    5.4853    1.0000 </r>
       <r>    5.6406    1.0000 </r>
       <r>    6.2326    1.0000 </r>
       <r>    6.2913    1.0000 </r>
       <r>    6.4654    1.0000 </r>
       <r>    6.7052    1.0000 </r>
       <r>    6.8961    1.0000 </r>
       <r>    7.1026    1.0000 </r>
       <r>    7.6313    1.0000 </r>
       <r>    7.7666    1.0000 </r>
       <r>    7.9168    1.0000 </r>
       <r>    8.1300    1.0000 </r>
       <r>    8.6177    1.0000 </r>
       <r>    8.7433    1.0000 </r>
       <r>    8.9431    1.0000 </r>
       <r>    9.0266    1.0000 </r>
       <r>    9.4924    1.0000 </r>
       <r>    9.7257    1.0000 </r>
       <r>    9.8184    1.0000 </r>
       <r>   10.1267    1.0000 </r>
       <r>   10.4942    1.0000 </r>
       <r>   10.8807    1.0016 </r>
       <r>   11.1308    1.0351 </r>
       <r>   11.2217    0.9685 </r>
       <r>   11.3641    0.5116 </r>
       <r>   11.6847   -0.0236 </r>
       <r>   11.8060   -0.0040 </r>
       <r>   12.0244   -0.0000 </r>
       <r>   12.4303   -0.0000 </r>
       <r>   12.6067   -0.0000 </r>
       <r>   12.7242   -0.0000 </r>
       <r>   12.9838   -0.0000 </r>
       <r>   13.1714   -0.0000 </r>
       <r>   13.3103   -0.0000 </r>
       <r>   13.4886   -0.0000 </r>
       <r>   13.5808   -0.0000 </r>
       <r>   13.8840   -0.0000 </r>
       <r>   14.3079   -0.0000 </r>
       <r>   14.4276   -0.0000 </r>
       <r>   14.5446   -0.0000 </r>
       <r>   14.8408   -0.0000 </r>
       <r>   15.1406   -0.0000 </r>
       <r>   15.1504   -0.0000 </r>
       <r>   15.3724   -0.0000 </r>
       <r>   15.5195   -0.0000 </r>
       <r>   15.6580   -0.0000 </r>
       <r>   15.7372   -0.0000 </r>
       <r>   15.9704   -0.0000 </r>
      </set>
      <set comment="kpoint 90">
       <r>   -1.8391    1.0000 </r>
       <r>   -1.0783    1.0000 </r>
       <r>   -0.2321    1.0000 </r>
       <r>    0.2889    1.0000 </r>
       <r>    0.7132    1.0000 </r>
       <r>    1.4783    1.0000 </r>
       <r>    2.0627    1.0000 </r>
       <r>    2.2696    1.0000 </r>
       <r>    2.7541    1.0000 </r>
       <r>    3.0658    1.0000 </r>
       <r>    3.3887    1.0000 </r>
       <r>    3.8722    1.0000 </r>
       <r>    4.0919    1.0000 </r>
       <r>    4.5537    1.0000 </r>
       <r>    4.8822    1.0000 </r>
       <r>    5.3016    1.0000 </r>
       <r>    5.4282    1.0000 </r>
       <r>    5.5532    1.0000 </r>
       <r>    5.9934    1.0000 </r>
       <r>    6.2408    1.0000 </r>
       <r>    6.5482    1.0000 </r>
       <r>    6.5994    1.0000 </r>
       <r>    6.8532    1.0000 </r>
       <r>    7.1924    1.0000 </r>
       <r>    7.4488    1.0000 </r>
       <r>    7.6977    1.0000 </r>
       <r>    8.0113    1.0000 </r>
       <r>    8.2961    1.0000 </r>
       <r>    8.6776    1.0000 </r>
       <r>    8.8414    1.0000 </r>
       <r>    9.1060    1.0000 </r>
       <r>    9.4652    1.0000 </r>
       <r>    9.5765    1.0000 </r>
       <r>    9.8560    1.0000 </r>
       <r>    9.9455    1.0000 </r>
       <r>   10.2968    1.0000 </r>
       <r>   10.5418    1.0000 </r>
       <r>   10.8090    1.0003 </r>
       <r>   10.9826    1.0102 </r>
       <r>   11.0811    1.0307 </r>
       <r>   11.2998    0.7667 </r>
       <r>   11.4702    0.1208 </r>
       <r>   11.6302   -0.0343 </r>
       <r>   12.0639   -0.0000 </r>
       <r>   12.4218   -0.0000 </r>
       <r>   12.5443   -0.0000 </r>
       <r>   12.6963   -0.0000 </r>
       <r>   12.7579   -0.0000 </r>
       <r>   12.9590   -0.0000 </r>
       <r>   13.3260   -0.0000 </r>
       <r>   13.4625   -0.0000 </r>
       <r>   13.6104   -0.0000 </r>
       <r>   13.9516   -0.0000 </r>
       <r>   14.1466   -0.0000 </r>
       <r>   14.5133   -0.0000 </r>
       <r>   14.5990   -0.0000 </r>
       <r>   14.7564   -0.0000 </r>
       <r>   14.8673   -0.0000 </r>
       <r>   14.9585   -0.0000 </r>
       <r>   15.2642   -0.0000 </r>
       <r>   15.4338   -0.0000 </r>
       <r>   15.6363   -0.0000 </r>
       <r>   15.8923   -0.0000 </r>
       <r>   16.0180   -0.0000 </r>
      </set>
      <set comment="kpoint 91">
       <r>   -1.8197    1.0000 </r>
       <r>   -1.1055    1.0000 </r>
       <r>   -0.2952    1.0000 </r>
       <r>    0.1689    1.0000 </r>
       <r>    1.2145    1.0000 </r>
       <r>    1.4128    1.0000 </r>
       <r>    2.0538    1.0000 </r>
       <r>    2.2322    1.0000 </r>
       <r>    2.4403    1.0000 </r>
       <r>    2.8178    1.0000 </r>
       <r>    3.5217    1.0000 </r>
       <r>    3.8912    1.0000 </r>
       <r>    4.2880    1.0000 </r>
       <r>    4.6232    1.0000 </r>
       <r>    4.8578    1.0000 </r>
       <r>    5.2568    1.0000 </r>
       <r>    5.4576    1.0000 </r>
       <r>    5.7475    1.0000 </r>
       <r>    5.9006    1.0000 </r>
       <r>    6.1564    1.0000 </r>
       <r>    6.2868    1.0000 </r>
       <r>    6.6998    1.0000 </r>
       <r>    7.0660    1.0000 </r>
       <r>    7.2364    1.0000 </r>
       <r>    7.5789    1.0000 </r>
       <r>    7.7016    1.0000 </r>
       <r>    7.9734    1.0000 </r>
       <r>    8.1670    1.0000 </r>
       <r>    8.7177    1.0000 </r>
       <r>    8.8205    1.0000 </r>
       <r>    9.0690    1.0000 </r>
       <r>    9.4092    1.0000 </r>
       <r>    9.5375    1.0000 </r>
       <r>    9.8366    1.0000 </r>
       <r>   10.0303    1.0000 </r>
       <r>   10.2654    1.0000 </r>
       <r>   10.4541    1.0000 </r>
       <r>   10.5195    1.0000 </r>
       <r>   10.8615    1.0010 </r>
       <r>   11.0255    1.0183 </r>
       <r>   11.2819    0.8261 </r>
       <r>   11.5876   -0.0328 </r>
       <r>   11.9542   -0.0001 </r>
       <r>   12.2432   -0.0000 </r>
       <r>   12.3351   -0.0000 </r>
       <r>   12.5386   -0.0000 </r>
       <r>   12.6968   -0.0000 </r>
       <r>   12.9251   -0.0000 </r>
       <r>   13.0882   -0.0000 </r>
       <r>   13.2808   -0.0000 </r>
       <r>   13.3652   -0.0000 </r>
       <r>   13.7877   -0.0000 </r>
       <r>   13.9781   -0.0000 </r>
       <r>   14.0696   -0.0000 </r>
       <r>   14.3453   -0.0000 </r>
       <r>   14.4014   -0.0000 </r>
       <r>   14.6880   -0.0000 </r>
       <r>   14.9301   -0.0000 </r>
       <r>   15.1417   -0.0000 </r>
       <r>   15.3742   -0.0000 </r>
       <r>   15.5497   -0.0000 </r>
       <r>   15.6672   -0.0000 </r>
       <r>   15.7819   -0.0000 </r>
       <r>   15.9814   -0.0000 </r>
      </set>
      <set comment="kpoint 92">
       <r>   -1.8305    1.0000 </r>
       <r>   -1.0436    1.0000 </r>
       <r>   -0.2712    1.0000 </r>
       <r>    0.0471    1.0000 </r>
       <r>    1.0021    1.0000 </r>
       <r>    1.5814    1.0000 </r>
       <r>    2.0227    1.0000 </r>
       <r>    2.2366    1.0000 </r>
       <r>    2.5229    1.0000 </r>
       <r>    3.2556    1.0000 </r>
       <r>    3.4828    1.0000 </r>
       <r>    3.8820    1.0000 </r>
       <r>    4.1999    1.0000 </r>
       <r>    4.3259    1.0000 </r>
       <r>    4.9572    1.0000 </r>
       <r>    5.1311    1.0000 </r>
       <r>    5.2523    1.0000 </r>
       <r>    5.6384    1.0000 </r>
       <r>    5.9235    1.0000 </r>
       <r>    6.2948    1.0000 </r>
       <r>    6.4026    1.0000 </r>
       <r>    6.8003    1.0000 </r>
       <r>    6.9529    1.0000 </r>
       <r>    7.3044    1.0000 </r>
       <r>    7.5060    1.0000 </r>
       <r>    7.6879    1.0000 </r>
       <r>    7.8003    1.0000 </r>
       <r>    8.3538    1.0000 </r>
       <r>    8.7394    1.0000 </r>
       <r>    8.8621    1.0000 </r>
       <r>    9.1209    1.0000 </r>
       <r>    9.3585    1.0000 </r>
       <r>    9.6206    1.0000 </r>
       <r>    9.8589    1.0000 </r>
       <r>    9.9157    1.0000 </r>
       <r>   10.2488    1.0000 </r>
       <r>   10.4853    1.0000 </r>
       <r>   10.8330    1.0005 </r>
       <r>   10.9966    1.0125 </r>
       <r>   11.0710    1.0286 </r>
       <r>   11.2856    0.8146 </r>
       <r>   11.5240    0.0137 </r>
       <r>   11.8547   -0.0015 </r>
       <r>   12.1513   -0.0000 </r>
       <r>   12.2771   -0.0000 </r>
       <r>   12.6535   -0.0000 </r>
       <r>   12.7675   -0.0000 </r>
       <r>   12.8984   -0.0000 </r>
       <r>   13.0739   -0.0000 </r>
       <r>   13.2522   -0.0000 </r>
       <r>   13.4618   -0.0000 </r>
       <r>   13.5444   -0.0000 </r>
       <r>   13.8270   -0.0000 </r>
       <r>   14.0777   -0.0000 </r>
       <r>   14.2000   -0.0000 </r>
       <r>   14.5721   -0.0000 </r>
       <r>   14.5923   -0.0000 </r>
       <r>   14.9264   -0.0000 </r>
       <r>   15.1255   -0.0000 </r>
       <r>   15.2263   -0.0000 </r>
       <r>   15.4071   -0.0000 </r>
       <r>   15.5888   -0.0000 </r>
       <r>   15.7967   -0.0000 </r>
       <r>   16.1336   -0.0000 </r>
      </set>
      <set comment="kpoint 93">
       <r>   -1.8820    1.0000 </r>
       <r>   -1.0080    1.0000 </r>
       <r>   -0.2208    1.0000 </r>
       <r>    0.3548    1.0000 </r>
       <r>    0.7553    1.0000 </r>
       <r>    1.4103    1.0000 </r>
       <r>    1.7536    1.0000 </r>
       <r>    2.2770    1.0000 </r>
       <r>    2.6275    1.0000 </r>
       <r>    3.1051    1.0000 </r>
       <r>    3.5339    1.0000 </r>
       <r>    3.9064    1.0000 </r>
       <r>    4.3849    1.0000 </r>
       <r>    4.7702    1.0000 </r>
       <r>    4.8832    1.0000 </r>
       <r>    4.9535    1.0000 </r>
       <r>    5.4577    1.0000 </r>
       <r>    5.7289    1.0000 </r>
       <r>    5.9247    1.0000 </r>
       <r>    6.2877    1.0000 </r>
       <r>    6.5059    1.0000 </r>
       <r>    6.6426    1.0000 </r>
       <r>    6.8688    1.0000 </r>
       <r>    7.2280    1.0000 </r>
       <r>    7.4733    1.0000 </r>
       <r>    7.5850    1.0000 </r>
       <r>    8.0820    1.0000 </r>
       <r>    8.2794    1.0000 </r>
       <r>    8.4819    1.0000 </r>
       <r>    8.8122    1.0000 </r>
       <r>    8.9921    1.0000 </r>
       <r>    9.1449    1.0000 </r>
       <r>    9.5752    1.0000 </r>
       <r>    9.7763    1.0000 </r>
       <r>    9.9021    1.0000 </r>
       <r>   10.2701    1.0000 </r>
       <r>   10.3976    1.0000 </r>
       <r>   10.7424    1.0000 </r>
       <r>   11.0432    1.0222 </r>
       <r>   11.2720    0.8557 </r>
       <r>   11.4346    0.2307 </r>
       <r>   11.6347   -0.0337 </r>
       <r>   11.8558   -0.0015 </r>
       <r>   12.1987   -0.0000 </r>
       <r>   12.2792   -0.0000 </r>
       <r>   12.5056   -0.0000 </r>
       <r>   12.7654   -0.0000 </r>
       <r>   12.8632   -0.0000 </r>
       <r>   13.2172   -0.0000 </r>
       <r>   13.2882   -0.0000 </r>
       <r>   13.4568   -0.0000 </r>
       <r>   13.6527   -0.0000 </r>
       <r>   13.8634   -0.0000 </r>
       <r>   14.1515   -0.0000 </r>
       <r>   14.4125   -0.0000 </r>
       <r>   14.5129   -0.0000 </r>
       <r>   14.8243   -0.0000 </r>
       <r>   14.9987   -0.0000 </r>
       <r>   15.2658   -0.0000 </r>
       <r>   15.2769   -0.0000 </r>
       <r>   15.4322   -0.0000 </r>
       <r>   15.6963   -0.0000 </r>
       <r>   15.8728   -0.0000 </r>
       <r>   16.0460   -0.0000 </r>
      </set>
      <set comment="kpoint 94">
       <r>   -1.8353    1.0000 </r>
       <r>   -1.0970    1.0000 </r>
       <r>   -0.2670    1.0000 </r>
       <r>    0.3600    1.0000 </r>
       <r>    0.8251    1.0000 </r>
       <r>    1.3666    1.0000 </r>
       <r>    2.0187    1.0000 </r>
       <r>    2.2430    1.0000 </r>
       <r>    2.8732    1.0000 </r>
       <r>    2.9549    1.0000 </r>
       <r>    3.2973    1.0000 </r>
       <r>    3.8449    1.0000 </r>
       <r>    4.0994    1.0000 </r>
       <r>    4.6064    1.0000 </r>
       <r>    5.1130    1.0000 </r>
       <r>    5.2763    1.0000 </r>
       <r>    5.4938    1.0000 </r>
       <r>    5.6491    1.0000 </r>
       <r>    5.8171    1.0000 </r>
       <r>    6.0753    1.0000 </r>
       <r>    6.4154    1.0000 </r>
       <r>    6.7323    1.0000 </r>
       <r>    7.0848    1.0000 </r>
       <r>    7.1860    1.0000 </r>
       <r>    7.4672    1.0000 </r>
       <r>    7.7344    1.0000 </r>
       <r>    7.9291    1.0000 </r>
       <r>    8.3822    1.0000 </r>
       <r>    8.5426    1.0000 </r>
       <r>    8.8895    1.0000 </r>
       <r>    9.1193    1.0000 </r>
       <r>    9.2214    1.0000 </r>
       <r>    9.4806    1.0000 </r>
       <r>    9.8406    1.0000 </r>
       <r>   10.1099    1.0000 </r>
       <r>   10.3457    1.0000 </r>
       <r>   10.5398    1.0000 </r>
       <r>   10.7166    1.0000 </r>
       <r>   10.8296    1.0005 </r>
       <r>   11.0791    1.0303 </r>
       <r>   11.2501    0.9127 </r>
       <r>   11.5448   -0.0096 </r>
       <r>   11.8424   -0.0020 </r>
       <r>   12.1219   -0.0000 </r>
       <r>   12.3461   -0.0000 </r>
       <r>   12.4042   -0.0000 </r>
       <r>   12.5277   -0.0000 </r>
       <r>   12.8630   -0.0000 </r>
       <r>   13.1286   -0.0000 </r>
       <r>   13.3384   -0.0000 </r>
       <r>   13.4474   -0.0000 </r>
       <r>   13.6909   -0.0000 </r>
       <r>   13.9385   -0.0000 </r>
       <r>   14.2013   -0.0000 </r>
       <r>   14.3514   -0.0000 </r>
       <r>   14.5644   -0.0000 </r>
       <r>   14.8265   -0.0000 </r>
       <r>   14.9453   -0.0000 </r>
       <r>   15.1901   -0.0000 </r>
       <r>   15.2706   -0.0000 </r>
       <r>   15.5030   -0.0000 </r>
       <r>   15.6021   -0.0000 </r>
       <r>   15.8448   -0.0000 </r>
       <r>   15.9952   -0.0000 </r>
      </set>
      <set comment="kpoint 95">
       <r>   -1.7994    1.0000 </r>
       <r>   -1.2206    1.0000 </r>
       <r>    0.0190    1.0000 </r>
       <r>    0.2087    1.0000 </r>
       <r>    0.7814    1.0000 </r>
       <r>    1.4564    1.0000 </r>
       <r>    1.8120    1.0000 </r>
       <r>    2.0870    1.0000 </r>
       <r>    2.8956    1.0000 </r>
       <r>    3.1951    1.0000 </r>
       <r>    3.4622    1.0000 </r>
       <r>    3.8410    1.0000 </r>
       <r>    4.2101    1.0000 </r>
       <r>    4.5477    1.0000 </r>
       <r>    4.9074    1.0000 </r>
       <r>    5.2019    1.0000 </r>
       <r>    5.5053    1.0000 </r>
       <r>    5.7931    1.0000 </r>
       <r>    5.9338    1.0000 </r>
       <r>    6.1894    1.0000 </r>
       <r>    6.3565    1.0000 </r>
       <r>    6.4803    1.0000 </r>
       <r>    6.8371    1.0000 </r>
       <r>    6.9875    1.0000 </r>
       <r>    7.6433    1.0000 </r>
       <r>    7.7949    1.0000 </r>
       <r>    7.9278    1.0000 </r>
       <r>    8.2633    1.0000 </r>
       <r>    8.7864    1.0000 </r>
       <r>    8.8554    1.0000 </r>
       <r>    9.1165    1.0000 </r>
       <r>    9.2724    1.0000 </r>
       <r>    9.6443    1.0000 </r>
       <r>    9.7310    1.0000 </r>
       <r>   10.0181    1.0000 </r>
       <r>   10.2403    1.0000 </r>
       <r>   10.5977    1.0000 </r>
       <r>   10.9374    1.0048 </r>
       <r>   11.0248    1.0181 </r>
       <r>   11.1215    1.0355 </r>
       <r>   11.3021    0.7588 </r>
       <r>   11.6408   -0.0328 </r>
       <r>   11.8532   -0.0016 </r>
       <r>   12.0912   -0.0000 </r>
       <r>   12.2519   -0.0000 </r>
       <r>   12.3838   -0.0000 </r>
       <r>   12.5210   -0.0000 </r>
       <r>   12.7649   -0.0000 </r>
       <r>   12.9460   -0.0000 </r>
       <r>   13.2753   -0.0000 </r>
       <r>   13.4597   -0.0000 </r>
       <r>   13.7024   -0.0000 </r>
       <r>   14.0835   -0.0000 </r>
       <r>   14.1866   -0.0000 </r>
       <r>   14.3369   -0.0000 </r>
       <r>   14.6307   -0.0000 </r>
       <r>   14.7579   -0.0000 </r>
       <r>   14.9438   -0.0000 </r>
       <r>   15.0228   -0.0000 </r>
       <r>   15.2167   -0.0000 </r>
       <r>   15.5096   -0.0000 </r>
       <r>   15.7217   -0.0000 </r>
       <r>   15.8797   -0.0000 </r>
       <r>   16.0404   -0.0000 </r>
      </set>
      <set comment="kpoint 96">
       <r>   -1.8368    1.0000 </r>
       <r>   -1.0030    1.0000 </r>
       <r>   -0.4358    1.0000 </r>
       <r>    0.1698    1.0000 </r>
       <r>    1.1780    1.0000 </r>
       <r>    1.6011    1.0000 </r>
       <r>    1.8668    1.0000 </r>
       <r>    2.2154    1.0000 </r>
       <r>    2.6618    1.0000 </r>
       <r>    3.0504    1.0000 </r>
       <r>    3.2697    1.0000 </r>
       <r>    3.6491    1.0000 </r>
       <r>    4.3149    1.0000 </r>
       <r>    4.5416    1.0000 </r>
       <r>    5.1258    1.0000 </r>
       <r>    5.3103    1.0000 </r>
       <r>    5.4783    1.0000 </r>
       <r>    5.6407    1.0000 </r>
       <r>    5.8215    1.0000 </r>
       <r>    6.0883    1.0000 </r>
       <r>    6.2804    1.0000 </r>
       <r>    6.7142    1.0000 </r>
       <r>    6.9527    1.0000 </r>
       <r>    7.3016    1.0000 </r>
       <r>    7.6115    1.0000 </r>
       <r>    7.8904    1.0000 </r>
       <r>    8.0676    1.0000 </r>
       <r>    8.2942    1.0000 </r>
       <r>    8.4857    1.0000 </r>
       <r>    8.8058    1.0000 </r>
       <r>    9.0411    1.0000 </r>
       <r>    9.4171    1.0000 </r>
       <r>    9.5510    1.0000 </r>
       <r>    9.8005    1.0000 </r>
       <r>   10.0435    1.0000 </r>
       <r>   10.2641    1.0000 </r>
       <r>   10.4783    1.0000 </r>
       <r>   10.7390    1.0000 </r>
       <r>   10.8292    1.0005 </r>
       <r>   11.0861    1.0316 </r>
       <r>   11.3104    0.7287 </r>
       <r>   11.4635    0.1392 </r>
       <r>   11.7182   -0.0162 </r>
       <r>   12.0178   -0.0000 </r>
       <r>   12.3934   -0.0000 </r>
       <r>   12.5620   -0.0000 </r>
       <r>   12.7155   -0.0000 </r>
       <r>   12.9308   -0.0000 </r>
       <r>   13.1354   -0.0000 </r>
       <r>   13.2560   -0.0000 </r>
       <r>   13.4546   -0.0000 </r>
       <r>   13.6441   -0.0000 </r>
       <r>   13.9607   -0.0000 </r>
       <r>   14.1262   -0.0000 </r>
       <r>   14.2325   -0.0000 </r>
       <r>   14.5795   -0.0000 </r>
       <r>   14.7663   -0.0000 </r>
       <r>   14.7898   -0.0000 </r>
       <r>   15.1514   -0.0000 </r>
       <r>   15.2525   -0.0000 </r>
       <r>   15.6422   -0.0000 </r>
       <r>   15.7470   -0.0000 </r>
       <r>   15.9439   -0.0000 </r>
       <r>   16.0822   -0.0000 </r>
      </set>
      <set comment="kpoint 97">
       <r>   -1.8732    1.0000 </r>
       <r>   -1.0203    1.0000 </r>
       <r>   -0.1935    1.0000 </r>
       <r>    0.2294    1.0000 </r>
       <r>    0.9082    1.0000 </r>
       <r>    1.2635    1.0000 </r>
       <r>    1.8966    1.0000 </r>
       <r>    2.2591    1.0000 </r>
       <r>    2.5814    1.0000 </r>
       <r>    3.3506    1.0000 </r>
       <r>    3.5281    1.0000 </r>
       <r>    4.0346    1.0000 </r>
       <r>    4.1419    1.0000 </r>
       <r>    4.3103    1.0000 </r>
       <r>    4.8503    1.0000 </r>
       <r>    5.1855    1.0000 </r>
       <r>    5.5077    1.0000 </r>
       <r>    5.6784    1.0000 </r>
       <r>    5.9266    1.0000 </r>
       <r>    6.3698    1.0000 </r>
       <r>    6.4343    1.0000 </r>
       <r>    6.7393    1.0000 </r>
       <r>    6.8780    1.0000 </r>
       <r>    7.2980    1.0000 </r>
       <r>    7.4234    1.0000 </r>
       <r>    7.6843    1.0000 </r>
       <r>    8.0525    1.0000 </r>
       <r>    8.2790    1.0000 </r>
       <r>    8.6305    1.0000 </r>
       <r>    8.8740    1.0000 </r>
       <r>    8.9540    1.0000 </r>
       <r>    9.1776    1.0000 </r>
       <r>    9.3305    1.0000 </r>
       <r>    9.6185    1.0000 </r>
       <r>   10.0635    1.0000 </r>
       <r>   10.0975    1.0000 </r>
       <r>   10.4758    1.0000 </r>
       <r>   10.8905    1.0019 </r>
       <r>   11.1525    1.0311 </r>
       <r>   11.2733    0.8519 </r>
       <r>   11.4965    0.0595 </r>
       <r>   11.6097   -0.0354 </r>
       <r>   11.7926   -0.0052 </r>
       <r>   12.0124   -0.0000 </r>
       <r>   12.3813   -0.0000 </r>
       <r>   12.5297   -0.0000 </r>
       <r>   12.6484   -0.0000 </r>
       <r>   12.9369   -0.0000 </r>
       <r>   13.0806   -0.0000 </r>
       <r>   13.3123   -0.0000 </r>
       <r>   13.5007   -0.0000 </r>
       <r>   13.7542   -0.0000 </r>
       <r>   13.7973   -0.0000 </r>
       <r>   14.0171   -0.0000 </r>
       <r>   14.3673   -0.0000 </r>
       <r>   14.5914   -0.0000 </r>
       <r>   14.6865   -0.0000 </r>
       <r>   14.9174   -0.0000 </r>
       <r>   15.0701   -0.0000 </r>
       <r>   15.3464   -0.0000 </r>
       <r>   15.5176   -0.0000 </r>
       <r>   15.7033   -0.0000 </r>
       <r>   15.8411   -0.0000 </r>
       <r>   16.0232   -0.0000 </r>
      </set>
      <set comment="kpoint 98">
       <r>   -1.7941    1.0000 </r>
       <r>   -1.2379    1.0000 </r>
       <r>   -0.0694    1.0000 </r>
       <r>    0.3340    1.0000 </r>
       <r>    0.8870    1.0000 </r>
       <r>    1.3874    1.0000 </r>
       <r>    1.7700    1.0000 </r>
       <r>    2.0925    1.0000 </r>
       <r>    2.6777    1.0000 </r>
       <r>    3.1644    1.0000 </r>
       <r>    3.5728    1.0000 </r>
       <r>    3.9794    1.0000 </r>
       <r>    4.1877    1.0000 </r>
       <r>    4.5609    1.0000 </r>
       <r>    4.9910    1.0000 </r>
       <r>    5.1576    1.0000 </r>
       <r>    5.3488    1.0000 </r>
       <r>    5.8553    1.0000 </r>
       <r>    5.9060    1.0000 </r>
       <r>    6.2363    1.0000 </r>
       <r>    6.3578    1.0000 </r>
       <r>    6.5447    1.0000 </r>
       <r>    6.9736    1.0000 </r>
       <r>    7.1003    1.0000 </r>
       <r>    7.3888    1.0000 </r>
       <r>    7.7912    1.0000 </r>
       <r>    8.0427    1.0000 </r>
       <r>    8.4025    1.0000 </r>
       <r>    8.6355    1.0000 </r>
       <r>    8.7092    1.0000 </r>
       <r>    9.1276    1.0000 </r>
       <r>    9.3469    1.0000 </r>
       <r>    9.4724    1.0000 </r>
       <r>    9.7315    1.0000 </r>
       <r>    9.9154    1.0000 </r>
       <r>   10.3040    1.0000 </r>
       <r>   10.5194    1.0000 </r>
       <r>   10.7692    1.0001 </r>
       <r>   11.1085    1.0348 </r>
       <r>   11.2201    0.9712 </r>
       <r>   11.3894    0.4054 </r>
       <r>   11.5977   -0.0346 </r>
       <r>   11.7638   -0.0084 </r>
       <r>   11.9836   -0.0001 </r>
       <r>   12.2709   -0.0000 </r>
       <r>   12.5622   -0.0000 </r>
       <r>   12.7201   -0.0000 </r>
       <r>   12.8569   -0.0000 </r>
       <r>   13.0682   -0.0000 </r>
       <r>   13.2961   -0.0000 </r>
       <r>   13.4394   -0.0000 </r>
       <r>   13.6604   -0.0000 </r>
       <r>   13.8951   -0.0000 </r>
       <r>   14.0564   -0.0000 </r>
       <r>   14.4097   -0.0000 </r>
       <r>   14.4951   -0.0000 </r>
       <r>   14.7800   -0.0000 </r>
       <r>   14.9422   -0.0000 </r>
       <r>   15.2553   -0.0000 </r>
       <r>   15.3309   -0.0000 </r>
       <r>   15.5046   -0.0000 </r>
       <r>   15.6769   -0.0000 </r>
       <r>   15.7715   -0.0000 </r>
       <r>   15.9322   -0.0000 </r>
      </set>
      <set comment="kpoint 99">
       <r>   -1.8706    1.0000 </r>
       <r>   -1.0439    1.0000 </r>
       <r>   -0.1723    1.0000 </r>
       <r>    0.3163    1.0000 </r>
       <r>    0.8207    1.0000 </r>
       <r>    1.2552    1.0000 </r>
       <r>    1.7948    1.0000 </r>
       <r>    2.4352    1.0000 </r>
       <r>    2.5705    1.0000 </r>
       <r>    3.1413    1.0000 </r>
       <r>    3.5210    1.0000 </r>
       <r>    3.8264    1.0000 </r>
       <r>    4.4564    1.0000 </r>
       <r>    4.5657    1.0000 </r>
       <r>    4.9440    1.0000 </r>
       <r>    5.1815    1.0000 </r>
       <r>    5.5358    1.0000 </r>
       <r>    5.6785    1.0000 </r>
       <r>    5.8520    1.0000 </r>
       <r>    6.0775    1.0000 </r>
       <r>    6.5607    1.0000 </r>
       <r>    6.6636    1.0000 </r>
       <r>    6.8547    1.0000 </r>
       <r>    7.1686    1.0000 </r>
       <r>    7.4499    1.0000 </r>
       <r>    7.5736    1.0000 </r>
       <r>    7.9663    1.0000 </r>
       <r>    8.1790    1.0000 </r>
       <r>    8.5895    1.0000 </r>
       <r>    8.8716    1.0000 </r>
       <r>    9.1479    1.0000 </r>
       <r>    9.3149    1.0000 </r>
       <r>    9.5004    1.0000 </r>
       <r>    9.8722    1.0000 </r>
       <r>   10.0213    1.0000 </r>
       <r>   10.3685    1.0000 </r>
       <r>   10.5073    1.0000 </r>
       <r>   10.6960    1.0000 </r>
       <r>   10.8432    1.0007 </r>
       <r>   11.2533    0.9051 </r>
       <r>   11.4461    0.1922 </r>
       <r>   11.4976    0.0574 </r>
       <r>   11.8449   -0.0019 </r>
       <r>   12.0715   -0.0000 </r>
       <r>   12.4175   -0.0000 </r>
       <r>   12.4904   -0.0000 </r>
       <r>   12.7772   -0.0000 </r>
       <r>   12.9360   -0.0000 </r>
       <r>   13.1274   -0.0000 </r>
       <r>   13.2059   -0.0000 </r>
       <r>   13.4047   -0.0000 </r>
       <r>   13.5625   -0.0000 </r>
       <r>   13.9836   -0.0000 </r>
       <r>   14.1254   -0.0000 </r>
       <r>   14.2536   -0.0000 </r>
       <r>   14.5378   -0.0000 </r>
       <r>   14.7471   -0.0000 </r>
       <r>   14.9527   -0.0000 </r>
       <r>   15.1309   -0.0000 </r>
       <r>   15.2032   -0.0000 </r>
       <r>   15.5476   -0.0000 </r>
       <r>   15.7580   -0.0000 </r>
       <r>   15.9194   -0.0000 </r>
       <r>   16.1522   -0.0000 </r>
      </set>
      <set comment="kpoint 100">
       <r>   -1.8463    1.0000 </r>
       <r>   -0.9949    1.0000 </r>
       <r>   -0.4113    1.0000 </r>
       <r>    0.2156    1.0000 </r>
       <r>    1.0301    1.0000 </r>
       <r>    1.6312    1.0000 </r>
       <r>    1.8129    1.0000 </r>
       <r>    2.2381    1.0000 </r>
       <r>    2.5674    1.0000 </r>
       <r>    3.1203    1.0000 </r>
       <r>    3.5467    1.0000 </r>
       <r>    3.8059    1.0000 </r>
       <r>    4.1141    1.0000 </r>
       <r>    4.3700    1.0000 </r>
       <r>    5.0383    1.0000 </r>
       <r>    5.2626    1.0000 </r>
       <r>    5.6076    1.0000 </r>
       <r>    5.7030    1.0000 </r>
       <r>    5.9218    1.0000 </r>
       <r>    6.0838    1.0000 </r>
       <r>    6.3747    1.0000 </r>
       <r>    6.7178    1.0000 </r>
       <r>    6.9780    1.0000 </r>
       <r>    7.2554    1.0000 </r>
       <r>    7.4974    1.0000 </r>
       <r>    7.7522    1.0000 </r>
       <r>    7.8376    1.0000 </r>
       <r>    8.1282    1.0000 </r>
       <r>    8.6839    1.0000 </r>
       <r>    8.8521    1.0000 </r>
       <r>    9.2380    1.0000 </r>
       <r>    9.2680    1.0000 </r>
       <r>    9.6565    1.0000 </r>
       <r>    9.8982    1.0000 </r>
       <r>    9.9698    1.0000 </r>
       <r>   10.2616    1.0000 </r>
       <r>   10.4134    1.0000 </r>
       <r>   10.6854    1.0000 </r>
       <r>   10.9199    1.0035 </r>
       <r>   11.0428    1.0221 </r>
       <r>   11.2416    0.9315 </r>
       <r>   11.5445   -0.0093 </r>
       <r>   11.7146   -0.0169 </r>
       <r>   12.1600   -0.0000 </r>
       <r>   12.3767   -0.0000 </r>
       <r>   12.5119   -0.0000 </r>
       <r>   12.8002   -0.0000 </r>
       <r>   12.9552   -0.0000 </r>
       <r>   13.2314   -0.0000 </r>
       <r>   13.2952   -0.0000 </r>
       <r>   13.5164   -0.0000 </r>
       <r>   13.7602   -0.0000 </r>
       <r>   13.9325   -0.0000 </r>
       <r>   14.1510   -0.0000 </r>
       <r>   14.3452   -0.0000 </r>
       <r>   14.6465   -0.0000 </r>
       <r>   14.8498   -0.0000 </r>
       <r>   14.9159   -0.0000 </r>
       <r>   15.0286   -0.0000 </r>
       <r>   15.4035   -0.0000 </r>
       <r>   15.4785   -0.0000 </r>
       <r>   15.5760   -0.0000 </r>
       <r>   15.7236   -0.0000 </r>
       <r>   15.9112   -0.0000 </r>
      </set>
      <set comment="kpoint 101">
       <r>   -1.6253    1.0000 </r>
       <r>   -1.0239    1.0000 </r>
       <r>   -0.6131    1.0000 </r>
       <r>   -0.1054    1.0000 </r>
       <r>    0.5885    1.0000 </r>
       <r>    1.4616    1.0000 </r>
       <r>    2.5087    1.0000 </r>
       <r>    2.8021    1.0000 </r>
       <r>    3.2003    1.0000 </r>
       <r>    3.4477    1.0000 </r>
       <r>    3.6714    1.0000 </r>
       <r>    4.0006    1.0000 </r>
       <r>    4.0808    1.0000 </r>
       <r>    4.3840    1.0000 </r>
       <r>    4.4750    1.0000 </r>
       <r>    4.7587    1.0000 </r>
       <r>    5.1202    1.0000 </r>
       <r>    5.3681    1.0000 </r>
       <r>    5.5585    1.0000 </r>
       <r>    5.8708    1.0000 </r>
       <r>    6.0730    1.0000 </r>
       <r>    6.7093    1.0000 </r>
       <r>    7.2675    1.0000 </r>
       <r>    7.3253    1.0000 </r>
       <r>    7.7374    1.0000 </r>
       <r>    7.8821    1.0000 </r>
       <r>    8.3410    1.0000 </r>
       <r>    8.4050    1.0000 </r>
       <r>    8.6405    1.0000 </r>
       <r>    8.8345    1.0000 </r>
       <r>    8.9842    1.0000 </r>
       <r>    9.2788    1.0000 </r>
       <r>    9.4070    1.0000 </r>
       <r>    9.5854    1.0000 </r>
       <r>    9.9166    1.0000 </r>
       <r>    9.9700    1.0000 </r>
       <r>   10.2453    1.0000 </r>
       <r>   10.6354    1.0000 </r>
       <r>   10.7819    1.0001 </r>
       <r>   11.2723    0.8548 </r>
       <r>   11.3715    0.4803 </r>
       <r>   11.6625   -0.0286 </r>
       <r>   11.9118   -0.0004 </r>
       <r>   12.2657   -0.0000 </r>
       <r>   12.4785   -0.0000 </r>
       <r>   12.7883   -0.0000 </r>
       <r>   12.8904   -0.0000 </r>
       <r>   13.0589   -0.0000 </r>
       <r>   13.4550   -0.0000 </r>
       <r>   13.5720   -0.0000 </r>
       <r>   13.8223   -0.0000 </r>
       <r>   13.9846   -0.0000 </r>
       <r>   14.1668   -0.0000 </r>
       <r>   14.3336   -0.0000 </r>
       <r>   14.4716   -0.0000 </r>
       <r>   14.6220   -0.0000 </r>
       <r>   14.7401   -0.0000 </r>
       <r>   14.8473   -0.0000 </r>
       <r>   14.9752   -0.0000 </r>
       <r>   15.1707   -0.0000 </r>
       <r>   15.3538   -0.0000 </r>
       <r>   15.6164   -0.0000 </r>
       <r>   15.6675   -0.0000 </r>
       <r>   15.9086   -0.0000 </r>
      </set>
      <set comment="kpoint 102">
       <r>   -1.6110    1.0000 </r>
       <r>   -1.0593    1.0000 </r>
       <r>   -0.6732    1.0000 </r>
       <r>   -0.0597    1.0000 </r>
       <r>    0.8617    1.0000 </r>
       <r>    1.3560    1.0000 </r>
       <r>    2.2122    1.0000 </r>
       <r>    2.7213    1.0000 </r>
       <r>    3.2322    1.0000 </r>
       <r>    3.3873    1.0000 </r>
       <r>    3.6933    1.0000 </r>
       <r>    4.0774    1.0000 </r>
       <r>    4.1519    1.0000 </r>
       <r>    4.3636    1.0000 </r>
       <r>    4.5518    1.0000 </r>
       <r>    4.7365    1.0000 </r>
       <r>    5.1543    1.0000 </r>
       <r>    5.3374    1.0000 </r>
       <r>    5.5976    1.0000 </r>
       <r>    6.0778    1.0000 </r>
       <r>    6.3301    1.0000 </r>
       <r>    6.7798    1.0000 </r>
       <r>    7.0640    1.0000 </r>
       <r>    7.2238    1.0000 </r>
       <r>    7.7108    1.0000 </r>
       <r>    7.8821    1.0000 </r>
       <r>    8.0218    1.0000 </r>
       <r>    8.4226    1.0000 </r>
       <r>    8.5067    1.0000 </r>
       <r>    8.9645    1.0000 </r>
       <r>    9.0945    1.0000 </r>
       <r>    9.2674    1.0000 </r>
       <r>    9.3956    1.0000 </r>
       <r>    9.6325    1.0000 </r>
       <r>    9.7224    1.0000 </r>
       <r>   10.1298    1.0000 </r>
       <r>   10.3076    1.0000 </r>
       <r>   10.5445    1.0000 </r>
       <r>   10.9015    1.0024 </r>
       <r>   10.9975    1.0127 </r>
       <r>   11.3673    0.4980 </r>
       <r>   11.6590   -0.0294 </r>
       <r>   11.8886   -0.0007 </r>
       <r>   12.1701   -0.0000 </r>
       <r>   12.4608   -0.0000 </r>
       <r>   12.7578   -0.0000 </r>
       <r>   12.9854   -0.0000 </r>
       <r>   13.2437   -0.0000 </r>
       <r>   13.4085   -0.0000 </r>
       <r>   13.6768   -0.0000 </r>
       <r>   13.7468   -0.0000 </r>
       <r>   13.9796   -0.0000 </r>
       <r>   14.1380   -0.0000 </r>
       <r>   14.3279   -0.0000 </r>
       <r>   14.4361   -0.0000 </r>
       <r>   14.5635   -0.0000 </r>
       <r>   14.6947   -0.0000 </r>
       <r>   14.8953   -0.0000 </r>
       <r>   15.1638   -0.0000 </r>
       <r>   15.2340   -0.0000 </r>
       <r>   15.3996   -0.0000 </r>
       <r>   15.6403   -0.0000 </r>
       <r>   15.9149   -0.0000 </r>
       <r>   16.0225   -0.0000 </r>
      </set>
      <set comment="kpoint 103">
       <r>   -1.7871    1.0000 </r>
       <r>   -0.9068    1.0000 </r>
       <r>   -0.2611    1.0000 </r>
       <r>    0.0684    1.0000 </r>
       <r>    0.3312    1.0000 </r>
       <r>    1.0361    1.0000 </r>
       <r>    2.2866    1.0000 </r>
       <r>    2.7177    1.0000 </r>
       <r>    3.2324    1.0000 </r>
       <r>    3.4927    1.0000 </r>
       <r>    3.6440    1.0000 </r>
       <r>    3.8999    1.0000 </r>
       <r>    4.1732    1.0000 </r>
       <r>    4.6117    1.0000 </r>
       <r>    4.7565    1.0000 </r>
       <r>    4.9986    1.0000 </r>
       <r>    5.2725    1.0000 </r>
       <r>    5.5586    1.0000 </r>
       <r>    5.6549    1.0000 </r>
       <r>    5.9396    1.0000 </r>
       <r>    6.2795    1.0000 </r>
       <r>    6.5622    1.0000 </r>
       <r>    7.0211    1.0000 </r>
       <r>    7.3271    1.0000 </r>
       <r>    7.5867    1.0000 </r>
       <r>    7.7022    1.0000 </r>
       <r>    8.0636    1.0000 </r>
       <r>    8.2105    1.0000 </r>
       <r>    8.5938    1.0000 </r>
       <r>    8.7883    1.0000 </r>
       <r>    8.9374    1.0000 </r>
       <r>    9.2389    1.0000 </r>
       <r>    9.3365    1.0000 </r>
       <r>    9.6555    1.0000 </r>
       <r>    9.6797    1.0000 </r>
       <r>    9.9570    1.0000 </r>
       <r>   10.2241    1.0000 </r>
       <r>   10.5200    1.0000 </r>
       <r>   10.6992    1.0000 </r>
       <r>   11.1138    1.0352 </r>
       <r>   11.3116    0.7241 </r>
       <r>   11.5813   -0.0311 </r>
       <r>   12.1220   -0.0000 </r>
       <r>   12.4320   -0.0000 </r>
       <r>   12.6016   -0.0000 </r>
       <r>   12.9841   -0.0000 </r>
       <r>   13.1556   -0.0000 </r>
       <r>   13.2727   -0.0000 </r>
       <r>   13.4094   -0.0000 </r>
       <r>   13.6001   -0.0000 </r>
       <r>   13.9751   -0.0000 </r>
       <r>   14.1101   -0.0000 </r>
       <r>   14.2901   -0.0000 </r>
       <r>   14.4568   -0.0000 </r>
       <r>   14.5270   -0.0000 </r>
       <r>   14.6156   -0.0000 </r>
       <r>   14.7584   -0.0000 </r>
       <r>   14.9134   -0.0000 </r>
       <r>   15.1456   -0.0000 </r>
       <r>   15.1981   -0.0000 </r>
       <r>   15.4552   -0.0000 </r>
       <r>   15.6383   -0.0000 </r>
       <r>   15.7356   -0.0000 </r>
       <r>   16.0454   -0.0000 </r>
      </set>
      <set comment="kpoint 104">
       <r>   -1.6401    1.0000 </r>
       <r>   -0.9368    1.0000 </r>
       <r>   -0.7052    1.0000 </r>
       <r>   -0.0788    1.0000 </r>
       <r>    0.5652    1.0000 </r>
       <r>    1.4780    1.0000 </r>
       <r>    2.5306    1.0000 </r>
       <r>    2.7752    1.0000 </r>
       <r>    3.1364    1.0000 </r>
       <r>    3.5658    1.0000 </r>
       <r>    3.7418    1.0000 </r>
       <r>    3.8484    1.0000 </r>
       <r>    4.1456    1.0000 </r>
       <r>    4.2909    1.0000 </r>
       <r>    4.6034    1.0000 </r>
       <r>    4.7507    1.0000 </r>
       <r>    5.0047    1.0000 </r>
       <r>    5.3454    1.0000 </r>
       <r>    5.5947    1.0000 </r>
       <r>    5.8957    1.0000 </r>
       <r>    6.1170    1.0000 </r>
       <r>    6.8211    1.0000 </r>
       <r>    7.1345    1.0000 </r>
       <r>    7.2890    1.0000 </r>
       <r>    7.6663    1.0000 </r>
       <r>    7.9063    1.0000 </r>
       <r>    8.1525    1.0000 </r>
       <r>    8.5302    1.0000 </r>
       <r>    8.7143    1.0000 </r>
       <r>    8.9352    1.0000 </r>
       <r>    9.1657    1.0000 </r>
       <r>    9.3075    1.0000 </r>
       <r>    9.4445    1.0000 </r>
       <r>    9.5402    1.0000 </r>
       <r>    9.7737    1.0000 </r>
       <r>    9.9178    1.0000 </r>
       <r>   10.0571    1.0000 </r>
       <r>   10.6431    1.0000 </r>
       <r>   10.9635    1.0076 </r>
       <r>   11.1794    1.0174 </r>
       <r>   11.3394    0.6149 </r>
       <r>   11.6112   -0.0355 </r>
       <r>   11.9173   -0.0003 </r>
       <r>   12.3719   -0.0000 </r>
       <r>   12.4721   -0.0000 </r>
       <r>   12.8536   -0.0000 </r>
       <r>   12.9483   -0.0000 </r>
       <r>   13.1384   -0.0000 </r>
       <r>   13.3717   -0.0000 </r>
       <r>   13.5818   -0.0000 </r>
       <r>   13.8279   -0.0000 </r>
       <r>   13.9273   -0.0000 </r>
       <r>   14.1988   -0.0000 </r>
       <r>   14.2931   -0.0000 </r>
       <r>   14.4019   -0.0000 </r>
       <r>   14.6232   -0.0000 </r>
       <r>   14.7235   -0.0000 </r>
       <r>   14.8212   -0.0000 </r>
       <r>   15.0643   -0.0000 </r>
       <r>   15.1572   -0.0000 </r>
       <r>   15.4455   -0.0000 </r>
       <r>   15.4993   -0.0000 </r>
       <r>   15.7754   -0.0000 </r>
       <r>   15.9060   -0.0000 </r>
      </set>
      <set comment="kpoint 105">
       <r>   -1.7807    1.0000 </r>
       <r>   -0.9378    1.0000 </r>
       <r>   -0.1665    1.0000 </r>
       <r>   -0.0724    1.0000 </r>
       <r>    0.4668    1.0000 </r>
       <r>    0.9621    1.0000 </r>
       <r>    2.3780    1.0000 </r>
       <r>    2.5959    1.0000 </r>
       <r>    3.2357    1.0000 </r>
       <r>    3.4550    1.0000 </r>
       <r>    3.7064    1.0000 </r>
       <r>    3.9638    1.0000 </r>
       <r>    4.2885    1.0000 </r>
       <r>    4.3452    1.0000 </r>
       <r>    4.7981    1.0000 </r>
       <r>    4.9561    1.0000 </r>
       <r>    5.3864    1.0000 </r>
       <r>    5.5862    1.0000 </r>
       <r>    5.7039    1.0000 </r>
       <r>    6.0101    1.0000 </r>
       <r>    6.1820    1.0000 </r>
       <r>    6.3872    1.0000 </r>
       <r>    7.0960    1.0000 </r>
       <r>    7.4383    1.0000 </r>
       <r>    7.5591    1.0000 </r>
       <r>    7.7792    1.0000 </r>
       <r>    7.9146    1.0000 </r>
       <r>    8.1777    1.0000 </r>
       <r>    8.6212    1.0000 </r>
       <r>    8.7667    1.0000 </r>
       <r>    8.9435    1.0000 </r>
       <r>    9.0938    1.0000 </r>
       <r>    9.4556    1.0000 </r>
       <r>    9.5894    1.0000 </r>
       <r>    9.8524    1.0000 </r>
       <r>   10.1607    1.0000 </r>
       <r>   10.2915    1.0000 </r>
       <r>   10.4103    1.0000 </r>
       <r>   10.6029    1.0000 </r>
       <r>   11.1285    1.0353 </r>
       <r>   11.2383    0.9383 </r>
       <r>   11.5594   -0.0208 </r>
       <r>   12.0698   -0.0000 </r>
       <r>   12.3263   -0.0000 </r>
       <r>   12.4639   -0.0000 </r>
       <r>   13.0131   -0.0000 </r>
       <r>   13.1730   -0.0000 </r>
       <r>   13.3646   -0.0000 </r>
       <r>   13.5476   -0.0000 </r>
       <r>   13.6773   -0.0000 </r>
       <r>   13.9404   -0.0000 </r>
       <r>   14.1566   -0.0000 </r>
       <r>   14.2360   -0.0000 </r>
       <r>   14.3261   -0.0000 </r>
       <r>   14.4604   -0.0000 </r>
       <r>   14.6916   -0.0000 </r>
       <r>   14.8523   -0.0000 </r>
       <r>   15.0061   -0.0000 </r>
       <r>   15.0916   -0.0000 </r>
       <r>   15.2472   -0.0000 </r>
       <r>   15.5223   -0.0000 </r>
       <r>   15.6098   -0.0000 </r>
       <r>   15.9100   -0.0000 </r>
       <r>   15.9872   -0.0000 </r>
      </set>
      <set comment="kpoint 106">
       <r>   -1.6267    1.0000 </r>
       <r>   -0.9330    1.0000 </r>
       <r>   -0.8135    1.0000 </r>
       <r>   -0.0302    1.0000 </r>
       <r>    0.8520    1.0000 </r>
       <r>    1.3567    1.0000 </r>
       <r>    2.1965    1.0000 </r>
       <r>    2.9591    1.0000 </r>
       <r>    3.2078    1.0000 </r>
       <r>    3.3485    1.0000 </r>
       <r>    3.5664    1.0000 </r>
       <r>    3.8013    1.0000 </r>
       <r>    4.1005    1.0000 </r>
       <r>    4.5650    1.0000 </r>
       <r>    4.6047    1.0000 </r>
       <r>    4.8247    1.0000 </r>
       <r>    5.0632    1.0000 </r>
       <r>    5.2658    1.0000 </r>
       <r>    5.7706    1.0000 </r>
       <r>    6.0840    1.0000 </r>
       <r>    6.3746    1.0000 </r>
       <r>    6.7044    1.0000 </r>
       <r>    7.1145    1.0000 </r>
       <r>    7.1733    1.0000 </r>
       <r>    7.5987    1.0000 </r>
       <r>    7.9391    1.0000 </r>
       <r>    8.1029    1.0000 </r>
       <r>    8.3976    1.0000 </r>
       <r>    8.5854    1.0000 </r>
       <r>    8.9855    1.0000 </r>
       <r>    9.0674    1.0000 </r>
       <r>    9.2318    1.0000 </r>
       <r>    9.3833    1.0000 </r>
       <r>    9.5384    1.0000 </r>
       <r>    9.7430    1.0000 </r>
       <r>   10.1715    1.0000 </r>
       <r>   10.2707    1.0000 </r>
       <r>   10.5878    1.0000 </r>
       <r>   10.7814    1.0001 </r>
       <r>   11.0130    1.0156 </r>
       <r>   11.4483    0.1851 </r>
       <r>   11.8048   -0.0041 </r>
       <r>   11.8973   -0.0006 </r>
       <r>   12.0389   -0.0000 </r>
       <r>   12.4442   -0.0000 </r>
       <r>   12.5563   -0.0000 </r>
       <r>   12.9411   -0.0000 </r>
       <r>   13.3444   -0.0000 </r>
       <r>   13.4329   -0.0000 </r>
       <r>   13.5805   -0.0000 </r>
       <r>   13.7420   -0.0000 </r>
       <r>   13.9387   -0.0000 </r>
       <r>   14.2739   -0.0000 </r>
       <r>   14.3358   -0.0000 </r>
       <r>   14.4931   -0.0000 </r>
       <r>   14.6852   -0.0000 </r>
       <r>   14.8163   -0.0000 </r>
       <r>   14.9720   -0.0000 </r>
       <r>   15.0376   -0.0000 </r>
       <r>   15.2855   -0.0000 </r>
       <r>   15.4248   -0.0000 </r>
       <r>   15.5830   -0.0000 </r>
       <r>   15.8056   -0.0000 </r>
       <r>   15.9699   -0.0000 </r>
      </set>
      <set comment="kpoint 107">
       <r>   -1.6403    1.0000 </r>
       <r>   -0.8866    1.0000 </r>
       <r>   -0.7644    1.0000 </r>
       <r>   -0.0815    1.0000 </r>
       <r>    0.5700    1.0000 </r>
       <r>    1.4760    1.0000 </r>
       <r>    2.5675    1.0000 </r>
       <r>    2.8716    1.0000 </r>
       <r>    3.1079    1.0000 </r>
       <r>    3.3985    1.0000 </r>
       <r>    3.7585    1.0000 </r>
       <r>    3.8546    1.0000 </r>
       <r>    4.1362    1.0000 </r>
       <r>    4.4206    1.0000 </r>
       <r>    4.5954    1.0000 </r>
       <r>    4.8225    1.0000 </r>
       <r>    4.9633    1.0000 </r>
       <r>    5.1570    1.0000 </r>
       <r>    5.4792    1.0000 </r>
       <r>    6.0272    1.0000 </r>
       <r>    6.0804    1.0000 </r>
       <r>    6.9718    1.0000 </r>
       <r>    7.0986    1.0000 </r>
       <r>    7.3463    1.0000 </r>
       <r>    7.8046    1.0000 </r>
       <r>    7.9291    1.0000 </r>
       <r>    8.2430    1.0000 </r>
       <r>    8.3639    1.0000 </r>
       <r>    8.6009    1.0000 </r>
       <r>    8.8906    1.0000 </r>
       <r>    8.9931    1.0000 </r>
       <r>    9.2998    1.0000 </r>
       <r>    9.4471    1.0000 </r>
       <r>    9.5794    1.0000 </r>
       <r>    9.7837    1.0000 </r>
       <r>    9.9123    1.0000 </r>
       <r>   10.4632    1.0000 </r>
       <r>   10.5487    1.0000 </r>
       <r>   10.7254    1.0000 </r>
       <r>   11.2862    0.8126 </r>
       <r>   11.3254    0.6714 </r>
       <r>   11.6178   -0.0353 </r>
       <r>   11.9387   -0.0002 </r>
       <r>   12.4238   -0.0000 </r>
       <r>   12.6643   -0.0000 </r>
       <r>   12.7109   -0.0000 </r>
       <r>   12.8240   -0.0000 </r>
       <r>   13.1491   -0.0000 </r>
       <r>   13.4126   -0.0000 </r>
       <r>   13.5368   -0.0000 </r>
       <r>   13.7755   -0.0000 </r>
       <r>   13.8984   -0.0000 </r>
       <r>   14.1363   -0.0000 </r>
       <r>   14.2623   -0.0000 </r>
       <r>   14.3626   -0.0000 </r>
       <r>   14.5921   -0.0000 </r>
       <r>   14.6449   -0.0000 </r>
       <r>   14.8407   -0.0000 </r>
       <r>   14.9783   -0.0000 </r>
       <r>   15.2449   -0.0000 </r>
       <r>   15.4392   -0.0000 </r>
       <r>   15.5721   -0.0000 </r>
       <r>   15.8065   -0.0000 </r>
       <r>   15.9897   -0.0000 </r>
      </set>
      <set comment="kpoint 108">
       <r>   -1.6263    1.0000 </r>
       <r>   -0.9605    1.0000 </r>
       <r>   -0.7963    1.0000 </r>
       <r>    0.0286    1.0000 </r>
       <r>    0.7582    1.0000 </r>
       <r>    1.3861    1.0000 </r>
       <r>    2.3916    1.0000 </r>
       <r>    2.6192    1.0000 </r>
       <r>    3.1402    1.0000 </r>
       <r>    3.3546    1.0000 </r>
       <r>    3.8082    1.0000 </r>
       <r>    3.8981    1.0000 </r>
       <r>    4.2412    1.0000 </r>
       <r>    4.2812    1.0000 </r>
       <r>    4.5292    1.0000 </r>
       <r>    4.9112    1.0000 </r>
       <r>    5.0846    1.0000 </r>
       <r>    5.3904    1.0000 </r>
       <r>    5.6312    1.0000 </r>
       <r>    6.1428    1.0000 </r>
       <r>    6.3267    1.0000 </r>
       <r>    6.7187    1.0000 </r>
       <r>    7.1371    1.0000 </r>
       <r>    7.2065    1.0000 </r>
       <r>    7.6515    1.0000 </r>
       <r>    7.7879    1.0000 </r>
       <r>    8.1049    1.0000 </r>
       <r>    8.4639    1.0000 </r>
       <r>    8.5679    1.0000 </r>
       <r>    8.8465    1.0000 </r>
       <r>    9.0121    1.0000 </r>
       <r>    9.2518    1.0000 </r>
       <r>    9.3257    1.0000 </r>
       <r>    9.5268    1.0000 </r>
       <r>    9.8701    1.0000 </r>
       <r>   10.1081    1.0000 </r>
       <r>   10.3534    1.0000 </r>
       <r>   10.5656    1.0000 </r>
       <r>   10.8636    1.0011 </r>
       <r>   11.1100    1.0350 </r>
       <r>   11.3967    0.3751 </r>
       <r>   11.7431   -0.0115 </r>
       <r>   11.8853   -0.0008 </r>
       <r>   12.2500   -0.0000 </r>
       <r>   12.4037   -0.0000 </r>
       <r>   12.7371   -0.0000 </r>
       <r>   12.9939   -0.0000 </r>
       <r>   13.1490   -0.0000 </r>
       <r>   13.3999   -0.0000 </r>
       <r>   13.5225   -0.0000 </r>
       <r>   13.6761   -0.0000 </r>
       <r>   13.8489   -0.0000 </r>
       <r>   14.0947   -0.0000 </r>
       <r>   14.2833   -0.0000 </r>
       <r>   14.5372   -0.0000 </r>
       <r>   14.6391   -0.0000 </r>
       <r>   14.7681   -0.0000 </r>
       <r>   14.9757   -0.0000 </r>
       <r>   15.2469   -0.0000 </r>
       <r>   15.3307   -0.0000 </r>
       <r>   15.5178   -0.0000 </r>
       <r>   15.6827   -0.0000 </r>
       <r>   15.9376   -0.0000 </r>
       <r>   16.0403   -0.0000 </r>
      </set>
      <set comment="kpoint 109">
       <r>   -1.7806    1.0000 </r>
       <r>   -0.9359    1.0000 </r>
       <r>   -0.1399    1.0000 </r>
       <r>   -0.0820    1.0000 </r>
       <r>    0.4278    1.0000 </r>
       <r>    0.9573    1.0000 </r>
       <r>    2.4149    1.0000 </r>
       <r>    2.6398    1.0000 </r>
       <r>    3.1275    1.0000 </r>
       <r>    3.5541    1.0000 </r>
       <r>    3.6685    1.0000 </r>
       <r>    3.9013    1.0000 </r>
       <r>    4.2670    1.0000 </r>
       <r>    4.6360    1.0000 </r>
       <r>    4.8070    1.0000 </r>
       <r>    4.9263    1.0000 </r>
       <r>    5.2406    1.0000 </r>
       <r>    5.3633    1.0000 </r>
       <r>    5.7100    1.0000 </r>
       <r>    5.9656    1.0000 </r>
       <r>    6.2327    1.0000 </r>
       <r>    6.5671    1.0000 </r>
       <r>    7.0343    1.0000 </r>
       <r>    7.4936    1.0000 </r>
       <r>    7.6119    1.0000 </r>
       <r>    7.6832    1.0000 </r>
       <r>    7.8990    1.0000 </r>
       <r>    8.2801    1.0000 </r>
       <r>    8.5707    1.0000 </r>
       <r>    8.8060    1.0000 </r>
       <r>    8.9070    1.0000 </r>
       <r>    9.1424    1.0000 </r>
       <r>    9.3884    1.0000 </r>
       <r>    9.5397    1.0000 </r>
       <r>    9.9579    1.0000 </r>
       <r>   10.0720    1.0000 </r>
       <r>   10.2620    1.0000 </r>
       <r>   10.4146    1.0000 </r>
       <r>   10.6854    1.0000 </r>
       <r>   11.0252    1.0182 </r>
       <r>   11.1921    1.0066 </r>
       <r>   11.7594   -0.0090 </r>
       <r>   12.1473   -0.0000 </r>
       <r>   12.3967   -0.0000 </r>
       <r>   12.6329   -0.0000 </r>
       <r>   12.9275   -0.0000 </r>
       <r>   13.1865   -0.0000 </r>
       <r>   13.2629   -0.0000 </r>
       <r>   13.4328   -0.0000 </r>
       <r>   13.5544   -0.0000 </r>
       <r>   13.9006   -0.0000 </r>
       <r>   14.0491   -0.0000 </r>
       <r>   14.0995   -0.0000 </r>
       <r>   14.4315   -0.0000 </r>
       <r>   14.5131   -0.0000 </r>
       <r>   14.5908   -0.0000 </r>
       <r>   14.8419   -0.0000 </r>
       <r>   14.9892   -0.0000 </r>
       <r>   15.0869   -0.0000 </r>
       <r>   15.3845   -0.0000 </r>
       <r>   15.5437   -0.0000 </r>
       <r>   15.7189   -0.0000 </r>
       <r>   15.8868   -0.0000 </r>
       <r>   15.9853   -0.0000 </r>
      </set>
      <set comment="kpoint 110">
       <r>   -1.6257    1.0000 </r>
       <r>   -1.0199    1.0000 </r>
       <r>   -0.6097    1.0000 </r>
       <r>   -0.1034    1.0000 </r>
       <r>    0.5565    1.0000 </r>
       <r>    1.4654    1.0000 </r>
       <r>    2.5986    1.0000 </r>
       <r>    2.8520    1.0000 </r>
       <r>    2.9628    1.0000 </r>
       <r>    3.5242    1.0000 </r>
       <r>    3.7940    1.0000 </r>
       <r>    3.8467    1.0000 </r>
       <r>    4.3226    1.0000 </r>
       <r>    4.3602    1.0000 </r>
       <r>    4.5152    1.0000 </r>
       <r>    4.7705    1.0000 </r>
       <r>    4.9873    1.0000 </r>
       <r>    5.2039    1.0000 </r>
       <r>    5.4660    1.0000 </r>
       <r>    5.9550    1.0000 </r>
       <r>    6.1012    1.0000 </r>
       <r>    6.8478    1.0000 </r>
       <r>    7.2002    1.0000 </r>
       <r>    7.4230    1.0000 </r>
       <r>    7.6899    1.0000 </r>
       <r>    7.7885    1.0000 </r>
       <r>    8.1681    1.0000 </r>
       <r>    8.4268    1.0000 </r>
       <r>    8.7106    1.0000 </r>
       <r>    9.0191    1.0000 </r>
       <r>    9.1571    1.0000 </r>
       <r>    9.2360    1.0000 </r>
       <r>    9.4497    1.0000 </r>
       <r>    9.5788    1.0000 </r>
       <r>    9.6735    1.0000 </r>
       <r>    9.8996    1.0000 </r>
       <r>   10.2171    1.0000 </r>
       <r>   10.5910    1.0000 </r>
       <r>   10.8848    1.0017 </r>
       <r>   11.3613    0.5237 </r>
       <r>   11.4539    0.1675 </r>
       <r>   11.7468   -0.0109 </r>
       <r>   11.8640   -0.0012 </r>
       <r>   12.3085   -0.0000 </r>
       <r>   12.5076   -0.0000 </r>
       <r>   12.7878   -0.0000 </r>
       <r>   12.8938   -0.0000 </r>
       <r>   13.0263   -0.0000 </r>
       <r>   13.3187   -0.0000 </r>
       <r>   13.4971   -0.0000 </r>
       <r>   13.7894   -0.0000 </r>
       <r>   13.8556   -0.0000 </r>
       <r>   14.0975   -0.0000 </r>
       <r>   14.3420   -0.0000 </r>
       <r>   14.3716   -0.0000 </r>
       <r>   14.6934   -0.0000 </r>
       <r>   14.7889   -0.0000 </r>
       <r>   14.8859   -0.0000 </r>
       <r>   15.0598   -0.0000 </r>
       <r>   15.2414   -0.0000 </r>
       <r>   15.3406   -0.0000 </r>
       <r>   15.6603   -0.0000 </r>
       <r>   15.7464   -0.0000 </r>
       <r>   15.9342   -0.0000 </r>
      </set>
      <set comment="kpoint 111">
       <r>   -1.7863    1.0000 </r>
       <r>   -0.8980    1.0000 </r>
       <r>   -0.2773    1.0000 </r>
       <r>    0.0616    1.0000 </r>
       <r>    0.3316    1.0000 </r>
       <r>    1.0297    1.0000 </r>
       <r>    2.3586    1.0000 </r>
       <r>    2.7772    1.0000 </r>
       <r>    3.2372    1.0000 </r>
       <r>    3.3795    1.0000 </r>
       <r>    3.6522    1.0000 </r>
       <r>    3.8488    1.0000 </r>
       <r>    4.0983    1.0000 </r>
       <r>    4.6078    1.0000 </r>
       <r>    4.8607    1.0000 </r>
       <r>    5.1012    1.0000 </r>
       <r>    5.2098    1.0000 </r>
       <r>    5.4173    1.0000 </r>
       <r>    5.7808    1.0000 </r>
       <r>    5.9899    1.0000 </r>
       <r>    6.2345    1.0000 </r>
       <r>    6.4152    1.0000 </r>
       <r>    7.1248    1.0000 </r>
       <r>    7.4201    1.0000 </r>
       <r>    7.5568    1.0000 </r>
       <r>    7.7529    1.0000 </r>
       <r>    8.0605    1.0000 </r>
       <r>    8.2434    1.0000 </r>
       <r>    8.5006    1.0000 </r>
       <r>    8.8029    1.0000 </r>
       <r>    8.8559    1.0000 </r>
       <r>    9.2739    1.0000 </r>
       <r>    9.3617    1.0000 </r>
       <r>    9.4736    1.0000 </r>
       <r>    9.7933    1.0000 </r>
       <r>    9.9643    1.0000 </r>
       <r>   10.2741    1.0000 </r>
       <r>   10.6182    1.0000 </r>
       <r>   10.8782    1.0015 </r>
       <r>   11.0159    1.0162 </r>
       <r>   11.1337    1.0349 </r>
       <r>   11.7017   -0.0197 </r>
       <r>   12.0848   -0.0000 </r>
       <r>   12.3225   -0.0000 </r>
       <r>   12.6022   -0.0000 </r>
       <r>   12.8211   -0.0000 </r>
       <r>   13.0754   -0.0000 </r>
       <r>   13.3041   -0.0000 </r>
       <r>   13.4487   -0.0000 </r>
       <r>   13.6736   -0.0000 </r>
       <r>   13.9264   -0.0000 </r>
       <r>   14.2056   -0.0000 </r>
       <r>   14.2946   -0.0000 </r>
       <r>   14.4073   -0.0000 </r>
       <r>   14.5020   -0.0000 </r>
       <r>   14.7192   -0.0000 </r>
       <r>   14.7524   -0.0000 </r>
       <r>   14.9607   -0.0000 </r>
       <r>   15.0256   -0.0000 </r>
       <r>   15.2903   -0.0000 </r>
       <r>   15.4670   -0.0000 </r>
       <r>   15.5460   -0.0000 </r>
       <r>   15.8411   -0.0000 </r>
       <r>   16.2485   -0.0000 </r>
      </set>
      <set comment="kpoint 112">
       <r>   -1.6099    1.0000 </r>
       <r>   -1.0573    1.0000 </r>
       <r>   -0.7068    1.0000 </r>
       <r>    0.0184    1.0000 </r>
       <r>    0.7632    1.0000 </r>
       <r>    1.4000    1.0000 </r>
       <r>    2.3757    1.0000 </r>
       <r>    2.6501    1.0000 </r>
       <r>    3.0460    1.0000 </r>
       <r>    3.2859    1.0000 </r>
       <r>    3.8603    1.0000 </r>
       <r>    4.0948    1.0000 </r>
       <r>    4.2045    1.0000 </r>
       <r>    4.3287    1.0000 </r>
       <r>    4.5293    1.0000 </r>
       <r>    4.7241    1.0000 </r>
       <r>    5.1624    1.0000 </r>
       <r>    5.2776    1.0000 </r>
       <r>    5.8294    1.0000 </r>
       <r>    5.9454    1.0000 </r>
       <r>    6.3087    1.0000 </r>
       <r>    6.9712    1.0000 </r>
       <r>    7.0585    1.0000 </r>
       <r>    7.1982    1.0000 </r>
       <r>    7.5643    1.0000 </r>
       <r>    7.8086    1.0000 </r>
       <r>    8.1424    1.0000 </r>
       <r>    8.3349    1.0000 </r>
       <r>    8.7441    1.0000 </r>
       <r>    8.8188    1.0000 </r>
       <r>    9.0234    1.0000 </r>
       <r>    9.2085    1.0000 </r>
       <r>    9.3191    1.0000 </r>
       <r>    9.5135    1.0000 </r>
       <r>    9.8630    1.0000 </r>
       <r>   10.0212    1.0000 </r>
       <r>   10.3765    1.0000 </r>
       <r>   10.7550    1.0001 </r>
       <r>   10.8704    1.0013 </r>
       <r>   11.1709    1.0229 </r>
       <r>   11.4351    0.2290 </r>
       <r>   11.5628   -0.0229 </r>
       <r>   11.7038   -0.0192 </r>
       <r>   12.1941   -0.0000 </r>
       <r>   12.6388   -0.0000 </r>
       <r>   12.7560   -0.0000 </r>
       <r>   12.8666   -0.0000 </r>
       <r>   13.1124   -0.0000 </r>
       <r>   13.3624   -0.0000 </r>
       <r>   13.5607   -0.0000 </r>
       <r>   13.7360   -0.0000 </r>
       <r>   13.9597   -0.0000 </r>
       <r>   14.1656   -0.0000 </r>
       <r>   14.2987   -0.0000 </r>
       <r>   14.4611   -0.0000 </r>
       <r>   14.5949   -0.0000 </r>
       <r>   14.7518   -0.0000 </r>
       <r>   14.9348   -0.0000 </r>
       <r>   15.1753   -0.0000 </r>
       <r>   15.3445   -0.0000 </r>
       <r>   15.5520   -0.0000 </r>
       <r>   15.8032   -0.0000 </r>
       <r>   15.9077   -0.0000 </r>
       <r>   16.0611   -0.0000 </r>
      </set>
      <set comment="kpoint 113">
       <r>   -1.9655    1.0000 </r>
       <r>   -1.0520    1.0000 </r>
       <r>    0.0020    1.0000 </r>
       <r>    0.5113    1.0000 </r>
       <r>    0.9798    1.0000 </r>
       <r>    1.4508    1.0000 </r>
       <r>    1.6673    1.0000 </r>
       <r>    2.0594    1.0000 </r>
       <r>    2.3906    1.0000 </r>
       <r>    3.0258    1.0000 </r>
       <r>    3.2665    1.0000 </r>
       <r>    3.8146    1.0000 </r>
       <r>    4.2616    1.0000 </r>
       <r>    4.5623    1.0000 </r>
       <r>    4.7849    1.0000 </r>
       <r>    5.1230    1.0000 </r>
       <r>    5.2471    1.0000 </r>
       <r>    5.5949    1.0000 </r>
       <r>    5.9041    1.0000 </r>
       <r>    6.6070    1.0000 </r>
       <r>    6.7717    1.0000 </r>
       <r>    7.1684    1.0000 </r>
       <r>    7.2853    1.0000 </r>
       <r>    7.4550    1.0000 </r>
       <r>    7.6328    1.0000 </r>
       <r>    7.8533    1.0000 </r>
       <r>    8.1390    1.0000 </r>
       <r>    8.4140    1.0000 </r>
       <r>    8.5215    1.0000 </r>
       <r>    8.6907    1.0000 </r>
       <r>    8.8639    1.0000 </r>
       <r>    9.1714    1.0000 </r>
       <r>    9.3947    1.0000 </r>
       <r>    9.7024    1.0000 </r>
       <r>    9.9023    1.0000 </r>
       <r>   10.3279    1.0000 </r>
       <r>   10.5183    1.0000 </r>
       <r>   10.7908    1.0002 </r>
       <r>   10.9289    1.0041 </r>
       <r>   11.0021    1.0135 </r>
       <r>   11.3044    0.7504 </r>
       <r>   11.5942   -0.0341 </r>
       <r>   11.7161   -0.0166 </r>
       <r>   12.0121   -0.0000 </r>
       <r>   12.1180   -0.0000 </r>
       <r>   12.3882   -0.0000 </r>
       <r>   12.6359   -0.0000 </r>
       <r>   12.7483   -0.0000 </r>
       <r>   13.1801   -0.0000 </r>
       <r>   13.2348   -0.0000 </r>
       <r>   13.3677   -0.0000 </r>
       <r>   13.7166   -0.0000 </r>
       <r>   13.8535   -0.0000 </r>
       <r>   14.0836   -0.0000 </r>
       <r>   14.1432   -0.0000 </r>
       <r>   14.2624   -0.0000 </r>
       <r>   14.6479   -0.0000 </r>
       <r>   14.7998   -0.0000 </r>
       <r>   14.9528   -0.0000 </r>
       <r>   15.2520   -0.0000 </r>
       <r>   15.3378   -0.0000 </r>
       <r>   15.5615   -0.0000 </r>
       <r>   15.7643   -0.0000 </r>
       <r>   16.0838   -0.0000 </r>
      </set>
      <set comment="kpoint 114">
       <r>   -1.9446    1.0000 </r>
       <r>   -1.1455    1.0000 </r>
       <r>    0.2717    1.0000 </r>
       <r>    0.5362    1.0000 </r>
       <r>    0.8823    1.0000 </r>
       <r>    1.2883    1.0000 </r>
       <r>    1.5812    1.0000 </r>
       <r>    1.8010    1.0000 </r>
       <r>    2.5380    1.0000 </r>
       <r>    3.1869    1.0000 </r>
       <r>    3.6073    1.0000 </r>
       <r>    3.7871    1.0000 </r>
       <r>    4.3238    1.0000 </r>
       <r>    4.4311    1.0000 </r>
       <r>    4.8263    1.0000 </r>
       <r>    4.9915    1.0000 </r>
       <r>    5.2596    1.0000 </r>
       <r>    5.6426    1.0000 </r>
       <r>    6.0256    1.0000 </r>
       <r>    6.4529    1.0000 </r>
       <r>    6.7571    1.0000 </r>
       <r>    6.9737    1.0000 </r>
       <r>    7.2709    1.0000 </r>
       <r>    7.4193    1.0000 </r>
       <r>    7.5476    1.0000 </r>
       <r>    7.8058    1.0000 </r>
       <r>    7.9847    1.0000 </r>
       <r>    8.1098    1.0000 </r>
       <r>    8.4678    1.0000 </r>
       <r>    8.7649    1.0000 </r>
       <r>    8.9908    1.0000 </r>
       <r>    9.3655    1.0000 </r>
       <r>    9.6889    1.0000 </r>
       <r>    9.8334    1.0000 </r>
       <r>   10.0509    1.0000 </r>
       <r>   10.4067    1.0000 </r>
       <r>   10.7016    1.0000 </r>
       <r>   10.8355    1.0006 </r>
       <r>   10.9410    1.0051 </r>
       <r>   11.0355    1.0205 </r>
       <r>   11.2974    0.7751 </r>
       <r>   11.3636    0.5139 </r>
       <r>   11.6210   -0.0352 </r>
       <r>   12.0763   -0.0000 </r>
       <r>   12.2461   -0.0000 </r>
       <r>   12.4823   -0.0000 </r>
       <r>   12.6646   -0.0000 </r>
       <r>   12.9370   -0.0000 </r>
       <r>   13.0563   -0.0000 </r>
       <r>   13.2143   -0.0000 </r>
       <r>   13.3304   -0.0000 </r>
       <r>   13.5604   -0.0000 </r>
       <r>   13.7169   -0.0000 </r>
       <r>   13.8456   -0.0000 </r>
       <r>   14.0531   -0.0000 </r>
       <r>   14.3093   -0.0000 </r>
       <r>   14.5139   -0.0000 </r>
       <r>   14.5813   -0.0000 </r>
       <r>   14.8768   -0.0000 </r>
       <r>   15.1034   -0.0000 </r>
       <r>   15.3204   -0.0000 </r>
       <r>   15.4915   -0.0000 </r>
       <r>   15.7578   -0.0000 </r>
       <r>   16.0100   -0.0000 </r>
      </set>
      <set comment="kpoint 115">
       <r>   -1.9413    1.0000 </r>
       <r>   -1.1777    1.0000 </r>
       <r>    0.2668    1.0000 </r>
       <r>    0.6315    1.0000 </r>
       <r>    0.9963    1.0000 </r>
       <r>    1.2343    1.0000 </r>
       <r>    1.5588    1.0000 </r>
       <r>    1.7705    1.0000 </r>
       <r>    2.5232    1.0000 </r>
       <r>    2.8649    1.0000 </r>
       <r>    3.5215    1.0000 </r>
       <r>    4.0167    1.0000 </r>
       <r>    4.3331    1.0000 </r>
       <r>    4.6577    1.0000 </r>
       <r>    4.8558    1.0000 </r>
       <r>    4.9576    1.0000 </r>
       <r>    5.0604    1.0000 </r>
       <r>    5.5715    1.0000 </r>
       <r>    6.2916    1.0000 </r>
       <r>    6.4095    1.0000 </r>
       <r>    6.6296    1.0000 </r>
       <r>    7.0941    1.0000 </r>
       <r>    7.3216    1.0000 </r>
       <r>    7.5862    1.0000 </r>
       <r>    7.6972    1.0000 </r>
       <r>    7.8854    1.0000 </r>
       <r>    7.9263    1.0000 </r>
       <r>    8.0974    1.0000 </r>
       <r>    8.6732    1.0000 </r>
       <r>    8.8150    1.0000 </r>
       <r>    8.9440    1.0000 </r>
       <r>    9.1300    1.0000 </r>
       <r>    9.2913    1.0000 </r>
       <r>    9.4857    1.0000 </r>
       <r>   10.0532    1.0000 </r>
       <r>   10.2936    1.0000 </r>
       <r>   10.5480    1.0000 </r>
       <r>   10.7980    1.0002 </r>
       <r>   10.9196    1.0035 </r>
       <r>   11.1178    1.0354 </r>
       <r>   11.2056    0.9917 </r>
       <r>   11.3450    0.5921 </r>
       <r>   11.6742   -0.0260 </r>
       <r>   11.9889   -0.0000 </r>
       <r>   12.2232   -0.0000 </r>
       <r>   12.6276   -0.0000 </r>
       <r>   12.9003   -0.0000 </r>
       <r>   12.9967   -0.0000 </r>
       <r>   13.1970   -0.0000 </r>
       <r>   13.3996   -0.0000 </r>
       <r>   13.5836   -0.0000 </r>
       <r>   13.6459   -0.0000 </r>
       <r>   13.9192   -0.0000 </r>
       <r>   14.0405   -0.0000 </r>
       <r>   14.1423   -0.0000 </r>
       <r>   14.3053   -0.0000 </r>
       <r>   14.3496   -0.0000 </r>
       <r>   14.6532   -0.0000 </r>
       <r>   14.7877   -0.0000 </r>
       <r>   15.0980   -0.0000 </r>
       <r>   15.3609   -0.0000 </r>
       <r>   15.6185   -0.0000 </r>
       <r>   15.7280   -0.0000 </r>
       <r>   15.9718   -0.0000 </r>
      </set>
      <set comment="kpoint 116">
       <r>   -1.9668    1.0000 </r>
       <r>   -1.0899    1.0000 </r>
       <r>    0.1101    1.0000 </r>
       <r>    0.6594    1.0000 </r>
       <r>    0.9905    1.0000 </r>
       <r>    1.3269    1.0000 </r>
       <r>    1.5312    1.0000 </r>
       <r>    1.7236    1.0000 </r>
       <r>    2.5145    1.0000 </r>
       <r>    3.0407    1.0000 </r>
       <r>    3.5084    1.0000 </r>
       <r>    3.9937    1.0000 </r>
       <r>    4.3616    1.0000 </r>
       <r>    4.5574    1.0000 </r>
       <r>    4.7334    1.0000 </r>
       <r>    4.9773    1.0000 </r>
       <r>    5.1285    1.0000 </r>
       <r>    5.5883    1.0000 </r>
       <r>    6.1272    1.0000 </r>
       <r>    6.5244    1.0000 </r>
       <r>    6.7077    1.0000 </r>
       <r>    7.2165    1.0000 </r>
       <r>    7.3773    1.0000 </r>
       <r>    7.4929    1.0000 </r>
       <r>    7.6996    1.0000 </r>
       <r>    7.9475    1.0000 </r>
       <r>    7.9802    1.0000 </r>
       <r>    8.2047    1.0000 </r>
       <r>    8.2939    1.0000 </r>
       <r>    8.6346    1.0000 </r>
       <r>    8.7806    1.0000 </r>
       <r>    9.0884    1.0000 </r>
       <r>    9.4877    1.0000 </r>
       <r>    9.6635    1.0000 </r>
       <r>    9.9573    1.0000 </r>
       <r>   10.4020    1.0000 </r>
       <r>   10.5084    1.0000 </r>
       <r>   10.7802    1.0001 </r>
       <r>   10.9350    1.0046 </r>
       <r>   11.0557    1.0251 </r>
       <r>   11.2866    0.8113 </r>
       <r>   11.4745    0.1097 </r>
       <r>   11.8575   -0.0014 </r>
       <r>   12.0377   -0.0000 </r>
       <r>   12.3347   -0.0000 </r>
       <r>   12.5528   -0.0000 </r>
       <r>   12.7924   -0.0000 </r>
       <r>   12.8577   -0.0000 </r>
       <r>   13.1963   -0.0000 </r>
       <r>   13.2981   -0.0000 </r>
       <r>   13.4779   -0.0000 </r>
       <r>   13.6255   -0.0000 </r>
       <r>   13.9033   -0.0000 </r>
       <r>   14.0282   -0.0000 </r>
       <r>   14.1803   -0.0000 </r>
       <r>   14.3564   -0.0000 </r>
       <r>   14.5455   -0.0000 </r>
       <r>   14.7123   -0.0000 </r>
       <r>   14.8374   -0.0000 </r>
       <r>   14.9996   -0.0000 </r>
       <r>   15.2986   -0.0000 </r>
       <r>   15.5332   -0.0000 </r>
       <r>   15.7238   -0.0000 </r>
       <r>   15.8870   -0.0000 </r>
      </set>
      <set comment="kpoint 117">
       <r>   -1.6954    1.0000 </r>
       <r>   -1.1187    1.0000 </r>
       <r>   -0.5536    1.0000 </r>
       <r>    0.1332    1.0000 </r>
       <r>    0.9955    1.0000 </r>
       <r>    1.5305    1.0000 </r>
       <r>    2.1222    1.0000 </r>
       <r>    2.4232    1.0000 </r>
       <r>    2.6927    1.0000 </r>
       <r>    2.9152    1.0000 </r>
       <r>    3.4652    1.0000 </r>
       <r>    4.0238    1.0000 </r>
       <r>    4.2240    1.0000 </r>
       <r>    4.5754    1.0000 </r>
       <r>    4.8696    1.0000 </r>
       <r>    5.2477    1.0000 </r>
       <r>    5.5194    1.0000 </r>
       <r>    5.8412    1.0000 </r>
       <r>    6.0089    1.0000 </r>
       <r>    6.1246    1.0000 </r>
       <r>    6.2165    1.0000 </r>
       <r>    6.6618    1.0000 </r>
       <r>    6.8719    1.0000 </r>
       <r>    7.0875    1.0000 </r>
       <r>    7.2501    1.0000 </r>
       <r>    7.5322    1.0000 </r>
       <r>    7.8807    1.0000 </r>
       <r>    8.0644    1.0000 </r>
       <r>    8.3520    1.0000 </r>
       <r>    8.8806    1.0000 </r>
       <r>    9.2387    1.0000 </r>
       <r>    9.4334    1.0000 </r>
       <r>    9.5504    1.0000 </r>
       <r>    9.7109    1.0000 </r>
       <r>    9.8166    1.0000 </r>
       <r>   10.1818    1.0000 </r>
       <r>   10.7192    1.0000 </r>
       <r>   10.8788    1.0015 </r>
       <r>   11.0172    1.0165 </r>
       <r>   11.2684    0.8658 </r>
       <r>   11.4184    0.2899 </r>
       <r>   11.5821   -0.0313 </r>
       <r>   11.8876   -0.0007 </r>
       <r>   12.1875   -0.0000 </r>
       <r>   12.4941   -0.0000 </r>
       <r>   12.6733   -0.0000 </r>
       <r>   12.8151   -0.0000 </r>
       <r>   12.9856   -0.0000 </r>
       <r>   13.1063   -0.0000 </r>
       <r>   13.5326   -0.0000 </r>
       <r>   13.6119   -0.0000 </r>
       <r>   13.8130   -0.0000 </r>
       <r>   13.9465   -0.0000 </r>
       <r>   14.1351   -0.0000 </r>
       <r>   14.3033   -0.0000 </r>
       <r>   14.5278   -0.0000 </r>
       <r>   14.6852   -0.0000 </r>
       <r>   14.7726   -0.0000 </r>
       <r>   14.8976   -0.0000 </r>
       <r>   15.3438   -0.0000 </r>
       <r>   15.5352   -0.0000 </r>
       <r>   15.7454   -0.0000 </r>
       <r>   15.8687   -0.0000 </r>
       <r>   15.9120   -0.0000 </r>
      </set>
      <set comment="kpoint 118">
       <r>   -1.7075    1.0000 </r>
       <r>   -1.2265    1.0000 </r>
       <r>   -0.2587    1.0000 </r>
       <r>    0.2804    1.0000 </r>
       <r>    0.5845    1.0000 </r>
       <r>    1.5391    1.0000 </r>
       <r>    1.9784    1.0000 </r>
       <r>    2.3332    1.0000 </r>
       <r>    2.8286    1.0000 </r>
       <r>    3.0389    1.0000 </r>
       <r>    3.3602    1.0000 </r>
       <r>    4.1096    1.0000 </r>
       <r>    4.5016    1.0000 </r>
       <r>    4.6453    1.0000 </r>
       <r>    4.8925    1.0000 </r>
       <r>    5.1221    1.0000 </r>
       <r>    5.4662    1.0000 </r>
       <r>    5.7475    1.0000 </r>
       <r>    6.1404    1.0000 </r>
       <r>    6.2202    1.0000 </r>
       <r>    6.3396    1.0000 </r>
       <r>    6.5770    1.0000 </r>
       <r>    6.8046    1.0000 </r>
       <r>    6.8985    1.0000 </r>
       <r>    7.2265    1.0000 </r>
       <r>    7.7258    1.0000 </r>
       <r>    7.9565    1.0000 </r>
       <r>    8.0297    1.0000 </r>
       <r>    8.2336    1.0000 </r>
       <r>    8.4267    1.0000 </r>
       <r>    8.6858    1.0000 </r>
       <r>    9.4570    1.0000 </r>
       <r>    9.7166    1.0000 </r>
       <r>    9.9853    1.0000 </r>
       <r>   10.1985    1.0000 </r>
       <r>   10.4516    1.0000 </r>
       <r>   10.7611    1.0001 </r>
       <r>   10.8031    1.0002 </r>
       <r>   10.9728    1.0088 </r>
       <r>   11.2854    0.8151 </r>
       <r>   11.5081    0.0380 </r>
       <r>   11.5936   -0.0340 </r>
       <r>   11.9003   -0.0005 </r>
       <r>   12.1313   -0.0000 </r>
       <r>   12.2250   -0.0000 </r>
       <r>   12.5118   -0.0000 </r>
       <r>   12.8313   -0.0000 </r>
       <r>   13.0602   -0.0000 </r>
       <r>   13.1803   -0.0000 </r>
       <r>   13.3862   -0.0000 </r>
       <r>   13.5146   -0.0000 </r>
       <r>   13.6836   -0.0000 </r>
       <r>   14.0051   -0.0000 </r>
       <r>   14.2006   -0.0000 </r>
       <r>   14.3447   -0.0000 </r>
       <r>   14.5460   -0.0000 </r>
       <r>   14.6235   -0.0000 </r>
       <r>   14.8157   -0.0000 </r>
       <r>   14.8780   -0.0000 </r>
       <r>   15.3525   -0.0000 </r>
       <r>   15.6063   -0.0000 </r>
       <r>   15.8064   -0.0000 </r>
       <r>   16.0368   -0.0000 </r>
       <r>   16.1556   -0.0000 </r>
      </set>
      <set comment="kpoint 119">
       <r>   -1.6895    1.0000 </r>
       <r>   -1.1379    1.0000 </r>
       <r>   -0.5493    1.0000 </r>
       <r>    0.2090    1.0000 </r>
       <r>    0.7920    1.0000 </r>
       <r>    1.8054    1.0000 </r>
       <r>    2.1385    1.0000 </r>
       <r>    2.3106    1.0000 </r>
       <r>    2.6833    1.0000 </r>
       <r>    2.8917    1.0000 </r>
       <r>    3.3339    1.0000 </r>
       <r>    3.8666    1.0000 </r>
       <r>    4.4595    1.0000 </r>
       <r>    4.6323    1.0000 </r>
       <r>    5.1261    1.0000 </r>
       <r>    5.2254    1.0000 </r>
       <r>    5.6447    1.0000 </r>
       <r>    5.7386    1.0000 </r>
       <r>    5.9594    1.0000 </r>
       <r>    6.0001    1.0000 </r>
       <r>    6.3015    1.0000 </r>
       <r>    6.3829    1.0000 </r>
       <r>    6.6427    1.0000 </r>
       <r>    7.0447    1.0000 </r>
       <r>    7.3183    1.0000 </r>
       <r>    7.6223    1.0000 </r>
       <r>    8.0265    1.0000 </r>
       <r>    8.2499    1.0000 </r>
       <r>    8.4457    1.0000 </r>
       <r>    8.8050    1.0000 </r>
       <r>    8.8920    1.0000 </r>
       <r>    9.3148    1.0000 </r>
       <r>    9.4896    1.0000 </r>
       <r>    9.7379    1.0000 </r>
       <r>   10.2412    1.0000 </r>
       <r>   10.3178    1.0000 </r>
       <r>   10.6675    1.0000 </r>
       <r>   10.9436    1.0054 </r>
       <r>   11.0777    1.0300 </r>
       <r>   11.2766    0.8421 </r>
       <r>   11.4797    0.0966 </r>
       <r>   11.6382   -0.0332 </r>
       <r>   12.0482   -0.0000 </r>
       <r>   12.0738   -0.0000 </r>
       <r>   12.3028   -0.0000 </r>
       <r>   12.3340   -0.0000 </r>
       <r>   12.6594   -0.0000 </r>
       <r>   12.9934   -0.0000 </r>
       <r>   13.3069   -0.0000 </r>
       <r>   13.3728   -0.0000 </r>
       <r>   13.5840   -0.0000 </r>
       <r>   13.8411   -0.0000 </r>
       <r>   13.9855   -0.0000 </r>
       <r>   14.1393   -0.0000 </r>
       <r>   14.2213   -0.0000 </r>
       <r>   14.3734   -0.0000 </r>
       <r>   14.6458   -0.0000 </r>
       <r>   14.7639   -0.0000 </r>
       <r>   14.9624   -0.0000 </r>
       <r>   15.2323   -0.0000 </r>
       <r>   15.6665   -0.0000 </r>
       <r>   15.8374   -0.0000 </r>
       <r>   15.9039   -0.0000 </r>
       <r>   16.0666   -0.0000 </r>
      </set>
      <set comment="kpoint 120">
       <r>   -1.6186    1.0000 </r>
       <r>   -1.3927    1.0000 </r>
       <r>   -0.0504    1.0000 </r>
       <r>    0.1267    1.0000 </r>
       <r>    0.7965    1.0000 </r>
       <r>    1.3557    1.0000 </r>
       <r>    1.7581    1.0000 </r>
       <r>    2.3522    1.0000 </r>
       <r>    2.7292    1.0000 </r>
       <r>    3.1133    1.0000 </r>
       <r>    3.7112    1.0000 </r>
       <r>    4.2322    1.0000 </r>
       <r>    4.4898    1.0000 </r>
       <r>    4.7638    1.0000 </r>
       <r>    4.9016    1.0000 </r>
       <r>    5.1020    1.0000 </r>
       <r>    5.3294    1.0000 </r>
       <r>    5.6867    1.0000 </r>
       <r>    5.9253    1.0000 </r>
       <r>    6.2426    1.0000 </r>
       <r>    6.3037    1.0000 </r>
       <r>    6.5028    1.0000 </r>
       <r>    6.6905    1.0000 </r>
       <r>    6.8732    1.0000 </r>
       <r>    7.3083    1.0000 </r>
       <r>    7.7025    1.0000 </r>
       <r>    7.8202    1.0000 </r>
       <r>    8.1253    1.0000 </r>
       <r>    8.3138    1.0000 </r>
       <r>    8.4392    1.0000 </r>
       <r>    8.8647    1.0000 </r>
       <r>    9.4803    1.0000 </r>
       <r>    9.7053    1.0000 </r>
       <r>    9.8675    1.0000 </r>
       <r>   10.1745    1.0000 </r>
       <r>   10.4274    1.0000 </r>
       <r>   10.7417    1.0000 </r>
       <r>   11.0431    1.0222 </r>
       <r>   11.1382    1.0343 </r>
       <r>   11.3398    0.6134 </r>
       <r>   11.5628   -0.0229 </r>
       <r>   11.6640   -0.0283 </r>
       <r>   11.9307   -0.0002 </r>
       <r>   12.1124   -0.0000 </r>
       <r>   12.3563   -0.0000 </r>
       <r>   12.5277   -0.0000 </r>
       <r>   12.6815   -0.0000 </r>
       <r>   12.8355   -0.0000 </r>
       <r>   13.0913   -0.0000 </r>
       <r>   13.2369   -0.0000 </r>
       <r>   13.5228   -0.0000 </r>
       <r>   13.7682   -0.0000 </r>
       <r>   13.8780   -0.0000 </r>
       <r>   14.1157   -0.0000 </r>
       <r>   14.2641   -0.0000 </r>
       <r>   14.5234   -0.0000 </r>
       <r>   14.6913   -0.0000 </r>
       <r>   14.8742   -0.0000 </r>
       <r>   15.0712   -0.0000 </r>
       <r>   15.1078   -0.0000 </r>
       <r>   15.5988   -0.0000 </r>
       <r>   15.7955   -0.0000 </r>
       <r>   15.9850   -0.0000 </r>
       <r>   16.0979   -0.0000 </r>
      </set>
      <set comment="kpoint 121">
       <r>   -1.6649    1.0000 </r>
       <r>   -1.2172    1.0000 </r>
       <r>   -0.4263    1.0000 </r>
       <r>    0.0776    1.0000 </r>
       <r>    1.0703    1.0000 </r>
       <r>    1.4818    1.0000 </r>
       <r>    2.0192    1.0000 </r>
       <r>    2.2278    1.0000 </r>
       <r>    2.7607    1.0000 </r>
       <r>    3.1486    1.0000 </r>
       <r>    3.5043    1.0000 </r>
       <r>    4.0111    1.0000 </r>
       <r>    4.1482    1.0000 </r>
       <r>    4.7525    1.0000 </r>
       <r>    4.9820    1.0000 </r>
       <r>    5.3107    1.0000 </r>
       <r>    5.4256    1.0000 </r>
       <r>    5.7081    1.0000 </r>
       <r>    5.9228    1.0000 </r>
       <r>    6.0841    1.0000 </r>
       <r>    6.1580    1.0000 </r>
       <r>    6.5426    1.0000 </r>
       <r>    6.7623    1.0000 </r>
       <r>    7.1464    1.0000 </r>
       <r>    7.4434    1.0000 </r>
       <r>    7.5136    1.0000 </r>
       <r>    7.8306    1.0000 </r>
       <r>    8.1872    1.0000 </r>
       <r>    8.4580    1.0000 </r>
       <r>    8.6177    1.0000 </r>
       <r>    9.1882    1.0000 </r>
       <r>    9.4088    1.0000 </r>
       <r>    9.5676    1.0000 </r>
       <r>    9.8060    1.0000 </r>
       <r>    9.9778    1.0000 </r>
       <r>   10.2310    1.0000 </r>
       <r>   10.7144    1.0000 </r>
       <r>   10.7681    1.0001 </r>
       <r>   11.0064    1.0144 </r>
       <r>   11.2247    0.9636 </r>
       <r>   11.4609    0.1467 </r>
       <r>   11.8359   -0.0022 </r>
       <r>   11.9245   -0.0003 </r>
       <r>   12.1617   -0.0000 </r>
       <r>   12.5990   -0.0000 </r>
       <r>   12.6754   -0.0000 </r>
       <r>   12.8514   -0.0000 </r>
       <r>   12.9640   -0.0000 </r>
       <r>   13.1546   -0.0000 </r>
       <r>   13.3272   -0.0000 </r>
       <r>   13.5911   -0.0000 </r>
       <r>   13.7112   -0.0000 </r>
       <r>   13.8233   -0.0000 </r>
       <r>   14.0249   -0.0000 </r>
       <r>   14.3616   -0.0000 </r>
       <r>   14.4347   -0.0000 </r>
       <r>   14.6971   -0.0000 </r>
       <r>   14.7884   -0.0000 </r>
       <r>   15.0355   -0.0000 </r>
       <r>   15.1785   -0.0000 </r>
       <r>   15.4501   -0.0000 </r>
       <r>   15.7210   -0.0000 </r>
       <r>   15.8979   -0.0000 </r>
       <r>   16.1347   -0.0000 </r>
      </set>
      <set comment="kpoint 122">
       <r>   -1.6572    1.0000 </r>
       <r>   -1.2430    1.0000 </r>
       <r>   -0.4155    1.0000 </r>
       <r>    0.2289    1.0000 </r>
       <r>    0.7212    1.0000 </r>
       <r>    1.6359    1.0000 </r>
       <r>    2.1375    1.0000 </r>
       <r>    2.3554    1.0000 </r>
       <r>    2.6876    1.0000 </r>
       <r>    2.9223    1.0000 </r>
       <r>    3.3772    1.0000 </r>
       <r>    3.9671    1.0000 </r>
       <r>    4.5291    1.0000 </r>
       <r>    4.9122    1.0000 </r>
       <r>    5.1281    1.0000 </r>
       <r>    5.2539    1.0000 </r>
       <r>    5.4118    1.0000 </r>
       <r>    5.6316    1.0000 </r>
       <r>    5.9367    1.0000 </r>
       <r>    6.0492    1.0000 </r>
       <r>    6.2115    1.0000 </r>
       <r>    6.3742    1.0000 </r>
       <r>    6.5843    1.0000 </r>
       <r>    6.8324    1.0000 </r>
       <r>    7.1322    1.0000 </r>
       <r>    7.6968    1.0000 </r>
       <r>    8.1124    1.0000 </r>
       <r>    8.2900    1.0000 </r>
       <r>    8.3904    1.0000 </r>
       <r>    8.8732    1.0000 </r>
       <r>    9.0593    1.0000 </r>
       <r>    9.3865    1.0000 </r>
       <r>    9.5671    1.0000 </r>
       <r>    9.6420    1.0000 </r>
       <r>   10.2223    1.0000 </r>
       <r>   10.4915    1.0000 </r>
       <r>   10.6805    1.0000 </r>
       <r>   10.8458    1.0007 </r>
       <r>   11.0834    1.0311 </r>
       <r>   11.2223    0.9677 </r>
       <r>   11.4408    0.2095 </r>
       <r>   11.6325   -0.0340 </r>
       <r>   11.9555   -0.0001 </r>
       <r>   12.2385   -0.0000 </r>
       <r>   12.5013   -0.0000 </r>
       <r>   12.6450   -0.0000 </r>
       <r>   12.6846   -0.0000 </r>
       <r>   12.8578   -0.0000 </r>
       <r>   13.0684   -0.0000 </r>
       <r>   13.3583   -0.0000 </r>
       <r>   13.6368   -0.0000 </r>
       <r>   13.8277   -0.0000 </r>
       <r>   13.8827   -0.0000 </r>
       <r>   14.0780   -0.0000 </r>
       <r>   14.3097   -0.0000 </r>
       <r>   14.4411   -0.0000 </r>
       <r>   14.5977   -0.0000 </r>
       <r>   14.7055   -0.0000 </r>
       <r>   14.8514   -0.0000 </r>
       <r>   15.0489   -0.0000 </r>
       <r>   15.6122   -0.0000 </r>
       <r>   15.9335   -0.0000 </r>
       <r>   16.0532   -0.0000 </r>
       <r>   16.1959   -0.0000 </r>
      </set>
      <set comment="kpoint 123">
       <r>   -1.6604    1.0000 </r>
       <r>   -1.2434    1.0000 </r>
       <r>   -0.4803    1.0000 </r>
       <r>    0.3331    1.0000 </r>
       <r>    0.8021    1.0000 </r>
       <r>    1.7118    1.0000 </r>
       <r>    1.9494    1.0000 </r>
       <r>    2.2355    1.0000 </r>
       <r>    2.7293    1.0000 </r>
       <r>    2.9593    1.0000 </r>
       <r>    3.3926    1.0000 </r>
       <r>    3.8879    1.0000 </r>
       <r>    4.3176    1.0000 </r>
       <r>    4.8951    1.0000 </r>
       <r>    5.0858    1.0000 </r>
       <r>    5.2597    1.0000 </r>
       <r>    5.4985    1.0000 </r>
       <r>    5.7713    1.0000 </r>
       <r>    6.1230    1.0000 </r>
       <r>    6.1707    1.0000 </r>
       <r>    6.2885    1.0000 </r>
       <r>    6.4288    1.0000 </r>
       <r>    6.6814    1.0000 </r>
       <r>    6.9790    1.0000 </r>
       <r>    7.2322    1.0000 </r>
       <r>    7.5281    1.0000 </r>
       <r>    7.9363    1.0000 </r>
       <r>    8.2541    1.0000 </r>
       <r>    8.3700    1.0000 </r>
       <r>    8.5986    1.0000 </r>
       <r>    8.9839    1.0000 </r>
       <r>    9.2730    1.0000 </r>
       <r>    9.4003    1.0000 </r>
       <r>    9.9889    1.0000 </r>
       <r>   10.0941    1.0000 </r>
       <r>   10.2205    1.0000 </r>
       <r>   10.6144    1.0000 </r>
       <r>   10.8800    1.0015 </r>
       <r>   11.1283    1.0353 </r>
       <r>   11.2009    0.9973 </r>
       <r>   11.5401   -0.0051 </r>
       <r>   11.6923   -0.0218 </r>
       <r>   12.0182   -0.0000 </r>
       <r>   12.2670   -0.0000 </r>
       <r>   12.4443   -0.0000 </r>
       <r>   12.5204   -0.0000 </r>
       <r>   12.8285   -0.0000 </r>
       <r>   12.9730   -0.0000 </r>
       <r>   13.1822   -0.0000 </r>
       <r>   13.2881   -0.0000 </r>
       <r>   13.7045   -0.0000 </r>
       <r>   13.7386   -0.0000 </r>
       <r>   14.0287   -0.0000 </r>
       <r>   14.0868   -0.0000 </r>
       <r>   14.2927   -0.0000 </r>
       <r>   14.4049   -0.0000 </r>
       <r>   14.6787   -0.0000 </r>
       <r>   14.8521   -0.0000 </r>
       <r>   15.0079   -0.0000 </r>
       <r>   15.1965   -0.0000 </r>
       <r>   15.5893   -0.0000 </r>
       <r>   15.7976   -0.0000 </r>
       <r>   15.9747   -0.0000 </r>
       <r>   16.2554   -0.0000 </r>
      </set>
      <set comment="kpoint 124">
       <r>   -1.6028    1.0000 </r>
       <r>   -1.4210    1.0000 </r>
       <r>   -0.0399    1.0000 </r>
       <r>    0.1334    1.0000 </r>
       <r>    0.8279    1.0000 </r>
       <r>    1.3937    1.0000 </r>
       <r>    1.7186    1.0000 </r>
       <r>    2.2710    1.0000 </r>
       <r>    2.7383    1.0000 </r>
       <r>    3.1922    1.0000 </r>
       <r>    3.6118    1.0000 </r>
       <r>    4.1903    1.0000 </r>
       <r>    4.4105    1.0000 </r>
       <r>    4.7732    1.0000 </r>
       <r>    4.9579    1.0000 </r>
       <r>    5.1653    1.0000 </r>
       <r>    5.3299    1.0000 </r>
       <r>    5.8257    1.0000 </r>
       <r>    5.9979    1.0000 </r>
       <r>    6.1078    1.0000 </r>
       <r>    6.3122    1.0000 </r>
       <r>    6.4853    1.0000 </r>
       <r>    6.7432    1.0000 </r>
       <r>    6.9472    1.0000 </r>
       <r>    7.2945    1.0000 </r>
       <r>    7.7507    1.0000 </r>
       <r>    7.9614    1.0000 </r>
       <r>    8.0227    1.0000 </r>
       <r>    8.1719    1.0000 </r>
       <r>    8.4417    1.0000 </r>
       <r>    8.6866    1.0000 </r>
       <r>    9.5691    1.0000 </r>
       <r>    9.7449    1.0000 </r>
       <r>    9.9780    1.0000 </r>
       <r>   10.2000    1.0000 </r>
       <r>   10.2662    1.0000 </r>
       <r>   10.5483    1.0000 </r>
       <r>   10.9015    1.0024 </r>
       <r>   11.1747    1.0206 </r>
       <r>   11.4193    0.2862 </r>
       <r>   11.5321    0.0035 </r>
       <r>   11.7383   -0.0123 </r>
       <r>   11.8434   -0.0019 </r>
       <r>   12.1052   -0.0000 </r>
       <r>   12.2728   -0.0000 </r>
       <r>   12.5328   -0.0000 </r>
       <r>   12.7495   -0.0000 </r>
       <r>   12.9871   -0.0000 </r>
       <r>   13.2466   -0.0000 </r>
       <r>   13.2889   -0.0000 </r>
       <r>   13.6101   -0.0000 </r>
       <r>   13.7905   -0.0000 </r>
       <r>   13.9220   -0.0000 </r>
       <r>   14.1016   -0.0000 </r>
       <r>   14.1970   -0.0000 </r>
       <r>   14.5583   -0.0000 </r>
       <r>   14.6558   -0.0000 </r>
       <r>   14.9112   -0.0000 </r>
       <r>   15.0032   -0.0000 </r>
       <r>   15.2068   -0.0000 </r>
       <r>   15.7847   -0.0000 </r>
       <r>   15.9016   -0.0000 </r>
       <r>   16.0757   -0.0000 </r>
       <r>   16.2003   -0.0000 </r>
      </set>
      <set comment="kpoint 125">
       <r>   -1.6490    1.0000 </r>
       <r>   -1.2614    1.0000 </r>
       <r>   -0.4243    1.0000 </r>
       <r>    0.2004    1.0000 </r>
       <r>    0.8269    1.0000 </r>
       <r>    1.7324    1.0000 </r>
       <r>    2.0022    1.0000 </r>
       <r>    2.4042    1.0000 </r>
       <r>    2.6502    1.0000 </r>
       <r>    2.8829    1.0000 </r>
       <r>    3.2900    1.0000 </r>
       <r>    4.0338    1.0000 </r>
       <r>    4.4792    1.0000 </r>
       <r>    4.7718    1.0000 </r>
       <r>    4.9647    1.0000 </r>
       <r>    5.3316    1.0000 </r>
       <r>    5.5024    1.0000 </r>
       <r>    5.7137    1.0000 </r>
       <r>    5.9527    1.0000 </r>
       <r>    6.1470    1.0000 </r>
       <r>    6.2689    1.0000 </r>
       <r>    6.4294    1.0000 </r>
       <r>    6.6511    1.0000 </r>
       <r>    6.9769    1.0000 </r>
       <r>    7.1953    1.0000 </r>
       <r>    7.5781    1.0000 </r>
       <r>    8.0412    1.0000 </r>
       <r>    8.2840    1.0000 </r>
       <r>    8.4637    1.0000 </r>
       <r>    8.7722    1.0000 </r>
       <r>    8.9657    1.0000 </r>
       <r>    9.2753    1.0000 </r>
       <r>    9.5641    1.0000 </r>
       <r>    9.7616    1.0000 </r>
       <r>   10.0516    1.0000 </r>
       <r>   10.3093    1.0000 </r>
       <r>   10.5916    1.0000 </r>
       <r>   10.9200    1.0035 </r>
       <r>   11.0833    1.0311 </r>
       <r>   11.2782    0.8374 </r>
       <r>   11.5453   -0.0100 </r>
       <r>   11.7159   -0.0166 </r>
       <r>   12.0365   -0.0000 </r>
       <r>   12.1587   -0.0000 </r>
       <r>   12.3423   -0.0000 </r>
       <r>   12.5429   -0.0000 </r>
       <r>   12.7566   -0.0000 </r>
       <r>   12.8513   -0.0000 </r>
       <r>   13.1637   -0.0000 </r>
       <r>   13.3568   -0.0000 </r>
       <r>   13.6295   -0.0000 </r>
       <r>   13.8986   -0.0000 </r>
       <r>   14.0544   -0.0000 </r>
       <r>   14.0926   -0.0000 </r>
       <r>   14.2368   -0.0000 </r>
       <r>   14.3407   -0.0000 </r>
       <r>   14.5645   -0.0000 </r>
       <r>   14.6587   -0.0000 </r>
       <r>   15.0796   -0.0000 </r>
       <r>   15.2423   -0.0000 </r>
       <r>   15.6012   -0.0000 </r>
       <r>   16.0112   -0.0000 </r>
       <r>   16.0535   -0.0000 </r>
       <r>   16.2139   -0.0000 </r>
      </set>
      <set comment="kpoint 126">
       <r>   -1.7061    1.0000 </r>
       <r>   -1.2454    1.0000 </r>
       <r>   -0.2194    1.0000 </r>
       <r>    0.3041    1.0000 </r>
       <r>    0.5870    1.0000 </r>
       <r>    1.5240    1.0000 </r>
       <r>    1.8649    1.0000 </r>
       <r>    2.2861    1.0000 </r>
       <r>    2.8189    1.0000 </r>
       <r>    3.0691    1.0000 </r>
       <r>    3.4583    1.0000 </r>
       <r>    4.2208    1.0000 </r>
       <r>    4.4954    1.0000 </r>
       <r>    4.6914    1.0000 </r>
       <r>    4.9418    1.0000 </r>
       <r>    4.9924    1.0000 </r>
       <r>    5.4768    1.0000 </r>
       <r>    5.7534    1.0000 </r>
       <r>    6.0690    1.0000 </r>
       <r>    6.1941    1.0000 </r>
       <r>    6.3087    1.0000 </r>
       <r>    6.5771    1.0000 </r>
       <r>    6.7735    1.0000 </r>
       <r>    6.9625    1.0000 </r>
       <r>    7.3158    1.0000 </r>
       <r>    7.7569    1.0000 </r>
       <r>    7.8889    1.0000 </r>
       <r>    8.0536    1.0000 </r>
       <r>    8.2600    1.0000 </r>
       <r>    8.3472    1.0000 </r>
       <r>    8.7018    1.0000 </r>
       <r>    9.2779    1.0000 </r>
       <r>    9.8205    1.0000 </r>
       <r>    9.9025    1.0000 </r>
       <r>   10.2096    1.0000 </r>
       <r>   10.3209    1.0000 </r>
       <r>   10.5438    1.0000 </r>
       <r>   10.7832    1.0001 </r>
       <r>   11.0824    1.0309 </r>
       <r>   11.4008    0.3585 </r>
       <r>   11.5687   -0.0261 </r>
       <r>   11.7779   -0.0067 </r>
       <r>   12.0786   -0.0000 </r>
       <r>   12.1761   -0.0000 </r>
       <r>   12.3874   -0.0000 </r>
       <r>   12.6339   -0.0000 </r>
       <r>   12.7478   -0.0000 </r>
       <r>   12.9128   -0.0000 </r>
       <r>   13.1516   -0.0000 </r>
       <r>   13.3984   -0.0000 </r>
       <r>   13.6051   -0.0000 </r>
       <r>   13.7606   -0.0000 </r>
       <r>   13.8590   -0.0000 </r>
       <r>   14.0983   -0.0000 </r>
       <r>   14.1969   -0.0000 </r>
       <r>   14.4378   -0.0000 </r>
       <r>   14.6695   -0.0000 </r>
       <r>   14.7589   -0.0000 </r>
       <r>   15.0941   -0.0000 </r>
       <r>   15.2097   -0.0000 </r>
       <r>   15.5570   -0.0000 </r>
       <r>   15.8556   -0.0000 </r>
       <r>   15.9632   -0.0000 </r>
       <r>   16.1939   -0.0000 </r>
      </set>
      <set comment="kpoint 127">
       <r>   -1.6960    1.0000 </r>
       <r>   -1.1516    1.0000 </r>
       <r>   -0.5530    1.0000 </r>
       <r>    0.3462    1.0000 </r>
       <r>    0.7977    1.0000 </r>
       <r>    1.6390    1.0000 </r>
       <r>    1.9780    1.0000 </r>
       <r>    2.3341    1.0000 </r>
       <r>    2.6489    1.0000 </r>
       <r>    3.0831    1.0000 </r>
       <r>    3.3171    1.0000 </r>
       <r>    3.8885    1.0000 </r>
       <r>    4.3138    1.0000 </r>
       <r>    4.8641    1.0000 </r>
       <r>    5.1442    1.0000 </r>
       <r>    5.3102    1.0000 </r>
       <r>    5.4161    1.0000 </r>
       <r>    5.7063    1.0000 </r>
       <r>    6.0554    1.0000 </r>
       <r>    6.1680    1.0000 </r>
       <r>    6.3180    1.0000 </r>
       <r>    6.5137    1.0000 </r>
       <r>    6.7024    1.0000 </r>
       <r>    7.0345    1.0000 </r>
       <r>    7.2543    1.0000 </r>
       <r>    7.5748    1.0000 </r>
       <r>    7.8498    1.0000 </r>
       <r>    8.1197    1.0000 </r>
       <r>    8.4905    1.0000 </r>
       <r>    8.6373    1.0000 </r>
       <r>    8.8710    1.0000 </r>
       <r>    9.2015    1.0000 </r>
       <r>    9.3746    1.0000 </r>
       <r>    9.9681    1.0000 </r>
       <r>   10.0990    1.0000 </r>
       <r>   10.2918    1.0000 </r>
       <r>   10.6602    1.0000 </r>
       <r>   10.9187    1.0034 </r>
       <r>   11.1654    1.0259 </r>
       <r>   11.3046    0.7500 </r>
       <r>   11.4235    0.2708 </r>
       <r>   11.8360   -0.0022 </r>
       <r>   11.9562   -0.0001 </r>
       <r>   12.1832   -0.0000 </r>
       <r>   12.4668   -0.0000 </r>
       <r>   12.5688   -0.0000 </r>
       <r>   12.7969   -0.0000 </r>
       <r>   12.9732   -0.0000 </r>
       <r>   13.1354   -0.0000 </r>
       <r>   13.3484   -0.0000 </r>
       <r>   13.5979   -0.0000 </r>
       <r>   13.6979   -0.0000 </r>
       <r>   13.9294   -0.0000 </r>
       <r>   14.1358   -0.0000 </r>
       <r>   14.3694   -0.0000 </r>
       <r>   14.4781   -0.0000 </r>
       <r>   14.7364   -0.0000 </r>
       <r>   14.8794   -0.0000 </r>
       <r>   15.0403   -0.0000 </r>
       <r>   15.1430   -0.0000 </r>
       <r>   15.6183   -0.0000 </r>
       <r>   15.7850   -0.0000 </r>
       <r>   16.0047   -0.0000 </r>
       <r>   16.0522   -0.0000 </r>
      </set>
      <set comment="kpoint 128">
       <r>   -1.6872    1.0000 </r>
       <r>   -1.1807    1.0000 </r>
       <r>   -0.4704    1.0000 </r>
       <r>    0.2518    1.0000 </r>
       <r>    0.7397    1.0000 </r>
       <r>    1.6678    1.0000 </r>
       <r>    2.0251    1.0000 </r>
       <r>    2.4013    1.0000 </r>
       <r>    2.7468    1.0000 </r>
       <r>    2.9127    1.0000 </r>
       <r>    3.2715    1.0000 </r>
       <r>    4.0760    1.0000 </r>
       <r>    4.4228    1.0000 </r>
       <r>    4.8678    1.0000 </r>
       <r>    5.1375    1.0000 </r>
       <r>    5.2306    1.0000 </r>
       <r>    5.4668    1.0000 </r>
       <r>    5.6326    1.0000 </r>
       <r>    5.9483    1.0000 </r>
       <r>    6.1148    1.0000 </r>
       <r>    6.2156    1.0000 </r>
       <r>    6.5156    1.0000 </r>
       <r>    6.5646    1.0000 </r>
       <r>    6.8027    1.0000 </r>
       <r>    7.2983    1.0000 </r>
       <r>    7.6574    1.0000 </r>
       <r>    7.9317    1.0000 </r>
       <r>    8.2716    1.0000 </r>
       <r>    8.4436    1.0000 </r>
       <r>    8.8500    1.0000 </r>
       <r>    9.0485    1.0000 </r>
       <r>    9.3309    1.0000 </r>
       <r>    9.4674    1.0000 </r>
       <r>    9.7778    1.0000 </r>
       <r>    9.9985    1.0000 </r>
       <r>   10.3782    1.0000 </r>
       <r>   10.5325    1.0000 </r>
       <r>   10.9615    1.0073 </r>
       <r>   11.1792    1.0175 </r>
       <r>   11.2561    0.8982 </r>
       <r>   11.5280    0.0085 </r>
       <r>   11.7117   -0.0175 </r>
       <r>   12.0186   -0.0000 </r>
       <r>   12.1301   -0.0000 </r>
       <r>   12.3147   -0.0000 </r>
       <r>   12.6372   -0.0000 </r>
       <r>   12.7339   -0.0000 </r>
       <r>   12.9409   -0.0000 </r>
       <r>   13.2367   -0.0000 </r>
       <r>   13.4694   -0.0000 </r>
       <r>   13.6320   -0.0000 </r>
       <r>   13.8554   -0.0000 </r>
       <r>   13.9515   -0.0000 </r>
       <r>   14.1150   -0.0000 </r>
       <r>   14.2856   -0.0000 </r>
       <r>   14.5276   -0.0000 </r>
       <r>   14.5637   -0.0000 </r>
       <r>   14.6907   -0.0000 </r>
       <r>   14.9254   -0.0000 </r>
       <r>   15.0970   -0.0000 </r>
       <r>   15.5261   -0.0000 </r>
       <r>   15.8231   -0.0000 </r>
       <r>   15.9249   -0.0000 </r>
       <r>   16.1573   -0.0000 </r>
      </set>
     </set>
    </set>
   </array>
  </eigenvalues>
  <separator name="orbital magnetization" >
   <v name="MAGDIPOLOUT">      0.00000000      0.00000000      0.00000000</v>
  </separator>
  <dos>
   <i name="efermi">     11.36686877 </i>
   <total>
    <array>
     <dimension dim="1">gridpoints</dimension>
     <dimension dim="2">spin</dimension>
     <field>energy</field>
     <field>total</field>
     <field>integrated</field>
     <set>
      <set comment="spin 1">
       <r>    -4.3269     0.0000     0.0000 </r>
       <r>    -4.2502     0.0000     0.0000 </r>
       <r>    -4.1735     0.0000     0.0000 </r>
       <r>    -4.0967     0.0000     0.0000 </r>
       <r>    -4.0200     0.0000     0.0000 </r>
       <r>    -3.9433    -0.0000    -0.0000 </r>
       <r>    -3.8665    -0.0000    -0.0000 </r>
       <r>    -3.7898    -0.0000    -0.0000 </r>
       <r>    -3.7131    -0.0000    -0.0000 </r>
       <r>    -3.6363    -0.0000    -0.0000 </r>
       <r>    -3.5596    -0.0000    -0.0000 </r>
       <r>    -3.4829    -0.0000    -0.0000 </r>
       <r>    -3.4061    -0.0000    -0.0000 </r>
       <r>    -3.3294    -0.0000    -0.0000 </r>
       <r>    -3.2527    -0.0000    -0.0000 </r>
       <r>    -3.1759    -0.0000    -0.0000 </r>
       <r>    -3.0992    -0.0000    -0.0000 </r>
       <r>    -3.0225    -0.0000    -0.0000 </r>
       <r>    -2.9457    -0.0000    -0.0000 </r>
       <r>    -2.8690    -0.0003    -0.0000 </r>
       <r>    -2.7923    -0.0019    -0.0002 </r>
       <r>    -2.7155    -0.0075    -0.0007 </r>
       <r>    -2.6388    -0.0207    -0.0023 </r>
       <r>    -2.5621    -0.0355    -0.0051 </r>
       <r>    -2.4853    -0.0172    -0.0064 </r>
       <r>    -2.4086     0.0989     0.0012 </r>
       <r>    -2.3319     0.3637     0.0291 </r>
       <r>    -2.2551     0.7483     0.0865 </r>
       <r>    -2.1784     1.1422     0.1742 </r>
       <r>    -2.1017     1.4659     0.2867 </r>
       <r>    -2.0249     1.7816     0.4234 </r>
       <r>    -1.9482     2.2242     0.5940 </r>
       <r>    -1.8715     2.8017     0.8090 </r>
       <r>    -1.7947     3.3416     1.0654 </r>
       <r>    -1.7180     3.6306     1.3440 </r>
       <r>    -1.6413     3.4854     1.6115 </r>
       <r>    -1.5646     2.8002     1.8263 </r>
       <r>    -1.4878     1.7985     1.9643 </r>
       <r>    -1.4111     1.0829     2.0474 </r>
       <r>    -1.3344     1.1404     2.1349 </r>
       <r>    -1.2576     1.9027     2.2809 </r>
       <r>    -1.1809     2.8614     2.5005 </r>
       <r>    -1.1042     3.4785     2.7674 </r>
       <r>    -1.0274     3.5151     3.0372 </r>
       <r>    -0.9507     3.1187     3.2765 </r>
       <r>    -0.8740     2.6414     3.4791 </r>
       <r>    -0.7972     2.3465     3.6592 </r>
       <r>    -0.7205     2.2618     3.8328 </r>
       <r>    -0.6438     2.2530     4.0056 </r>
       <r>    -0.5670     2.1924     4.1739 </r>
       <r>    -0.4903     2.0977     4.3348 </r>
       <r>    -0.4136     2.1282     4.4981 </r>
       <r>    -0.3368     2.3971     4.6821 </r>
       <r>    -0.2601     2.8211     4.8985 </r>
       <r>    -0.1834     3.2256     5.1461 </r>
       <r>    -0.1066     3.5503     5.4185 </r>
       <r>    -0.0299     3.8537     5.7142 </r>
       <r>     0.0468     4.1571     6.0332 </r>
       <r>     0.1236     4.3742     6.3688 </r>
       <r>     0.2003     4.3510     6.7027 </r>
       <r>     0.2770     3.9620     7.0067 </r>
       <r>     0.3538     3.3003     7.2600 </r>
       <r>     0.4305     2.7539     7.4713 </r>
       <r>     0.5072     2.6791     7.6768 </r>
       <r>     0.5840     3.0114     7.9079 </r>
       <r>     0.6607     3.4272     8.1709 </r>
       <r>     0.7374     3.7598     8.4594 </r>
       <r>     0.8142     3.9968     8.7661 </r>
       <r>     0.8909     4.0712     9.0785 </r>
       <r>     0.9676     3.8730     9.3757 </r>
       <r>     1.0444     3.3938     9.6361 </r>
       <r>     1.1211     2.8448     9.8544 </r>
       <r>     1.1978     2.6290    10.0561 </r>
       <r>     1.2746     3.0601    10.2909 </r>
       <r>     1.3513     3.9988    10.5978 </r>
       <r>     1.4280     4.8469    10.9697 </r>
       <r>     1.5048     5.0952    11.3607 </r>
       <r>     1.5815     4.8535    11.7331 </r>
       <r>     1.6582     4.6136    12.0871 </r>
       <r>     1.7350     4.5796    12.4385 </r>
       <r>     1.8117     4.5995    12.7914 </r>
       <r>     1.8884     4.6283    13.1466 </r>
       <r>     1.9652     4.7654    13.5123 </r>
       <r>     2.0419     4.9306    13.8906 </r>
       <r>     2.1186     4.9475    14.2702 </r>
       <r>     2.1954     4.8274    14.6407 </r>
       <r>     2.2721     4.6891    15.0005 </r>
       <r>     2.3488     4.5825    15.3521 </r>
       <r>     2.4256     4.5359    15.7001 </r>
       <r>     2.5023     4.6251    16.0550 </r>
       <r>     2.5790     4.8877    16.4301 </r>
       <r>     2.6558     5.1907    16.8284 </r>
       <r>     2.7325     5.3026    17.2353 </r>
       <r>     2.8092     5.1392    17.6296 </r>
       <r>     2.8860     4.8342    18.0006 </r>
       <r>     2.9627     4.5903    18.3528 </r>
       <r>     3.0394     4.5719    18.7036 </r>
       <r>     3.1162     4.8395    19.0750 </r>
       <r>     3.1929     5.2421    19.4772 </r>
       <r>     3.2696     5.4804    19.8977 </r>
       <r>     3.3464     5.4152    20.3133 </r>
       <r>     3.4231     5.2167    20.7135 </r>
       <r>     3.4998     5.1362    21.1077 </r>
       <r>     3.5766     5.2872    21.5134 </r>
       <r>     3.6533     5.6580    21.9475 </r>
       <r>     3.7300     6.0982    22.4155 </r>
       <r>     3.8068     6.3013    22.8990 </r>
       <r>     3.8835     6.1031    23.3673 </r>
       <r>     3.9602     5.7878    23.8114 </r>
       <r>     4.0370     5.7867    24.2554 </r>
       <r>     4.1137     6.1123    24.7245 </r>
       <r>     4.1904     6.4108    25.2164 </r>
       <r>     4.2672     6.4270    25.7096 </r>
       <r>     4.3439     6.1269    26.1797 </r>
       <r>     4.4206     5.6610    26.6141 </r>
       <r>     4.4974     5.3590    27.0253 </r>
       <r>     4.5741     5.4393    27.4427 </r>
       <r>     4.6508     5.8105    27.8885 </r>
       <r>     4.7276     6.3092    28.3726 </r>
       <r>     4.8043     6.8229    28.8962 </r>
       <r>     4.8810     7.1755    29.4468 </r>
       <r>     4.9578     7.2340    30.0019 </r>
       <r>     5.0345     7.0991    30.5466 </r>
       <r>     5.1112     6.9687    31.0813 </r>
       <r>     5.1880     6.9045    31.6111 </r>
       <r>     5.2647     6.8828    32.1393 </r>
       <r>     5.3414     6.8877    32.6678 </r>
       <r>     5.4182     6.8802    33.1957 </r>
       <r>     5.4949     6.8669    33.7226 </r>
       <r>     5.5716     6.8989    34.2520 </r>
       <r>     5.6484     6.8743    34.7795 </r>
       <r>     5.7251     6.6152    35.2871 </r>
       <r>     5.8018     6.2439    35.7662 </r>
       <r>     5.8786     6.1850    36.2408 </r>
       <r>     5.9553     6.6617    36.7520 </r>
       <r>     6.0320     7.3902    37.3191 </r>
       <r>     6.1088     7.8841    37.9240 </r>
       <r>     6.1855     7.9646    38.5352 </r>
       <r>     6.2622     7.8858    39.1403 </r>
       <r>     6.3390     7.9475    39.7501 </r>
       <r>     6.4157     8.1197    40.3732 </r>
       <r>     6.4924     8.1883    41.0015 </r>
       <r>     6.5692     8.0662    41.6204 </r>
       <r>     6.6459     7.7559    42.2156 </r>
       <r>     6.7226     7.2588    42.7726 </r>
       <r>     6.7994     6.7403    43.2898 </r>
       <r>     6.8761     6.5290    43.7908 </r>
       <r>     6.9528     6.7350    44.3076 </r>
       <r>     7.0296     7.1071    44.8529 </r>
       <r>     7.1063     7.4105    45.4216 </r>
       <r>     7.1830     7.6276    46.0068 </r>
       <r>     7.2598     7.7542    46.6018 </r>
       <r>     7.3365     7.7773    47.1986 </r>
       <r>     7.4132     7.7865    47.7961 </r>
       <r>     7.4900     7.8377    48.3975 </r>
       <r>     7.5667     7.9015    49.0038 </r>
       <r>     7.6434     8.0174    49.6190 </r>
       <r>     7.7202     8.2201    50.2498 </r>
       <r>     7.7969     8.3974    50.8941 </r>
       <r>     7.8736     8.4333    51.5413 </r>
       <r>     7.9504     8.3456    52.1816 </r>
       <r>     8.0271     8.2166    52.8121 </r>
       <r>     8.1038     8.1162    53.4349 </r>
       <r>     8.1806     8.0600    54.0534 </r>
       <r>     8.2573     7.9527    54.6636 </r>
       <r>     8.3340     7.6727    55.2524 </r>
       <r>     8.4108     7.3042    55.8129 </r>
       <r>     8.4875     7.1130    56.3587 </r>
       <r>     8.5642     7.2209    56.9127 </r>
       <r>     8.6410     7.4784    57.4866 </r>
       <r>     8.7177     7.6604    58.0744 </r>
       <r>     8.7944     7.6665    58.6627 </r>
       <r>     8.8712     7.5418    59.2414 </r>
       <r>     8.9479     7.4125    59.8102 </r>
       <r>     9.0246     7.4499    60.3818 </r>
       <r>     9.1014     7.7736    60.9783 </r>
       <r>     9.1781     8.3254    61.6171 </r>
       <r>     9.2548     8.9169    62.3014 </r>
       <r>     9.3316     9.3764    63.0208 </r>
       <r>     9.4083     9.5877    63.7565 </r>
       <r>     9.4850     9.5086    64.4861 </r>
       <r>     9.5618     9.2388    65.1951 </r>
       <r>     9.6385     8.9761    65.8838 </r>
       <r>     9.7152     8.8757    66.5649 </r>
       <r>     9.7920     8.9364    67.2506 </r>
       <r>     9.8687     8.9519    67.9375 </r>
       <r>     9.9454     8.7047    68.6055 </r>
       <r>    10.0222     8.3468    69.2459 </r>
       <r>    10.0989     8.3288    69.8850 </r>
       <r>    10.1756     8.7401    70.5557 </r>
       <r>    10.2524     9.0616    71.2510 </r>
       <r>    10.3291     8.8591    71.9308 </r>
       <r>    10.4058     8.3499    72.5715 </r>
       <r>    10.4826     7.9661    73.1828 </r>
       <r>    10.5593     7.8242    73.7832 </r>
       <r>    10.6360     7.9194    74.3908 </r>
       <r>    10.7128     8.2924    75.0271 </r>
       <r>    10.7895     8.7864    75.7014 </r>
       <r>    10.8662     9.1110    76.4005 </r>
       <r>    10.9430     9.2107    77.1072 </r>
       <r>    11.0197     9.2310    77.8156 </r>
       <r>    11.0964     9.2100    78.5223 </r>
       <r>    11.1732     9.1180    79.2219 </r>
       <r>    11.2499     9.0661    79.9176 </r>
       <r>    11.3266     9.1857    80.6224 </r>
       <r>    11.4034     9.4599    81.3483 </r>
       <r>    11.4801     9.7849    82.0992 </r>
       <r>    11.5568     9.9854    82.8654 </r>
       <r>    11.6336     9.8635    83.6222 </r>
       <r>    11.7103     9.4580    84.3480 </r>
       <r>    11.7870     9.0497    85.0424 </r>
       <r>    11.8638     8.7965    85.7174 </r>
       <r>    11.9405     8.6923    86.3844 </r>
       <r>    12.0172     8.8208    87.0612 </r>
       <r>    12.0940     9.2004    87.7672 </r>
       <r>    12.1707     9.5675    88.5013 </r>
       <r>    12.2474     9.6669    89.2431 </r>
       <r>    12.3242     9.5448    89.9755 </r>
       <r>    12.4009     9.4204    90.6984 </r>
       <r>    12.4776     9.4205    91.4212 </r>
       <r>    12.5544     9.4879    92.1493 </r>
       <r>    12.6311     9.5142    92.8793 </r>
       <r>    12.7078     9.4931    93.6078 </r>
       <r>    12.7846     9.4953    94.3364 </r>
       <r>    12.8613     9.5430    95.0686 </r>
       <r>    12.9380     9.5808    95.8038 </r>
       <r>    13.0148     9.5468    96.5364 </r>
       <r>    13.0915     9.4531    97.2617 </r>
       <r>    13.1682     9.4155    97.9842 </r>
       <r>    13.2450     9.5400    98.7162 </r>
       <r>    13.3217     9.7598    99.4651 </r>
       <r>    13.3984     9.9158   100.2260 </r>
       <r>    13.4752     9.9965   100.9931 </r>
       <r>    13.5519    10.0837   101.7668 </r>
       <r>    13.6286    10.0774   102.5401 </r>
       <r>    13.7054     9.7792   103.2905 </r>
       <r>    13.7821     9.2892   104.0033 </r>
       <r>    13.8588     9.0364   104.6967 </r>
       <r>    13.9356     9.2840   105.4091 </r>
       <r>    14.0123     9.8242   106.1629 </r>
       <r>    14.0890    10.2978   106.9531 </r>
       <r>    14.1658    10.5503   107.7626 </r>
       <r>    14.2425    10.5685   108.5736 </r>
       <r>    14.3192    10.3525   109.3680 </r>
       <r>    14.3960     9.9803   110.1338 </r>
       <r>    14.4727     9.6963   110.8778 </r>
       <r>    14.5494     9.7602   111.6268 </r>
       <r>    14.6262    10.1451   112.4052 </r>
       <r>    14.7029    10.5403   113.2140 </r>
       <r>    14.7796    10.7107   114.0359 </r>
       <r>    14.8564    10.6867   114.8559 </r>
       <r>    14.9331    10.5792   115.6677 </r>
       <r>    15.0098    10.4181   116.4671 </r>
       <r>    15.0866    10.2287   117.2520 </r>
       <r>    15.1633    10.0753   118.0251 </r>
       <r>    15.2400     9.9896   118.7916 </r>
       <r>    15.3168     9.9790   119.5573 </r>
       <r>    15.3935    10.0913   120.3317 </r>
       <r>    15.4702    10.3363   121.1248 </r>
       <r>    15.5470    10.5632   121.9354 </r>
       <r>    15.6237    10.5922   122.7481 </r>
       <r>    15.7004    10.4749   123.5519 </r>
       <r>    15.7772    10.4014   124.3500 </r>
       <r>    15.8539    10.3221   125.1421 </r>
       <r>    15.9306     9.8888   125.9009 </r>
       <r>    16.0074     8.7940   126.5757 </r>
       <r>    16.0841     7.0559   127.1171 </r>
       <r>    16.1608     5.0346   127.5034 </r>
       <r>    16.2376     3.1920   127.7484 </r>
       <r>    16.3143     1.7793   127.8849 </r>
       <r>    16.3910     0.8113   127.9471 </r>
       <r>    16.4678     0.2525   127.9665 </r>
       <r>    16.5445     0.0512   127.9704 </r>
       <r>    16.6212     0.0704   127.9758 </r>
       <r>    16.6980     0.1301   127.9858 </r>
       <r>    16.7747     0.1248   127.9954 </r>
       <r>    16.8514     0.0660   128.0005 </r>
       <r>    16.9282     0.0129   128.0014 </r>
       <r>    17.0049    -0.0075   128.0009 </r>
       <r>    17.0816    -0.0073   128.0003 </r>
       <r>    17.1584    -0.0030   128.0001 </r>
       <r>    17.2351    -0.0008   128.0000 </r>
       <r>    17.3118    -0.0001   128.0000 </r>
       <r>    17.3886    -0.0000   128.0000 </r>
       <r>    17.4653    -0.0000   128.0000 </r>
       <r>    17.5420    -0.0000   128.0000 </r>
       <r>    17.6188    -0.0000   128.0000 </r>
       <r>    17.6955    -0.0000   128.0000 </r>
       <r>    17.7722    -0.0000   128.0000 </r>
       <r>    17.8490    -0.0000   128.0000 </r>
       <r>    17.9257    -0.0000   128.0000 </r>
       <r>    18.0024     0.0000   128.0000 </r>
       <r>    18.0792     0.0000   128.0000 </r>
       <r>    18.1559     0.0000   128.0000 </r>
       <r>    18.2326     0.0000   128.0000 </r>
       <r>    18.3094     0.0000   128.0000 </r>
       <r>    18.3861     0.0000   128.0000 </r>
       <r>    18.4628     0.0000   128.0000 </r>
       <r>    18.5396     0.0000   128.0000 </r>
       <r>    18.6163     0.0000   128.0000 </r>
       <r>    18.6930     0.0000   128.0000 </r>
      </set>
     </set>
    </array>
   </total>
  </dos>
 </calculation>
 <structure name="finalpos" >
  <crystal>
   <varray name="basis" >
    <v>       0.00000000       5.46750000       5.46750000 </v>
    <v>       5.46750000       0.00000000       5.46750000 </v>
    <v>       5.46750000       5.46750000       0.00000000 </v>
   </varray>
   <i name="volume">    326.88603759 </i>
   <varray name="rec_basis" >
    <v>      -0.09144947       0.09144947       0.09144947 </v>
    <v>       0.09144947      -0.09144947       0.09144947 </v>
    <v>       0.09144947       0.09144947      -0.09144947 </v>
   </varray>
  </crystal>
  <varray name="positions" >
   <v>       0.92432038       0.01145101       0.01725127 </v>
   <v>       0.03473667       0.03559095       0.25683753 </v>
   <v>       0.97161413       0.96486266       0.74482341 </v>
   <v>       0.92734180       0.36273853       0.04696142 </v>
   <v>       0.96684319       0.31458461       0.30653657 </v>
   <v>       0.06775157       0.30469728       0.68018229 </v>
   <v>       0.03091415       0.72508333       0.95378249 </v>
   <v>       0.94908234       0.62991788       0.36017798 </v>
   <v>       0.05601448       0.61583760       0.70032548 </v>
   <v>       0.27935256       0.97491312       0.06863609 </v>
   <v>       0.40219880       0.96126172       0.28940734 </v>
   <v>       0.28775210       0.07600236       0.64664592 </v>
   <v>       0.38975224       0.29703366       0.03271804 </v>
   <v>       0.40639015       0.29635855       0.33773800 </v>
   <v>       0.30744091       0.41249317       0.63808360 </v>
   <v>       0.30663672       0.73107918       0.94379181 </v>
   <v>       0.33425177       0.65574136       0.40233963 </v>
   <v>       0.38978075       0.60961422       0.69796540 </v>
   <v>       0.70292456       0.94552447       0.96486604 </v>
   <v>       0.63311991       0.95485162       0.34025573 </v>
   <v>       0.73719443       0.96773814       0.67595795 </v>
   <v>       0.74495788       0.29842481       0.98438558 </v>
   <v>       0.62121351       0.28784342       0.37200917 </v>
   <v>       0.59199835       0.37533754       0.66734908 </v>
   <v>       0.70346303       0.58884856       0.02799368 </v>
   <v>       0.67717392       0.59291498       0.38512189 </v>
   <v>       0.69582026       0.60227130       0.64723813 </v>
  </varray>
 </structure>
</modeling>
