<?xml version="1.0" encoding="ISO-8859-1"?>
<modeling>
 <generator>
  <i name="program" type="string">vasp </i>
  <i name="version" type="string">5.3.5  </i>
  <i name="subversion" type="string">31Mar14 (build Jun 17 2014 14:04:22) complex                          parallel </i>
  <i name="platform" type="string">LinuxIfort </i>
  <i name="date" type="string">2025 12 23 </i>
  <i name="time" type="string">02:14:57 </i>
 </generator>
 <incar>
  <i type="string" name="SYSTEM"> Al Random Displacement</i>
  <i type="string" name="PREC">normal</i>
  <i type="string" name="ALGO"> Fast</i>
  <i type="int" name="IBRION">    -1</i>
  <i type="int" name="NSW">     0</i>
  <i name="ENCUT">    300.00000000</i>
  <i type="string" name="LREAL"> Auto</i>
  <i type="int" name="ISMEAR">     1</i>
  <i name="SIGMA">      0.20000000</i>
  <i type="logical" name="LWAVE"> F  </i>
  <i type="logical" name="LCHARG"> F  </i>
 </incar>
 <kpoints>
  <generation param="Monkhorst-Pack">
   <v type="int" name="divisions">       4        4        4 </v>
   <v name="usershift">      0.00000000       0.00000000       0.00000000 </v>
   <v name="genvec1">      0.25000000       0.00000000       0.00000000 </v>
   <v name="genvec2">      0.00000000       0.25000000       0.00000000 </v>
   <v name="genvec3">      0.00000000       0.00000000       0.25000000 </v>
   <v name="shift">      0.50000000       0.50000000       0.50000000 </v>
  </generation>
  <varray name="kpointlist" >
   <v>       0.12500000       0.12500000       0.12500000 </v>
   <v>       0.12500000       0.00000000       0.00000000 </v>
   <v>       0.00000000       0.00000000      -0.12500000 </v>
   <v>       0.00000000       0.12500000       0.00000000 </v>
   <v>       0.37500000       0.12500000       0.12500000 </v>
   <v>       0.12500000       0.37500000       0.12500000 </v>
   <v>       0.12500000       0.12500000       0.37500000 </v>
   <v>       0.12500000       0.00000000      -0.25000000 </v>
   <v>       0.37500000       0.25000000       0.25000000 </v>
   <v>       0.12500000      -0.25000000       0.00000000 </v>
   <v>       0.00000000       0.25000000      -0.12500000 </v>
   <v>       0.25000000       0.00000000      -0.12500000 </v>
   <v>      -0.25000000      -0.25000000      -0.37500000 </v>
   <v>       0.25000000       0.37500000       0.25000000 </v>
   <v>       0.00000000       0.12500000      -0.25000000 </v>
   <v>      -0.25000000       0.12500000       0.00000000 </v>
   <v>      -0.37500000       0.12500000       0.12500000 </v>
   <v>       0.12500000      -0.37500000       0.12500000 </v>
   <v>       0.12500000       0.12500000      -0.37500000 </v>
   <v>       0.12500000       0.00000000       0.50000000 </v>
   <v>      -0.37500000       0.50000000       0.50000000 </v>
   <v>       0.12500000       0.50000000       0.00000000 </v>
   <v>       0.00000000       0.50000000      -0.12500000 </v>
   <v>       0.50000000       0.00000000      -0.12500000 </v>
   <v>       0.50000000       0.50000000       0.37500000 </v>
   <v>       0.50000000      -0.37500000       0.50000000 </v>
   <v>       0.00000000       0.12500000       0.50000000 </v>
   <v>       0.50000000       0.12500000       0.00000000 </v>
   <v>      -0.12500000       0.12500000       0.12500000 </v>
   <v>       0.12500000      -0.12500000       0.12500000 </v>
   <v>       0.12500000       0.12500000      -0.12500000 </v>
   <v>       0.12500000       0.00000000       0.25000000 </v>
   <v>      -0.12500000      -0.25000000      -0.25000000 </v>
   <v>       0.12500000       0.25000000       0.00000000 </v>
   <v>       0.00000000      -0.25000000      -0.12500000 </v>
   <v>      -0.25000000       0.00000000      -0.12500000 </v>
   <v>       0.25000000       0.25000000       0.12500000 </v>
   <v>      -0.25000000      -0.12500000      -0.25000000 </v>
   <v>       0.00000000       0.12500000       0.25000000 </v>
   <v>       0.25000000       0.12500000       0.00000000 </v>
   <v>       0.37500000       0.37500000       0.12500000 </v>
   <v>       0.12500000       0.37500000       0.37500000 </v>
   <v>       0.37500000       0.12500000       0.37500000 </v>
   <v>       0.37500000       0.25000000       0.00000000 </v>
   <v>       0.37500000       0.00000000       0.25000000 </v>
   <v>       0.12500000      -0.25000000      -0.25000000 </v>
   <v>       0.25000000       0.25000000      -0.12500000 </v>
   <v>       0.00000000      -0.25000000      -0.37500000 </v>
   <v>      -0.25000000       0.00000000      -0.37500000 </v>
   <v>       0.25000000       0.37500000       0.00000000 </v>
   <v>      -0.25000000       0.12500000      -0.25000000 </v>
   <v>       0.00000000       0.37500000       0.25000000 </v>
   <v>      -0.37500000       0.37500000       0.12500000 </v>
   <v>       0.12500000      -0.37500000       0.37500000 </v>
   <v>       0.37500000       0.12500000      -0.37500000 </v>
   <v>       0.37500000       0.25000000      -0.25000000 </v>
   <v>      -0.37500000       0.25000000       0.50000000 </v>
   <v>       0.12500000       0.50000000      -0.25000000 </v>
   <v>       0.25000000       0.50000000      -0.12500000 </v>
   <v>       0.25000000      -0.25000000      -0.37500000 </v>
   <v>       0.50000000      -0.25000000       0.37500000 </v>
   <v>       0.50000000      -0.37500000       0.25000000 </v>
   <v>      -0.25000000       0.12500000       0.50000000 </v>
   <v>      -0.25000000       0.37500000       0.25000000 </v>
   <v>      -0.12500000       0.25000000       0.50000000 </v>
   <v>      -0.37500000       0.25000000      -0.25000000 </v>
   <v>       0.37500000       0.50000000      -0.25000000 </v>
   <v>       0.25000000       0.50000000      -0.37500000 </v>
   <v>       0.50000000      -0.25000000       0.12500000 </v>
   <v>       0.25000000      -0.25000000       0.37500000 </v>
   <v>       0.50000000      -0.12500000       0.25000000 </v>
   <v>      -0.25000000      -0.37500000       0.25000000 </v>
   <v>      -0.25000000       0.37500000       0.50000000 </v>
   <v>       0.37500000      -0.12500000      -0.37500000 </v>
   <v>      -0.37500000       0.37500000      -0.12500000 </v>
   <v>      -0.12500000      -0.37500000       0.37500000 </v>
   <v>      -0.12500000       0.37500000       0.12500000 </v>
   <v>       0.12500000      -0.12500000       0.37500000 </v>
   <v>       0.37500000       0.12500000      -0.12500000 </v>
   <v>       0.37500000       0.25000000       0.50000000 </v>
   <v>      -0.12500000       0.50000000      -0.25000000 </v>
   <v>       0.12500000       0.25000000      -0.25000000 </v>
   <v>       0.25000000      -0.25000000      -0.12500000 </v>
   <v>       0.50000000      -0.25000000      -0.37500000 </v>
   <v>       0.25000000       0.50000000       0.12500000 </v>
   <v>      -0.25000000      -0.12500000       0.50000000 </v>
   <v>      -0.25000000       0.12500000       0.25000000 </v>
   <v>       0.50000000       0.37500000       0.25000000 </v>
   <v>      -0.12500000       0.25000000      -0.25000000 </v>
   <v>      -0.37500000       0.50000000      -0.25000000 </v>
   <v>       0.12500000       0.25000000       0.50000000 </v>
   <v>       0.50000000      -0.25000000      -0.12500000 </v>
   <v>       0.25000000      -0.25000000       0.12500000 </v>
   <v>       0.25000000       0.50000000       0.37500000 </v>
   <v>      -0.25000000      -0.12500000       0.25000000 </v>
   <v>      -0.25000000      -0.37500000       0.50000000 </v>
   <v>       0.50000000       0.12500000       0.25000000 </v>
   <v>       0.12500000      -0.12500000      -0.37500000 </v>
   <v>      -0.37500000       0.12500000      -0.12500000 </v>
   <v>      -0.12500000      -0.37500000       0.12500000 </v>
   <v>      -0.37500000      -0.37500000       0.12500000 </v>
   <v>       0.12500000      -0.37500000      -0.37500000 </v>
   <v>      -0.37500000       0.12500000      -0.37500000 </v>
   <v>      -0.37500000       0.50000000       0.00000000 </v>
   <v>      -0.37500000       0.00000000       0.50000000 </v>
   <v>       0.12500000       0.50000000       0.50000000 </v>
   <v>       0.50000000       0.50000000      -0.12500000 </v>
   <v>       0.00000000       0.50000000       0.37500000 </v>
   <v>       0.50000000       0.00000000       0.37500000 </v>
   <v>       0.50000000      -0.37500000       0.00000000 </v>
   <v>       0.50000000       0.12500000       0.50000000 </v>
   <v>       0.00000000      -0.37500000       0.50000000 </v>
   <v>       0.37500000       0.37500000       0.37500000 </v>
   <v>       0.37500000       0.00000000       0.00000000 </v>
   <v>       0.00000000       0.00000000      -0.37500000 </v>
   <v>       0.00000000       0.37500000       0.00000000 </v>
   <v>      -0.37500000       0.37500000       0.37500000 </v>
   <v>       0.37500000      -0.37500000       0.37500000 </v>
   <v>       0.37500000       0.37500000      -0.37500000 </v>
   <v>       0.37500000       0.00000000      -0.25000000 </v>
   <v>      -0.37500000       0.25000000       0.25000000 </v>
   <v>       0.37500000      -0.25000000       0.00000000 </v>
   <v>       0.00000000       0.25000000      -0.37500000 </v>
   <v>       0.25000000       0.00000000      -0.37500000 </v>
   <v>      -0.25000000      -0.25000000       0.37500000 </v>
   <v>       0.25000000      -0.37500000       0.25000000 </v>
   <v>       0.00000000       0.37500000      -0.25000000 </v>
   <v>      -0.25000000       0.37500000       0.00000000 </v>
  </varray>
  <varray name="weights" >
   <v>       0.00781250 </v>
   <v>       0.00781250 </v>
   <v>       0.00781250 </v>
   <v>       0.00781250 </v>
   <v>       0.00781250 </v>
   <v>       0.00781250 </v>
   <v>       0.00781250 </v>
   <v>       0.00781250 </v>
   <v>       0.00781250 </v>
   <v>       0.00781250 </v>
   <v>       0.00781250 </v>
   <v>       0.00781250 </v>
   <v>       0.00781250 </v>
   <v>       0.00781250 </v>
   <v>       0.00781250 </v>
   <v>       0.00781250 </v>
   <v>       0.00781250 </v>
   <v>       0.00781250 </v>
   <v>       0.00781250 </v>
   <v>       0.00781250 </v>
   <v>       0.00781250 </v>
   <v>       0.00781250 </v>
   <v>       0.00781250 </v>
   <v>       0.00781250 </v>
   <v>       0.00781250 </v>
   <v>       0.00781250 </v>
   <v>       0.00781250 </v>
   <v>       0.00781250 </v>
   <v>       0.00781250 </v>
   <v>       0.00781250 </v>
   <v>       0.00781250 </v>
   <v>       0.00781250 </v>
   <v>       0.00781250 </v>
   <v>       0.00781250 </v>
   <v>       0.00781250 </v>
   <v>       0.00781250 </v>
   <v>       0.00781250 </v>
   <v>       0.00781250 </v>
   <v>       0.00781250 </v>
   <v>       0.00781250 </v>
   <v>       0.00781250 </v>
   <v>       0.00781250 </v>
   <v>       0.00781250 </v>
   <v>       0.00781250 </v>
   <v>       0.00781250 </v>
   <v>       0.00781250 </v>
   <v>       0.00781250 </v>
   <v>       0.00781250 </v>
   <v>       0.00781250 </v>
   <v>       0.00781250 </v>
   <v>       0.00781250 </v>
   <v>       0.00781250 </v>
   <v>       0.00781250 </v>
   <v>       0.00781250 </v>
   <v>       0.00781250 </v>
   <v>       0.00781250 </v>
   <v>       0.00781250 </v>
   <v>       0.00781250 </v>
   <v>       0.00781250 </v>
   <v>       0.00781250 </v>
   <v>       0.00781250 </v>
   <v>       0.00781250 </v>
   <v>       0.00781250 </v>
   <v>       0.00781250 </v>
   <v>       0.00781250 </v>
   <v>       0.00781250 </v>
   <v>       0.00781250 </v>
   <v>       0.00781250 </v>
   <v>       0.00781250 </v>
   <v>       0.00781250 </v>
   <v>       0.00781250 </v>
   <v>       0.00781250 </v>
   <v>       0.00781250 </v>
   <v>       0.00781250 </v>
   <v>       0.00781250 </v>
   <v>       0.00781250 </v>
   <v>       0.00781250 </v>
   <v>       0.00781250 </v>
   <v>       0.00781250 </v>
   <v>       0.00781250 </v>
   <v>       0.00781250 </v>
   <v>       0.00781250 </v>
   <v>       0.00781250 </v>
   <v>       0.00781250 </v>
   <v>       0.00781250 </v>
   <v>       0.00781250 </v>
   <v>       0.00781250 </v>
   <v>       0.00781250 </v>
   <v>       0.00781250 </v>
   <v>       0.00781250 </v>
   <v>       0.00781250 </v>
   <v>       0.00781250 </v>
   <v>       0.00781250 </v>
   <v>       0.00781250 </v>
   <v>       0.00781250 </v>
   <v>       0.00781250 </v>
   <v>       0.00781250 </v>
   <v>       0.00781250 </v>
   <v>       0.00781250 </v>
   <v>       0.00781250 </v>
   <v>       0.00781250 </v>
   <v>       0.00781250 </v>
   <v>       0.00781250 </v>
   <v>       0.00781250 </v>
   <v>       0.00781250 </v>
   <v>       0.00781250 </v>
   <v>       0.00781250 </v>
   <v>       0.00781250 </v>
   <v>       0.00781250 </v>
   <v>       0.00781250 </v>
   <v>       0.00781250 </v>
   <v>       0.00781250 </v>
   <v>       0.00781250 </v>
   <v>       0.00781250 </v>
   <v>       0.00781250 </v>
   <v>       0.00781250 </v>
   <v>       0.00781250 </v>
   <v>       0.00781250 </v>
   <v>       0.00781250 </v>
   <v>       0.00781250 </v>
   <v>       0.00781250 </v>
   <v>       0.00781250 </v>
   <v>       0.00781250 </v>
   <v>       0.00781250 </v>
   <v>       0.00781250 </v>
   <v>       0.00781250 </v>
   <v>       0.00781250 </v>
   <v>       0.00781250 </v>
  </varray>
 </kpoints>
 <parameters>
  <separator name="general" >
   <i type="string" name="SYSTEM">Al Random Displacement</i>
   <i type="logical" name="LCOMPAT"> F  </i>
  </separator>
  <separator name="electronic" >
   <i type="string" name="PREC">normal</i>
   <i name="ENMAX">    300.00000000</i>
   <i name="ENAUG">    291.05200000</i>
   <i name="EDIFF">      0.00010000</i>
   <i type="int" name="IALGO">    68</i>
   <i type="int" name="IWAVPR">    10</i>
   <i type="int" name="NBANDS">    64</i>
   <i name="NELECT">     81.00000000</i>
   <i type="int" name="TURBO">     0</i>
   <i type="int" name="IRESTART">     0</i>
   <i type="int" name="NREBOOT">     0</i>
   <i type="int" name="NMIN">     0</i>
   <i name="EREF">      0.00000000</i>
   <separator name="electronic smearing" >
    <i type="int" name="ISMEAR">     1</i>
    <i name="SIGMA">      0.20000000</i>
    <i name="KSPACING">      0.50000000</i>
    <i type="logical" name="KGAMMA"> T  </i>
   </separator>
   <separator name="electronic projectors" >
    <i type="logical" name="LREAL"> T  </i>
    <v name="ROPT">     -0.00050000</v>
    <i type="int" name="LMAXPAW">  -100</i>
    <i type="int" name="LMAXMIX">     2</i>
    <i type="logical" name="NLSPLINE"> F  </i>
   </separator>
   <separator name="electronic startup" >
    <i type="int" name="ISTART">     0</i>
    <i type="int" name="ICHARG">     2</i>
    <i type="int" name="INIWAV">     1</i>
   </separator>
   <separator name="electronic spin" >
    <i type="int" name="ISPIN">     1</i>
    <i type="logical" name="LNONCOLLINEAR"> F  </i>
    <v name="MAGMOM">      1.00000000      1.00000000      1.00000000      1.00000000      1.00000000      1.00000000      1.00000000      1.00000000      1.00000000      1.00000000      1.00000000      1.00000000      1.00000000      1.00000000      1.00000000      1.00000000      1.00000000      1.00000000      1.00000000      1.00000000
      1.00000000      1.00000000      1.00000000      1.00000000      1.00000000      1.00000000      1.00000000</v>
    <i name="NUPDOWN">     -1.00000000</i>
    <i type="logical" name="LSORBIT"> F  </i>
    <v name="SAXIS">      0.00000000      0.00000000      1.00000000</v>
    <i type="logical" name="LSPIRAL"> F  </i>
    <v name="QSPIRAL">      0.00000000      0.00000000      0.00000000</v>
    <i type="logical" name="LZEROZ"> F  </i>
   </separator>
   <separator name="electronic exchange-correlation" >
    <i type="logical" name="LASPH"> F  </i>
    <i type="logical" name="LMETAGGA"> F  </i>
   </separator>
   <separator name="electronic convergence" >
    <i type="int" name="NELM">    60</i>
    <i type="int" name="NELMDL">    -5</i>
    <i type="int" name="NELMIN">     2</i>
    <i name="ENINI">    300.00000000</i>
    <separator name="electronic convergence detail" >
     <i type="logical" name="LDIAG"> T  </i>
     <i type="logical" name="LSUBROT"> F  </i>
     <i name="WEIMIN">      0.00000000</i>
     <i name="EBREAK">      0.00000039</i>
     <i name="DEPER">      0.30000000</i>
     <i type="int" name="NRMM">     4</i>
     <i name="TIME">      0.40000000</i>
    </separator>
   </separator>
   <separator name="electronic mixer" >
    <i name="AMIX">      0.40000000</i>
    <i name="BMIX">      1.00000000</i>
    <i name="AMIN">      0.10000000</i>
    <i name="AMIX_MAG">      1.60000000</i>
    <i name="BMIX_MAG">      1.00000000</i>
    <separator name="electronic mixer details" >
     <i type="int" name="IMIX">     4</i>
     <i type="int" name="MAXMIX">   -45</i>
     <i name="WC">    100.00000000</i>
     <i type="int" name="INIMIX">     1</i>
     <i type="int" name="MIXPRE">     1</i>
     <i type="int" name="MREMOVE">     5</i>
    </separator>
   </separator>
   <separator name="electronic dipolcorrection" >
    <i type="logical" name="LDIPOL"> F  </i>
    <i type="logical" name="LMONO"> F  </i>
    <i type="int" name="IDIPOL">     0</i>
    <i name="EPSILON">      1.00000000</i>
    <v name="DIPOL">   -100.00000000   -100.00000000   -100.00000000</v>
    <i name="EFIELD">      0.00000000</i>
   </separator>
  </separator>
  <separator name="grids" >
   <i type="int" name="NGX">    36</i>
   <i type="int" name="NGY">    36</i>
   <i type="int" name="NGZ">    36</i>
   <i type="int" name="NGXF">    72</i>
   <i type="int" name="NGYF">    72</i>
   <i type="int" name="NGZF">    72</i>
   <i type="logical" name="ADDGRID"> F  </i>
  </separator>
  <separator name="ionic" >
   <i type="int" name="NSW">     0</i>
   <i type="int" name="IBRION">    -1</i>
   <i type="int" name="ISIF">     2</i>
   <i name="PSTRESS">      0.00000000</i>
   <i name="EDIFFG">      0.00100000</i>
   <i type="int" name="NFREE">     0</i>
   <i name="POTIM">      0.50000000</i>
   <i name="SMASS">     -3.00000000</i>
   <i name="SCALEE">      1.00000000</i>
  </separator>
  <separator name="ionic md" >
   <i name="TEBEG">      0.00010000</i>
   <i name="TEEND">      0.00010000</i>
   <i type="int" name="NBLOCK">     1</i>
   <i type="int" name="KBLOCK">     1</i>
   <i type="int" name="NPACO">   256</i>
   <i name="APACO">     16.00000000</i>
  </separator>
  <separator name="symmetry" >
   <i type="int" name="ISYM">     2</i>
   <i name="SYMPREC">      0.00001000</i>
  </separator>
  <separator name="dos" >
   <i type="logical" name="LORBIT"> F  </i>
   <v name="RWIGS">     -1.00000000</v>
   <i type="int" name="NEDOS">   301</i>
   <i name="EMIN">     10.00000000</i>
   <i name="EMAX">    -10.00000000</i>
   <i name="EFERMI">      0.00000000</i>
  </separator>
  <separator name="writing" >
   <i type="int" name="NWRITE">     2</i>
   <i type="logical" name="LWAVE"> F  </i>
   <i type="logical" name="LCHARG"> F  </i>
   <i type="logical" name="LPARD"> F  </i>
   <i type="logical" name="LVTOT"> F  </i>
   <i type="logical" name="LVHAR"> F  </i>
   <i type="logical" name="LELF"> F  </i>
   <i type="logical" name="LOPTICS"> F  </i>
   <v name="STM">      0.00000000      0.00000000      0.00000000      0.00000000      0.00000000      0.00000000      0.00000000</v>
  </separator>
  <separator name="performance" >
   <i type="int" name="NPAR">    16</i>
   <i type="int" name="NSIM">     4</i>
   <i type="int" name="NBLK">    -1</i>
   <i type="logical" name="LPLANE"> T  </i>
   <i type="logical" name="LSCALAPACK"> F  </i>
   <i type="logical" name="LSCAAWARE"> F  </i>
   <i type="logical" name="LSCALU"> F  </i>
   <i type="logical" name="LASYNC"> F  </i>
   <i type="logical" name="LORBITALREAL"> F  </i>
  </separator>
  <separator name="miscellaneous" >
   <i type="int" name="IDIOT">     3</i>
   <i type="logical" name="LMUSIC"> F  </i>
   <v name="POMASS">     26.98100000</v>
   <v name="DARWINR">      0.00000000</v>
   <v name="DARWINV">      1.00000000</v>
   <i type="logical" name="LCORR"> T  </i>
  </separator>
  <i type="logical" name="GGA_COMPAT"> T  </i>
  <i type="logical" name="LBERRY"> F  </i>
  <i type="int" name="ICORELEVEL">     0</i>
  <i type="logical" name="LDAU"> F  </i>
  <i type="int" name="I_CONSTRAINED_M">     0</i>
  <separator name="electronic exchange-correlation" >
   <i type="string" name="GGA">--</i>
   <i type="int" name="VOSKOWN">     0</i>
   <i type="logical" name="LHFCALC"> F  </i>
   <i type="string" name="PRECFOCK"></i>
   <i type="logical" name="LSYMGRAD"> F  </i>
   <i type="logical" name="LHFONE"> F  </i>
   <i type="logical" name="LRHFCALC"> F  </i>
   <i type="logical" name="LTHOMAS"> F  </i>
   <i type="logical" name="LMODELHF"> F  </i>
   <i name="ENCUT4O">     -1.00000000</i>
   <i type="int" name="EXXOEP">     0</i>
   <i type="int" name="FOURORBIT">     0</i>
   <i name="AEXX">      0.00000000</i>
   <i name="HFALPHA">      0.00000000</i>
   <i name="MCALPHA">      0.00000000</i>
   <i name="ALDAX">      1.00000000</i>
   <i name="AGGAX">      1.00000000</i>
   <i name="ALDAC">      1.00000000</i>
   <i name="AGGAC">      1.00000000</i>
   <i type="int" name="NKREDX">     1</i>
   <i type="int" name="NKREDY">     1</i>
   <i type="int" name="NKREDZ">     1</i>
   <i type="logical" name="SHIFTRED"> F  </i>
   <i type="logical" name="ODDONLY"> F  </i>
   <i type="logical" name="EVENONLY"> F  </i>
   <i type="int" name="LMAXFOCK">     0</i>
   <i type="int" name="NMAXFOCKAE">     0</i>
   <i type="logical" name="LFOCKAEDFT"> F  </i>
   <i name="HFSCREEN">      0.00000000</i>
   <i name="HFSCREENC">      0.00000000</i>
   <i type="int" name="NBANDSGWLOW">     0</i>
  </separator>
  <separator name="vdW DFT" >
   <i type="logical" name="LUSE_VDW"> F  </i>
   <i name="Zab_VDW">     -0.84910000</i>
   <i name="PARAM1">      0.12340000</i>
   <i name="PARAM2">      1.00000000</i>
   <i name="PARAM3">      0.00000000</i>
  </separator>
  <separator name="model GW" >
   <i type="int" name="MODEL_GW">     0</i>
   <i name="MODEL_EPS0">      9.37852533</i>
   <i name="MODEL_ALPHA">      1.00000000</i>
  </separator>
  <separator name="linear response parameters" >
   <i type="logical" name="LEPSILON"> F  </i>
   <i type="logical" name="LRPA"> F  </i>
   <i type="logical" name="LNABLA"> F  </i>
   <i type="logical" name="LVEL"> F  </i>
   <i type="int" name="KINTER">     0</i>
   <i name="CSHIFT">      0.10000000</i>
   <i name="OMEGAMAX">     -1.00000000</i>
   <i name="DEG_THRESHOLD">      0.00200000</i>
  </separator>
  <separator name="orbital magnetization" >
   <i type="logical" name="NUCIND"> F  </i>
   <v name="MAGPOS">      0.00000000      0.00000000      0.00000000</v>
   <i type="logical" name="LNICSALL"> T  </i>
   <i type="logical" name="ORBITALMAG"> F  </i>
   <i type="logical" name="LMAGBLOCH"> F  </i>
   <i type="logical" name="LCHIMAG"> F  </i>
   <i type="logical" name="LGAUGE"> T  </i>
   <i type="int" name="MAGATOM">     0</i>
   <v name="MAGDIPOL">      0.00000000      0.00000000      0.00000000</v>
   <v name="AVECCONST">      0.00000000      0.00000000      0.00000000</v>
  </separator>
  <separator name="response functions" >
   <i type="logical" name="LADDER"> F  </i>
   <i type="logical" name="LFXC"> F  </i>
   <i type="logical" name="LHARTREE"> T  </i>
   <i type="int" name="IBSE">     0</i>
   <i type="logical" name="LTCTE"> F  </i>
   <i type="logical" name="LTETE"> F  </i>
   <i type="logical" name="LTRIPLET"> F  </i>
   <i type="logical" name="LFXCEPS"> F  </i>
   <i type="logical" name="LFXHEG"> F  </i>
   <i type="logical" name="L2ORDER"> F  </i>
   <i type="logical" name="LUSEW"> F  </i>
   <i name="ENCUTGW">     -2.00000000</i>
   <i name="ENCUTGWSOFT">     -2.00000000</i>
   <i name="ENCUTLF">     -1.00000000</i>
   <i type="int" name="LMAXMP2">    -1</i>
   <i name="SCISSOR">      0.00000000</i>
   <i type="int" name="NOMEGA">     0</i>
   <i type="int" name="NOMEGAR">     0</i>
   <i type="int" name="NBANDSGW">    -1</i>
   <i type="int" name="NBANDSO">    -1</i>
   <i type="int" name="NBANDSV">    -1</i>
   <i type="int" name="NELM">     1</i>
   <i type="int" name="DIM">     3</i>
   <i type="int" name="ANTIRES">     0</i>
   <i name="OMEGAMAX">    -30.00000000</i>
   <i name="OMEGAMIN">    -30.00000000</i>
   <i name="OMEGATL">   -200.00000000</i>
   <i type="int" name="OMEGAGRID">     0</i>
   <i name="CSHIFT">     -0.10000000</i>
   <i type="logical" name="SELFENERGY"> F  </i>
   <i type="logical" name="LSPECTRAL"> F  </i>
   <i type="logical" name="ODDONLYGW"> F  </i>
   <i type="logical" name="EVENONLYGW"> F  </i>
   <i type="int" name="NKREDLFX">     1</i>
   <i type="int" name="NKREDLFY">     1</i>
   <i type="int" name="NKREDLFZ">     1</i>
   <i type="int" name="MAXMEM">  1800</i>
   <i type="int" name="TELESCOPE">     0</i>
   <i type="int" name="TAUPAR">     1</i>
  </separator>
  <separator name="External order field" >
   <i name="OFIELD_KAPPA">      0.00000000</i>
   <v name="OFIELD_K">      0.00000000      0.00000000      0.00000000</v>
   <i name="OFIELD_Q6_NEAR">      0.00000000</i>
   <i name="OFIELD_Q6_FAR">      0.00000000</i>
   <i name="OFIELD_A">      0.00000000</i>
  </separator>
 </parameters>
 <atominfo>
  <atoms>      27 </atoms>
  <types>       1 </types>
  <array name="atoms" >
   <dimension dim="1">ion</dimension>
   <field type="string">element</field>
   <field type="int">atomtype</field>
   <set>
    <rc><c>Al</c><c>   1</c></rc>
    <rc><c>Al</c><c>   1</c></rc>
    <rc><c>Al</c><c>   1</c></rc>
    <rc><c>Al</c><c>   1</c></rc>
    <rc><c>Al</c><c>   1</c></rc>
    <rc><c>Al</c><c>   1</c></rc>
    <rc><c>Al</c><c>   1</c></rc>
    <rc><c>Al</c><c>   1</c></rc>
    <rc><c>Al</c><c>   1</c></rc>
    <rc><c>Al</c><c>   1</c></rc>
    <rc><c>Al</c><c>   1</c></rc>
    <rc><c>Al</c><c>   1</c></rc>
    <rc><c>Al</c><c>   1</c></rc>
    <rc><c>Al</c><c>   1</c></rc>
    <rc><c>Al</c><c>   1</c></rc>
    <rc><c>Al</c><c>   1</c></rc>
    <rc><c>Al</c><c>   1</c></rc>
    <rc><c>Al</c><c>   1</c></rc>
    <rc><c>Al</c><c>   1</c></rc>
    <rc><c>Al</c><c>   1</c></rc>
    <rc><c>Al</c><c>   1</c></rc>
    <rc><c>Al</c><c>   1</c></rc>
    <rc><c>Al</c><c>   1</c></rc>
    <rc><c>Al</c><c>   1</c></rc>
    <rc><c>Al</c><c>   1</c></rc>
    <rc><c>Al</c><c>   1</c></rc>
    <rc><c>Al</c><c>   1</c></rc>
   </set>
  </array>
  <array name="atomtypes" >
   <dimension dim="1">type</dimension>
   <field type="int">atomspertype</field>
   <field type="string">element</field>
   <field>mass</field>
   <field>valence</field>
   <field type="string">pseudopotential</field>
   <set>
    <rc><c>  27</c><c>Al</c><c>     26.98100000</c><c>      3.00000000</c><c>  PAW_PBE Al 04Jan2001                  </c></rc>
   </set>
  </array>
 </atominfo>
 <structure name="initialpos" >
  <crystal>
   <varray name="basis" >
    <v>       0.00000000       5.95350000       5.95350000 </v>
    <v>       5.95350000       0.00000000       5.95350000 </v>
    <v>       5.95350000       5.95350000       0.00000000 </v>
   </varray>
   <i name="volume">    422.03363991 </i>
   <varray name="rec_basis" >
    <v>      -0.08398421       0.08398421       0.08398421 </v>
    <v>       0.08398421      -0.08398421       0.08398421 </v>
    <v>       0.08398421       0.08398421      -0.08398421 </v>
   </varray>
  </crystal>
  <varray name="positions" >
   <v>       0.02849924       0.01746130       0.99054592 </v>
   <v>       0.00437956       0.01588737       0.29108880 </v>
   <v>       0.01487064       0.97828252       0.70028099 </v>
   <v>       0.97263879       0.31489533       0.03707397 </v>
   <v>       0.00262765       0.32076569       0.37239844 </v>
   <v>       0.02555806       0.34510384       0.62508149 </v>
   <v>       0.98563918       0.64450185       0.04249742 </v>
   <v>       0.97474245       0.69656925       0.35333019 </v>
   <v>       0.02179186       0.64815121       0.69432121 </v>
   <v>       0.34532333       0.03346119       0.98829460 </v>
   <v>       0.35000888       0.99371534       0.29521640 </v>
   <v>       0.29252157       0.01645603       0.69121796 </v>
   <v>       0.29216241       0.35964857       0.00288238 </v>
   <v>       0.33401473       0.29204860       0.35139934 </v>
   <v>       0.31401936       0.30847739       0.67182729 </v>
   <v>       0.37614941       0.65703680       0.98900118 </v>
   <v>       0.30401794       0.67123161       0.31970201 </v>
   <v>       0.31259046       0.63840255       0.68377980 </v>
   <v>       0.64219221       0.04160723       0.99701388 </v>
   <v>       0.70806556       0.98352840       0.33190007 </v>
   <v>       0.64789144       0.97068294       0.68147235 </v>
   <v>       0.68609646       0.34409303       0.01310290 </v>
   <v>       0.67043670       0.33808278       0.29395847 </v>
   <v>       0.67488630       0.34805348       0.62363855 </v>
   <v>       0.65803277       0.70307539       0.96670453 </v>
   <v>       0.70459953       0.67230850       0.31926273 </v>
   <v>       0.70739305       0.65169965       0.66653027 </v>
  </varray>
 </structure>
 <calculation>
  <scstep>
   <time name="dav">    7.25    7.25</time>
   <time name="total">    7.27    7.29</time>
   <energy>
    <i name="alphaZ">     -5.80184181 </i>
    <i name="ewald">  -1976.95050181 </i>
    <i name="hartreedc">    -20.80637220 </i>
    <i name="XCdc">   -705.25549103 </i>
    <i name="pawpsdc">   1787.40424240 </i>
    <i name="pawaedc">   -924.63176043 </i>
    <i name="eentropy">      0.00126996 </i>
    <i name="bandstr">    460.25867931 </i>
    <i name="atom">   1445.51584806 </i>
    <i name="e_fr_energy">     59.73407245 </i>
    <i name="e_wo_entrp">     59.73280248 </i>
    <i name="e_0_energy">     59.73364912 </i>
   </energy>
  </scstep>
  <scstep>
   <time name="dav">    8.64    8.64</time>
   <time name="total">    8.65    8.66</time>
   <energy>
    <i name="e_fr_energy">    -88.93138535 </i>
    <i name="e_wo_entrp">    -88.92507211 </i>
    <i name="e_0_energy">    -88.92928094 </i>
   </energy>
  </scstep>
  <scstep>
   <time name="dav">    9.17    9.17</time>
   <time name="total">    9.17    9.19</time>
   <energy>
    <i name="e_fr_energy">    -94.93744428 </i>
    <i name="e_wo_entrp">    -94.92935862 </i>
    <i name="e_0_energy">    -94.93474906 </i>
   </energy>
  </scstep>
  <scstep>
   <time name="dav">    8.50    8.50</time>
   <time name="total">    8.50    8.52</time>
   <energy>
    <i name="e_fr_energy">    -94.99555132 </i>
    <i name="e_wo_entrp">    -94.98728601 </i>
    <i name="e_0_energy">    -94.99279622 </i>
   </energy>
  </scstep>
  <scstep>
   <time name="dav">    8.92    8.92</time>
   <time name="total">    9.24    9.26</time>
   <energy>
    <i name="e_fr_energy">    -94.99624501 </i>
    <i name="e_wo_entrp">    -94.98797728 </i>
    <i name="e_0_energy">    -94.99348910 </i>
   </energy>
  </scstep>
  <scstep>
   <time name="diag">    1.15    1.16</time>
   <time name="diis">    3.54    3.54</time>
   <time name="orth">    0.19    0.19</time>
   <time name="total">    5.22    5.24</time>
   <energy>
    <i name="e_fr_energy">    -92.80885087 </i>
    <i name="e_wo_entrp">    -92.79831188 </i>
    <i name="e_0_energy">    -92.80533787 </i>
   </energy>
  </scstep>
  <scstep>
   <time name="diag">    1.16    1.16</time>
   <time name="diis">    4.05    4.05</time>
   <time name="orth">    0.19    0.19</time>
   <time name="total">    5.74    5.76</time>
   <energy>
    <i name="e_fr_energy">    -92.48669901 </i>
    <i name="e_wo_entrp">    -92.47559313 </i>
    <i name="e_0_energy">    -92.48299705 </i>
   </energy>
  </scstep>
  <scstep>
   <time name="diag">    1.16    1.16</time>
   <time name="diis">    4.29    4.29</time>
   <time name="orth">    0.19    0.19</time>
   <time name="total">    5.97    5.99</time>
   <energy>
    <i name="e_fr_energy">    -92.40680714 </i>
    <i name="e_wo_entrp">    -92.39534910 </i>
    <i name="e_0_energy">    -92.40298779 </i>
   </energy>
  </scstep>
  <scstep>
   <time name="diag">    1.15    1.15</time>
   <time name="diis">    4.32    4.32</time>
   <time name="orth">    0.19    0.19</time>
   <time name="total">    6.00    6.01</time>
   <energy>
    <i name="e_fr_energy">    -92.39904848 </i>
    <i name="e_wo_entrp">    -92.38776627 </i>
    <i name="e_0_energy">    -92.39528774 </i>
   </energy>
  </scstep>
  <scstep>
   <time name="diag">    1.15    1.15</time>
   <time name="diis">    4.24    4.24</time>
   <time name="orth">    0.19    0.19</time>
   <time name="total">    5.92    5.93</time>
   <energy>
    <i name="e_fr_energy">    -92.39834325 </i>
    <i name="e_wo_entrp">    -92.38713478 </i>
    <i name="e_0_energy">    -92.39460709 </i>
   </energy>
  </scstep>
  <scstep>
   <time name="diag">    1.16    1.16</time>
   <time name="diis">    3.31    3.31</time>
   <time name="orth">    0.19    0.19</time>
   <time name="total">    4.67    4.69</time>
   <energy>
    <i name="alphaZ">     -5.80184181 </i>
    <i name="ewald">  -1976.95050181 </i>
    <i name="hartreedc">    -29.40791981 </i>
    <i name="XCdc">   -701.42145276 </i>
    <i name="pawpsdc">   5192.02757775 </i>
    <i name="pawaedc">  -4330.48118245 </i>
    <i name="eentropy">     -0.01123182 </i>
    <i name="bandstr">    314.13243271 </i>
    <i name="atom">   1445.51584806 </i>
    <i name="e_fr_energy">    -92.39827194 </i>
    <i name="e_wo_entrp">    -92.38704012 </i>
    <i name="e_0_energy">    -92.39452800 </i>
   </energy>
  </scstep>
  <structure>
   <crystal>
    <varray name="basis" >
     <v>       0.00000000       5.95350000       5.95350000 </v>
     <v>       5.95350000       0.00000000       5.95350000 </v>
     <v>       5.95350000       5.95350000       0.00000000 </v>
    </varray>
    <i name="volume">    422.03363991 </i>
    <varray name="rec_basis" >
     <v>      -0.08398421       0.08398421       0.08398421 </v>
     <v>       0.08398421      -0.08398421       0.08398421 </v>
     <v>       0.08398421       0.08398421      -0.08398421 </v>
    </varray>
   </crystal>
   <varray name="positions" >
    <v>       0.02849924       0.01746130       0.99054592 </v>
    <v>       0.00437956       0.01588737       0.29108880 </v>
    <v>       0.01487064       0.97828252       0.70028099 </v>
    <v>       0.97263879       0.31489533       0.03707397 </v>
    <v>       0.00262765       0.32076569       0.37239844 </v>
    <v>       0.02555806       0.34510384       0.62508149 </v>
    <v>       0.98563918       0.64450185       0.04249742 </v>
    <v>       0.97474245       0.69656925       0.35333019 </v>
    <v>       0.02179186       0.64815121       0.69432121 </v>
    <v>       0.34532333       0.03346119       0.98829460 </v>
    <v>       0.35000888       0.99371534       0.29521640 </v>
    <v>       0.29252157       0.01645603       0.69121796 </v>
    <v>       0.29216241       0.35964857       0.00288238 </v>
    <v>       0.33401473       0.29204860       0.35139934 </v>
    <v>       0.31401936       0.30847739       0.67182729 </v>
    <v>       0.37614941       0.65703680       0.98900118 </v>
    <v>       0.30401794       0.67123161       0.31970201 </v>
    <v>       0.31259046       0.63840255       0.68377980 </v>
    <v>       0.64219221       0.04160723       0.99701388 </v>
    <v>       0.70806556       0.98352840       0.33190007 </v>
    <v>       0.64789144       0.97068294       0.68147235 </v>
    <v>       0.68609646       0.34409303       0.01310290 </v>
    <v>       0.67043670       0.33808278       0.29395847 </v>
    <v>       0.67488630       0.34805348       0.62363855 </v>
    <v>       0.65803277       0.70307539       0.96670453 </v>
    <v>       0.70459953       0.67230850       0.31926273 </v>
    <v>       0.70739305       0.65169965       0.66653027 </v>
   </varray>
  </structure>
  <varray name="forces" >
   <v>      -0.63274498      -0.85449781      -1.86696123 </v>
   <v>       1.59963247       3.27969799      -0.49969668 </v>
   <v>      -0.20032255      -1.43819578      -0.92313856 </v>
   <v>      -0.26829823      -0.38144806       4.02727810 </v>
   <v>      -2.38492510      -1.60966784      -0.00651974 </v>
   <v>       2.62034086       0.57665380      -1.27667134 </v>
   <v>      -0.54707871      -0.71420676       1.48105424 </v>
   <v>      -2.47320066       1.35282697       0.78937189 </v>
   <v>       0.07339247      -1.58735188      -1.07460568 </v>
   <v>      -0.86182506      -0.58182344      -1.17220774 </v>
   <v>       1.41145625       1.44717898      -1.17145962 </v>
   <v>      -2.88211963       1.36611712       0.55981038 </v>
   <v>      -0.39119183       1.26926319       0.26345660 </v>
   <v>      -0.92111289      -0.23262421       1.74741555 </v>
   <v>       0.69128786       0.52716354       2.14755542 </v>
   <v>       0.05471586      -1.48333297      -1.17291909 </v>
   <v>       0.07010584       1.31356828       0.66804413 </v>
   <v>      -0.22337532       0.79194278       2.57547178 </v>
   <v>      -0.81393462       0.69544893       1.35825631 </v>
   <v>       1.45669201      -2.61434082      -1.06075476 </v>
   <v>       0.39916906      -1.27884472       2.71844400 </v>
   <v>      -2.56019384      -2.94818808      -1.18464166 </v>
   <v>       3.85290960       1.81094125      -1.32861126 </v>
   <v>       0.78595189       0.32749068      -1.34123241 </v>
   <v>       0.92316901       3.04960680      -0.68771202 </v>
   <v>       1.30506822      -1.28096544      -2.04424994 </v>
   <v>      -0.08356798      -0.80241250      -1.52477667 </v>
  </varray>
  <varray name="stress" >
   <v>     135.23143206      10.14197709     -22.10753156 </v>
   <v>      10.14197714     140.87156094      10.69771043 </v>
   <v>     -22.10753196      10.69771029     131.98144197 </v>
  </varray>
  <energy>
   <i name="e_fr_energy">    -92.39827194 </i>
   <i name="e_wo_entrp">    -92.39452800 </i>
   <i name="e_0_energy">     -0.01123182 </i>
  </energy>
  <time name="totalsc">   84.43   84.65</time>
  <eigenvalues>
   <array>
    <dimension dim="1">band</dimension>
    <dimension dim="2">kpoint</dimension>
    <dimension dim="3">spin</dimension>
    <field>eigene</field>
    <field>occ</field>
    <set>
     <set comment="spin 1">
      <set comment="kpoint 1">
       <r>   -3.1346    1.0000 </r>
       <r>   -0.9595    1.0000 </r>
       <r>   -0.7101    1.0000 </r>
       <r>   -0.5390    1.0000 </r>
       <r>   -0.2516    1.0000 </r>
       <r>   -0.0967    1.0000 </r>
       <r>    0.2328    1.0000 </r>
       <r>    0.3325    1.0000 </r>
       <r>    0.6387    1.0000 </r>
       <r>    0.7459    1.0000 </r>
       <r>    1.0793    1.0000 </r>
       <r>    1.1932    1.0000 </r>
       <r>    1.5261    1.0000 </r>
       <r>    1.6653    1.0000 </r>
       <r>    2.1356    1.0000 </r>
       <r>    3.7773    1.0000 </r>
       <r>    3.9581    1.0000 </r>
       <r>    4.3293    1.0000 </r>
       <r>    4.5932    1.0000 </r>
       <r>    4.7761    1.0000 </r>
       <r>    4.9413    1.0000 </r>
       <r>    5.1249    1.0000 </r>
       <r>    5.2571    1.0000 </r>
       <r>    5.4007    1.0000 </r>
       <r>    5.7485    1.0000 </r>
       <r>    5.9487    1.0000 </r>
       <r>    6.2883    1.0000 </r>
       <r>    6.3929    1.0000 </r>
       <r>    6.5003    1.0000 </r>
       <r>    6.6299    1.0000 </r>
       <r>    6.7220    1.0000 </r>
       <r>    6.9935    1.0000 </r>
       <r>    7.0947    1.0000 </r>
       <r>    7.1911    1.0000 </r>
       <r>    7.3736    1.0000 </r>
       <r>    7.4318    1.0000 </r>
       <r>    7.5533    1.0000 </r>
       <r>    7.6770    1.0000 </r>
       <r>    7.8365    1.0000 </r>
       <r>    8.0121    1.0011 </r>
       <r>    8.2482    1.0340 </r>
       <r>    8.4327    0.8159 </r>
       <r>    8.5299    0.4346 </r>
       <r>    8.6738    0.0107 </r>
       <r>    8.8066   -0.0294 </r>
       <r>    8.8796   -0.0135 </r>
       <r>    9.0605   -0.0004 </r>
       <r>    9.0856   -0.0002 </r>
       <r>    9.1785   -0.0000 </r>
       <r>    9.3396   -0.0000 </r>
       <r>    9.3851   -0.0000 </r>
       <r>    9.4693   -0.0000 </r>
       <r>    9.5094   -0.0000 </r>
       <r>    9.6736   -0.0000 </r>
       <r>    9.7796   -0.0000 </r>
       <r>    9.9647   -0.0000 </r>
       <r>   10.1042   -0.0000 </r>
       <r>   10.2118   -0.0000 </r>
       <r>   10.8149   -0.0000 </r>
       <r>   11.9099   -0.0000 </r>
       <r>   11.9616   -0.0000 </r>
       <r>   12.2336   -0.0000 </r>
       <r>   13.1214   -0.0000 </r>
       <r>   13.5467   -0.0000 </r>
      </set>
      <set comment="kpoint 2">
       <r>   -3.1332    1.0000 </r>
       <r>   -1.0042    1.0000 </r>
       <r>   -0.7428    1.0000 </r>
       <r>   -0.3964    1.0000 </r>
       <r>   -0.3123    1.0000 </r>
       <r>   -0.0383    1.0000 </r>
       <r>    0.1088    1.0000 </r>
       <r>    0.4582    1.0000 </r>
       <r>    0.6250    1.0000 </r>
       <r>    0.8452    1.0000 </r>
       <r>    0.9649    1.0000 </r>
       <r>    1.0289    1.0000 </r>
       <r>    1.5930    1.0000 </r>
       <r>    1.7767    1.0000 </r>
       <r>    2.0893    1.0000 </r>
       <r>    3.7045    1.0000 </r>
       <r>    4.0471    1.0000 </r>
       <r>    4.2535    1.0000 </r>
       <r>    4.6090    1.0000 </r>
       <r>    4.8173    1.0000 </r>
       <r>    4.9331    1.0000 </r>
       <r>    5.0703    1.0000 </r>
       <r>    5.2983    1.0000 </r>
       <r>    5.4643    1.0000 </r>
       <r>    5.7266    1.0000 </r>
       <r>    6.0448    1.0000 </r>
       <r>    6.2577    1.0000 </r>
       <r>    6.3164    1.0000 </r>
       <r>    6.5577    1.0000 </r>
       <r>    6.6388    1.0000 </r>
       <r>    6.7254    1.0000 </r>
       <r>    6.8829    1.0000 </r>
       <r>    6.9881    1.0000 </r>
       <r>    7.2256    1.0000 </r>
       <r>    7.2894    1.0000 </r>
       <r>    7.4582    1.0000 </r>
       <r>    7.6694    1.0000 </r>
       <r>    7.7050    1.0000 </r>
       <r>    7.8348    1.0000 </r>
       <r>    8.0572    1.0029 </r>
       <r>    8.3334    1.0123 </r>
       <r>    8.4402    0.7913 </r>
       <r>    8.5625    0.3029 </r>
       <r>    8.6860   -0.0034 </r>
       <r>    8.7292   -0.0312 </r>
       <r>    8.8550   -0.0184 </r>
       <r>    8.9412   -0.0051 </r>
       <r>    9.1387   -0.0000 </r>
       <r>    9.1821   -0.0000 </r>
       <r>    9.2959   -0.0000 </r>
       <r>    9.3466   -0.0000 </r>
       <r>    9.3988   -0.0000 </r>
       <r>    9.6186   -0.0000 </r>
       <r>    9.6646   -0.0000 </r>
       <r>    9.8342   -0.0000 </r>
       <r>    9.9221   -0.0000 </r>
       <r>   10.1405   -0.0000 </r>
       <r>   10.2747   -0.0000 </r>
       <r>   10.7517   -0.0000 </r>
       <r>   11.9033   -0.0000 </r>
       <r>   12.0531   -0.0000 </r>
       <r>   12.1397   -0.0000 </r>
       <r>   13.2164   -0.0000 </r>
       <r>   13.4136   -0.0000 </r>
      </set>
      <set comment="kpoint 3">
       <r>   -3.1323    1.0000 </r>
       <r>   -1.0440    1.0000 </r>
       <r>   -0.6760    1.0000 </r>
       <r>   -0.5191    1.0000 </r>
       <r>   -0.2160    1.0000 </r>
       <r>   -0.0060    1.0000 </r>
       <r>    0.2172    1.0000 </r>
       <r>    0.3569    1.0000 </r>
       <r>    0.5570    1.0000 </r>
       <r>    0.7499    1.0000 </r>
       <r>    1.0093    1.0000 </r>
       <r>    1.1672    1.0000 </r>
       <r>    1.5417    1.0000 </r>
       <r>    1.7179    1.0000 </r>
       <r>    2.1418    1.0000 </r>
       <r>    3.7364    1.0000 </r>
       <r>    3.9051    1.0000 </r>
       <r>    4.2341    1.0000 </r>
       <r>    4.7344    1.0000 </r>
       <r>    4.8714    1.0000 </r>
       <r>    4.9912    1.0000 </r>
       <r>    5.1107    1.0000 </r>
       <r>    5.2012    1.0000 </r>
       <r>    5.4135    1.0000 </r>
       <r>    5.8285    1.0000 </r>
       <r>    5.9603    1.0000 </r>
       <r>    6.2138    1.0000 </r>
       <r>    6.3649    1.0000 </r>
       <r>    6.4558    1.0000 </r>
       <r>    6.6495    1.0000 </r>
       <r>    6.7570    1.0000 </r>
       <r>    7.0191    1.0000 </r>
       <r>    7.0739    1.0000 </r>
       <r>    7.2155    1.0000 </r>
       <r>    7.2542    1.0000 </r>
       <r>    7.3882    1.0000 </r>
       <r>    7.5559    1.0000 </r>
       <r>    7.6847    1.0000 </r>
       <r>    7.8667    1.0000 </r>
       <r>    7.9317    1.0002 </r>
       <r>    8.4397    0.7928 </r>
       <r>    8.4444    0.7771 </r>
       <r>    8.5733    0.2624 </r>
       <r>    8.6327    0.0839 </r>
       <r>    8.7734   -0.0348 </r>
       <r>    8.8379   -0.0223 </r>
       <r>    8.9760   -0.0026 </r>
       <r>    9.1051   -0.0001 </r>
       <r>    9.1487   -0.0000 </r>
       <r>    9.2333   -0.0000 </r>
       <r>    9.3703   -0.0000 </r>
       <r>    9.5496   -0.0000 </r>
       <r>    9.6815   -0.0000 </r>
       <r>    9.7572   -0.0000 </r>
       <r>    9.8707   -0.0000 </r>
       <r>    9.9093   -0.0000 </r>
       <r>   10.0127   -0.0000 </r>
       <r>   10.1703   -0.0000 </r>
       <r>   10.7881   -0.0000 </r>
       <r>   11.9284   -0.0000 </r>
       <r>   12.0388   -0.0000 </r>
       <r>   12.1568   -0.0000 </r>
       <r>   13.1174   -0.0000 </r>
       <r>   13.3299   -0.0000 </r>
      </set>
      <set comment="kpoint 4">
       <r>   -3.1318    1.0000 </r>
       <r>   -1.0014    1.0000 </r>
       <r>   -0.7846    1.0000 </r>
       <r>   -0.4004    1.0000 </r>
       <r>   -0.2996    1.0000 </r>
       <r>   -0.0118    1.0000 </r>
       <r>    0.1349    1.0000 </r>
       <r>    0.4180    1.0000 </r>
       <r>    0.6577    1.0000 </r>
       <r>    0.8721    1.0000 </r>
       <r>    0.9913    1.0000 </r>
       <r>    1.0873    1.0000 </r>
       <r>    1.3925    1.0000 </r>
       <r>    1.7912    1.0000 </r>
       <r>    2.1536    1.0000 </r>
       <r>    3.5643    1.0000 </r>
       <r>    4.1731    1.0000 </r>
       <r>    4.3111    1.0000 </r>
       <r>    4.6254    1.0000 </r>
       <r>    4.7880    1.0000 </r>
       <r>    4.8023    1.0000 </r>
       <r>    5.2134    1.0000 </r>
       <r>    5.4220    1.0000 </r>
       <r>    5.4631    1.0000 </r>
       <r>    5.5655    1.0000 </r>
       <r>    6.0663    1.0000 </r>
       <r>    6.1977    1.0000 </r>
       <r>    6.2895    1.0000 </r>
       <r>    6.5252    1.0000 </r>
       <r>    6.6121    1.0000 </r>
       <r>    6.7776    1.0000 </r>
       <r>    6.8834    1.0000 </r>
       <r>    6.9466    1.0000 </r>
       <r>    7.2538    1.0000 </r>
       <r>    7.3812    1.0000 </r>
       <r>    7.4897    1.0000 </r>
       <r>    7.6295    1.0000 </r>
       <r>    7.7448    1.0000 </r>
       <r>    7.8140    1.0000 </r>
       <r>    7.9966    1.0008 </r>
       <r>    8.4313    0.8202 </r>
       <r>    8.5128    0.5067 </r>
       <r>    8.5685    0.2802 </r>
       <r>    8.6523    0.0438 </r>
       <r>    8.7354   -0.0329 </r>
       <r>    8.8537   -0.0187 </r>
       <r>    8.9756   -0.0026 </r>
       <r>    9.0498   -0.0005 </r>
       <r>    9.1728   -0.0000 </r>
       <r>    9.2258   -0.0000 </r>
       <r>    9.3367   -0.0000 </r>
       <r>    9.4606   -0.0000 </r>
       <r>    9.5095   -0.0000 </r>
       <r>    9.6819   -0.0000 </r>
       <r>    9.8078   -0.0000 </r>
       <r>    9.9856   -0.0000 </r>
       <r>   10.1571   -0.0000 </r>
       <r>   10.2745   -0.0000 </r>
       <r>   10.7904   -0.0000 </r>
       <r>   11.8557   -0.0000 </r>
       <r>   12.0084   -0.0000 </r>
       <r>   12.2039   -0.0000 </r>
       <r>   13.0766   -0.0000 </r>
       <r>   13.5163   -0.0000 </r>
      </set>
      <set comment="kpoint 5">
       <r>   -2.9031    1.0000 </r>
       <r>   -1.6140    1.0000 </r>
       <r>   -1.1361    1.0000 </r>
       <r>   -0.5880    1.0000 </r>
       <r>   -0.3940    1.0000 </r>
       <r>    0.0045    1.0000 </r>
       <r>    0.2111    1.0000 </r>
       <r>    0.4605    1.0000 </r>
       <r>    0.5809    1.0000 </r>
       <r>    1.1064    1.0000 </r>
       <r>    1.5877    1.0000 </r>
       <r>    1.8278    1.0000 </r>
       <r>    2.2933    1.0000 </r>
       <r>    2.4599    1.0000 </r>
       <r>    2.7455    1.0000 </r>
       <r>    3.0021    1.0000 </r>
       <r>    3.2777    1.0000 </r>
       <r>    3.5326    1.0000 </r>
       <r>    4.1013    1.0000 </r>
       <r>    4.4830    1.0000 </r>
       <r>    4.7573    1.0000 </r>
       <r>    5.0056    1.0000 </r>
       <r>    5.1856    1.0000 </r>
       <r>    5.3219    1.0000 </r>
       <r>    5.4568    1.0000 </r>
       <r>    5.5175    1.0000 </r>
       <r>    5.7575    1.0000 </r>
       <r>    6.0698    1.0000 </r>
       <r>    6.3279    1.0000 </r>
       <r>    6.5031    1.0000 </r>
       <r>    6.5638    1.0000 </r>
       <r>    6.6798    1.0000 </r>
       <r>    6.7576    1.0000 </r>
       <r>    6.9880    1.0000 </r>
       <r>    7.1140    1.0000 </r>
       <r>    7.2371    1.0000 </r>
       <r>    7.4166    1.0000 </r>
       <r>    7.4866    1.0000 </r>
       <r>    7.7142    1.0000 </r>
       <r>    7.8953    1.0001 </r>
       <r>    8.4695    0.6848 </r>
       <r>    8.5993    0.1741 </r>
       <r>    8.8331   -0.0234 </r>
       <r>    8.9974   -0.0017 </r>
       <r>    9.2868   -0.0000 </r>
       <r>    9.4204   -0.0000 </r>
       <r>    9.5618   -0.0000 </r>
       <r>    9.6765   -0.0000 </r>
       <r>    9.8372   -0.0000 </r>
       <r>    9.9385   -0.0000 </r>
       <r>   10.2477   -0.0000 </r>
       <r>   10.3468   -0.0000 </r>
       <r>   10.4563   -0.0000 </r>
       <r>   10.5402   -0.0000 </r>
       <r>   10.7918   -0.0000 </r>
       <r>   11.0470   -0.0000 </r>
       <r>   11.2838   -0.0000 </r>
       <r>   11.3242   -0.0000 </r>
       <r>   11.5422   -0.0000 </r>
       <r>   11.7122   -0.0000 </r>
       <r>   11.7790   -0.0000 </r>
       <r>   11.9740   -0.0000 </r>
       <r>   12.1746   -0.0000 </r>
       <r>   12.3869   -0.0000 </r>
      </set>
      <set comment="kpoint 6">
       <r>   -2.8933    1.0000 </r>
       <r>   -1.6410    1.0000 </r>
       <r>   -1.1397    1.0000 </r>
       <r>   -0.7394    1.0000 </r>
       <r>   -0.1875    1.0000 </r>
       <r>    0.0052    1.0000 </r>
       <r>    0.1761    1.0000 </r>
       <r>    0.4843    1.0000 </r>
       <r>    0.6878    1.0000 </r>
       <r>    1.1019    1.0000 </r>
       <r>    1.6250    1.0000 </r>
       <r>    1.7279    1.0000 </r>
       <r>    2.2092    1.0000 </r>
       <r>    2.3397    1.0000 </r>
       <r>    2.6948    1.0000 </r>
       <r>    3.1232    1.0000 </r>
       <r>    3.2742    1.0000 </r>
       <r>    3.5559    1.0000 </r>
       <r>    4.1016    1.0000 </r>
       <r>    4.5226    1.0000 </r>
       <r>    4.7497    1.0000 </r>
       <r>    5.0547    1.0000 </r>
       <r>    5.1195    1.0000 </r>
       <r>    5.2952    1.0000 </r>
       <r>    5.5199    1.0000 </r>
       <r>    5.6043    1.0000 </r>
       <r>    5.7402    1.0000 </r>
       <r>    6.1463    1.0000 </r>
       <r>    6.2148    1.0000 </r>
       <r>    6.4824    1.0000 </r>
       <r>    6.5497    1.0000 </r>
       <r>    6.6621    1.0000 </r>
       <r>    6.7564    1.0000 </r>
       <r>    6.8637    1.0000 </r>
       <r>    7.1154    1.0000 </r>
       <r>    7.2647    1.0000 </r>
       <r>    7.3897    1.0000 </r>
       <r>    7.6297    1.0000 </r>
       <r>    7.8053    1.0000 </r>
       <r>    7.9017    1.0001 </r>
       <r>    8.4464    0.7702 </r>
       <r>    8.5599    0.3128 </r>
       <r>    8.8440   -0.0209 </r>
       <r>    9.0613   -0.0004 </r>
       <r>    9.2305   -0.0000 </r>
       <r>    9.4999   -0.0000 </r>
       <r>    9.5742   -0.0000 </r>
       <r>    9.6934   -0.0000 </r>
       <r>    9.8041   -0.0000 </r>
       <r>    9.9195   -0.0000 </r>
       <r>   10.2231   -0.0000 </r>
       <r>   10.2917   -0.0000 </r>
       <r>   10.4475   -0.0000 </r>
       <r>   10.5808   -0.0000 </r>
       <r>   10.7584   -0.0000 </r>
       <r>   11.0044   -0.0000 </r>
       <r>   11.1485   -0.0000 </r>
       <r>   11.3682   -0.0000 </r>
       <r>   11.5542   -0.0000 </r>
       <r>   11.7218   -0.0000 </r>
       <r>   11.8563   -0.0000 </r>
       <r>   12.0758   -0.0000 </r>
       <r>   12.1485   -0.0000 </r>
       <r>   12.3787   -0.0000 </r>
      </set>
      <set comment="kpoint 7">
       <r>   -2.8924    1.0000 </r>
       <r>   -1.7006    1.0000 </r>
       <r>   -1.0448    1.0000 </r>
       <r>   -0.6105    1.0000 </r>
       <r>   -0.3622    1.0000 </r>
       <r>   -0.0556    1.0000 </r>
       <r>    0.2415    1.0000 </r>
       <r>    0.5588    1.0000 </r>
       <r>    0.6252    1.0000 </r>
       <r>    1.0310    1.0000 </r>
       <r>    1.5101    1.0000 </r>
       <r>    1.8077    1.0000 </r>
       <r>    2.2597    1.0000 </r>
       <r>    2.4251    1.0000 </r>
       <r>    2.7833    1.0000 </r>
       <r>    3.0803    1.0000 </r>
       <r>    3.2137    1.0000 </r>
       <r>    3.4640    1.0000 </r>
       <r>    4.2716    1.0000 </r>
       <r>    4.4986    1.0000 </r>
       <r>    4.6827    1.0000 </r>
       <r>    4.9820    1.0000 </r>
       <r>    5.2137    1.0000 </r>
       <r>    5.3699    1.0000 </r>
       <r>    5.4913    1.0000 </r>
       <r>    5.5799    1.0000 </r>
       <r>    5.7102    1.0000 </r>
       <r>    6.1599    1.0000 </r>
       <r>    6.2796    1.0000 </r>
       <r>    6.4235    1.0000 </r>
       <r>    6.5075    1.0000 </r>
       <r>    6.6033    1.0000 </r>
       <r>    6.7712    1.0000 </r>
       <r>    6.9816    1.0000 </r>
       <r>    7.1332    1.0000 </r>
       <r>    7.2943    1.0000 </r>
       <r>    7.3816    1.0000 </r>
       <r>    7.5793    1.0000 </r>
       <r>    7.6826    1.0000 </r>
       <r>    7.9540    1.0003 </r>
       <r>    8.3928    0.9235 </r>
       <r>    8.5998    0.1726 </r>
       <r>    8.8006   -0.0306 </r>
       <r>    9.0414   -0.0006 </r>
       <r>    9.2949   -0.0000 </r>
       <r>    9.4542   -0.0000 </r>
       <r>    9.5218   -0.0000 </r>
       <r>    9.6871   -0.0000 </r>
       <r>    9.7901   -0.0000 </r>
       <r>    9.8436   -0.0000 </r>
       <r>   10.1581   -0.0000 </r>
       <r>   10.3572   -0.0000 </r>
       <r>   10.6004   -0.0000 </r>
       <r>   10.6613   -0.0000 </r>
       <r>   10.8128   -0.0000 </r>
       <r>   10.9023   -0.0000 </r>
       <r>   11.1112   -0.0000 </r>
       <r>   11.4153   -0.0000 </r>
       <r>   11.6330   -0.0000 </r>
       <r>   11.7057   -0.0000 </r>
       <r>   11.8282   -0.0000 </r>
       <r>   12.0168   -0.0000 </r>
       <r>   12.1836   -0.0000 </r>
       <r>   12.3188   -0.0000 </r>
      </set>
      <set comment="kpoint 8">
       <r>   -2.8913    1.0000 </r>
       <r>   -1.6727    1.0000 </r>
       <r>   -1.1766    1.0000 </r>
       <r>   -0.4976    1.0000 </r>
       <r>   -0.3087    1.0000 </r>
       <r>   -0.0057    1.0000 </r>
       <r>    0.1449    1.0000 </r>
       <r>    0.5253    1.0000 </r>
       <r>    0.7225    1.0000 </r>
       <r>    0.8990    1.0000 </r>
       <r>    1.5551    1.0000 </r>
       <r>    1.8957    1.0000 </r>
       <r>    2.1422    1.0000 </r>
       <r>    2.3644    1.0000 </r>
       <r>    2.8603    1.0000 </r>
       <r>    3.1117    1.0000 </r>
       <r>    3.2247    1.0000 </r>
       <r>    3.4685    1.0000 </r>
       <r>    4.2076    1.0000 </r>
       <r>    4.3953    1.0000 </r>
       <r>    4.8030    1.0000 </r>
       <r>    4.9412    1.0000 </r>
       <r>    5.2583    1.0000 </r>
       <r>    5.3946    1.0000 </r>
       <r>    5.5021    1.0000 </r>
       <r>    5.6550    1.0000 </r>
       <r>    5.7988    1.0000 </r>
       <r>    5.9791    1.0000 </r>
       <r>    6.3000    1.0000 </r>
       <r>    6.4328    1.0000 </r>
       <r>    6.5543    1.0000 </r>
       <r>    6.6458    1.0000 </r>
       <r>    6.7955    1.0000 </r>
       <r>    6.8900    1.0000 </r>
       <r>    7.1611    1.0000 </r>
       <r>    7.2661    1.0000 </r>
       <r>    7.3451    1.0000 </r>
       <r>    7.5555    1.0000 </r>
       <r>    7.6721    1.0000 </r>
       <r>    7.8162    1.0000 </r>
       <r>    8.4648    0.7029 </r>
       <r>    8.6276    0.0959 </r>
       <r>    8.8252   -0.0252 </r>
       <r>    9.0724   -0.0003 </r>
       <r>    9.2140   -0.0000 </r>
       <r>    9.3512   -0.0000 </r>
       <r>    9.5237   -0.0000 </r>
       <r>    9.6991   -0.0000 </r>
       <r>    9.9037   -0.0000 </r>
       <r>   10.0571   -0.0000 </r>
       <r>   10.2695   -0.0000 </r>
       <r>   10.3138   -0.0000 </r>
       <r>   10.3954   -0.0000 </r>
       <r>   10.5166   -0.0000 </r>
       <r>   10.9446   -0.0000 </r>
       <r>   11.0340   -0.0000 </r>
       <r>   11.1820   -0.0000 </r>
       <r>   11.4022   -0.0000 </r>
       <r>   11.4882   -0.0000 </r>
       <r>   11.6989   -0.0000 </r>
       <r>   11.7937   -0.0000 </r>
       <r>   11.9499   -0.0000 </r>
       <r>   12.1549   -0.0000 </r>
       <r>   12.2228   -0.0000 </r>
      </set>
      <set comment="kpoint 9">
       <r>   -2.9098    1.0000 </r>
       <r>   -1.5630    1.0000 </r>
       <r>   -1.1618    1.0000 </r>
       <r>   -0.5994    1.0000 </r>
       <r>   -0.3893    1.0000 </r>
       <r>   -0.0855    1.0000 </r>
       <r>    0.2514    1.0000 </r>
       <r>    0.4260    1.0000 </r>
       <r>    0.6723    1.0000 </r>
       <r>    1.0101    1.0000 </r>
       <r>    1.7758    1.0000 </r>
       <r>    1.7972    1.0000 </r>
       <r>    2.2046    1.0000 </r>
       <r>    2.4798    1.0000 </r>
       <r>    2.7163    1.0000 </r>
       <r>    3.0430    1.0000 </r>
       <r>    3.2249    1.0000 </r>
       <r>    3.6545    1.0000 </r>
       <r>    4.0539    1.0000 </r>
       <r>    4.3921    1.0000 </r>
       <r>    4.8902    1.0000 </r>
       <r>    4.9944    1.0000 </r>
       <r>    5.1118    1.0000 </r>
       <r>    5.2119    1.0000 </r>
       <r>    5.3931    1.0000 </r>
       <r>    5.6320    1.0000 </r>
       <r>    5.8766    1.0000 </r>
       <r>    6.0474    1.0000 </r>
       <r>    6.2862    1.0000 </r>
       <r>    6.4344    1.0000 </r>
       <r>    6.5613    1.0000 </r>
       <r>    6.7408    1.0000 </r>
       <r>    6.7861    1.0000 </r>
       <r>    6.9980    1.0000 </r>
       <r>    7.1198    1.0000 </r>
       <r>    7.2211    1.0000 </r>
       <r>    7.4011    1.0000 </r>
       <r>    7.4315    1.0000 </r>
       <r>    7.6732    1.0000 </r>
       <r>    8.0392    1.0020 </r>
       <r>    8.4003    0.9063 </r>
       <r>    8.5952    0.1869 </r>
       <r>    8.8143   -0.0277 </r>
       <r>    8.9731   -0.0028 </r>
       <r>    9.2813   -0.0000 </r>
       <r>    9.4677   -0.0000 </r>
       <r>    9.5729   -0.0000 </r>
       <r>    9.7424   -0.0000 </r>
       <r>    9.8257   -0.0000 </r>
       <r>    9.8840   -0.0000 </r>
       <r>   10.2754   -0.0000 </r>
       <r>   10.3627   -0.0000 </r>
       <r>   10.4592   -0.0000 </r>
       <r>   10.5255   -0.0000 </r>
       <r>   10.7495   -0.0000 </r>
       <r>   11.0831   -0.0000 </r>
       <r>   11.2314   -0.0000 </r>
       <r>   11.4109   -0.0000 </r>
       <r>   11.5257   -0.0000 </r>
       <r>   11.6409   -0.0000 </r>
       <r>   11.8122   -0.0000 </r>
       <r>   11.9758   -0.0000 </r>
       <r>   12.1844   -0.0000 </r>
       <r>   12.3499   -0.0000 </r>
      </set>
      <set comment="kpoint 10">
       <r>   -2.8853    1.0000 </r>
       <r>   -1.6839    1.0000 </r>
       <r>   -1.1896    1.0000 </r>
       <r>   -0.5413    1.0000 </r>
       <r>   -0.2094    1.0000 </r>
       <r>    0.0255    1.0000 </r>
       <r>    0.1136    1.0000 </r>
       <r>    0.2659    1.0000 </r>
       <r>    0.9491    1.0000 </r>
       <r>    1.0569    1.0000 </r>
       <r>    1.5642    1.0000 </r>
       <r>    1.8398    1.0000 </r>
       <r>    2.0528    1.0000 </r>
       <r>    2.2580    1.0000 </r>
       <r>    2.9474    1.0000 </r>
       <r>    3.0689    1.0000 </r>
       <r>    3.2082    1.0000 </r>
       <r>    3.5943    1.0000 </r>
       <r>    4.1021    1.0000 </r>
       <r>    4.4867    1.0000 </r>
       <r>    4.7867    1.0000 </r>
       <r>    4.9355    1.0000 </r>
       <r>    5.1058    1.0000 </r>
       <r>    5.2695    1.0000 </r>
       <r>    5.4254    1.0000 </r>
       <r>    5.7003    1.0000 </r>
       <r>    5.8169    1.0000 </r>
       <r>    6.1347    1.0000 </r>
       <r>    6.2580    1.0000 </r>
       <r>    6.4311    1.0000 </r>
       <r>    6.5905    1.0000 </r>
       <r>    6.6641    1.0000 </r>
       <r>    6.7921    1.0000 </r>
       <r>    6.8973    1.0000 </r>
       <r>    7.1868    1.0000 </r>
       <r>    7.2512    1.0000 </r>
       <r>    7.4414    1.0000 </r>
       <r>    7.5775    1.0000 </r>
       <r>    7.7486    1.0000 </r>
       <r>    7.9937    1.0007 </r>
       <r>    8.3413    1.0049 </r>
       <r>    8.6499    0.0482 </r>
       <r>    8.7855   -0.0333 </r>
       <r>    9.0264   -0.0009 </r>
       <r>    9.2111   -0.0000 </r>
       <r>    9.4542   -0.0000 </r>
       <r>    9.5713   -0.0000 </r>
       <r>    9.6854   -0.0000 </r>
       <r>    9.8491   -0.0000 </r>
       <r>    9.9521   -0.0000 </r>
       <r>   10.1906   -0.0000 </r>
       <r>   10.3259   -0.0000 </r>
       <r>   10.4610   -0.0000 </r>
       <r>   10.5778   -0.0000 </r>
       <r>   10.8145   -0.0000 </r>
       <r>   10.9920   -0.0000 </r>
       <r>   11.0528   -0.0000 </r>
       <r>   11.2004   -0.0000 </r>
       <r>   11.5104   -0.0000 </r>
       <r>   11.7848   -0.0000 </r>
       <r>   11.8674   -0.0000 </r>
       <r>   12.0416   -0.0000 </r>
       <r>   12.1248   -0.0000 </r>
       <r>   12.3108   -0.0000 </r>
      </set>
      <set comment="kpoint 11">
       <r>   -2.8852    1.0000 </r>
       <r>   -1.6634    1.0000 </r>
       <r>   -1.2449    1.0000 </r>
       <r>   -0.5048    1.0000 </r>
       <r>   -0.1799    1.0000 </r>
       <r>   -0.0681    1.0000 </r>
       <r>    0.1015    1.0000 </r>
       <r>    0.5297    1.0000 </r>
       <r>    0.7462    1.0000 </r>
       <r>    1.0439    1.0000 </r>
       <r>    1.4953    1.0000 </r>
       <r>    1.9041    1.0000 </r>
       <r>    2.1204    1.0000 </r>
       <r>    2.2558    1.0000 </r>
       <r>    2.7520    1.0000 </r>
       <r>    3.1600    1.0000 </r>
       <r>    3.3448    1.0000 </r>
       <r>    3.5656    1.0000 </r>
       <r>    4.0328    1.0000 </r>
       <r>    4.3839    1.0000 </r>
       <r>    4.7490    1.0000 </r>
       <r>    5.0540    1.0000 </r>
       <r>    5.1866    1.0000 </r>
       <r>    5.3494    1.0000 </r>
       <r>    5.4742    1.0000 </r>
       <r>    5.6771    1.0000 </r>
       <r>    5.8207    1.0000 </r>
       <r>    6.0376    1.0000 </r>
       <r>    6.2439    1.0000 </r>
       <r>    6.4987    1.0000 </r>
       <r>    6.6431    1.0000 </r>
       <r>    6.7079    1.0000 </r>
       <r>    6.7725    1.0000 </r>
       <r>    6.9910    1.0000 </r>
       <r>    7.0809    1.0000 </r>
       <r>    7.2225    1.0000 </r>
       <r>    7.3209    1.0000 </r>
       <r>    7.4972    1.0000 </r>
       <r>    7.6902    1.0000 </r>
       <r>    7.8238    1.0000 </r>
       <r>    8.4985    0.5671 </r>
       <r>    8.7798   -0.0341 </r>
       <r>    8.8447   -0.0207 </r>
       <r>    9.0172   -0.0011 </r>
       <r>    9.2074   -0.0000 </r>
       <r>    9.3814   -0.0000 </r>
       <r>    9.5100   -0.0000 </r>
       <r>    9.6270   -0.0000 </r>
       <r>    9.9258   -0.0000 </r>
       <r>    9.9985   -0.0000 </r>
       <r>   10.2110   -0.0000 </r>
       <r>   10.2609   -0.0000 </r>
       <r>   10.4520   -0.0000 </r>
       <r>   10.5848   -0.0000 </r>
       <r>   10.8882   -0.0000 </r>
       <r>   11.0340   -0.0000 </r>
       <r>   11.1782   -0.0000 </r>
       <r>   11.3308   -0.0000 </r>
       <r>   11.5401   -0.0000 </r>
       <r>   11.6441   -0.0000 </r>
       <r>   11.8960   -0.0000 </r>
       <r>   11.9135   -0.0000 </r>
       <r>   12.0771   -0.0000 </r>
       <r>   12.3074   -0.0000 </r>
      </set>
      <set comment="kpoint 12">
       <r>   -2.8959    1.0000 </r>
       <r>   -1.6364    1.0000 </r>
       <r>   -1.2087    1.0000 </r>
       <r>   -0.4276    1.0000 </r>
       <r>   -0.3429    1.0000 </r>
       <r>   -0.0944    1.0000 </r>
       <r>    0.1626    1.0000 </r>
       <r>    0.4918    1.0000 </r>
       <r>    0.7340    1.0000 </r>
       <r>    0.9216    1.0000 </r>
       <r>    1.7150    1.0000 </r>
       <r>    1.7586    1.0000 </r>
       <r>    2.1733    1.0000 </r>
       <r>    2.3632    1.0000 </r>
       <r>    2.8333    1.0000 </r>
       <r>    3.0985    1.0000 </r>
       <r>    3.3582    1.0000 </r>
       <r>    3.5008    1.0000 </r>
       <r>    4.0384    1.0000 </r>
       <r>    4.3234    1.0000 </r>
       <r>    4.8863    1.0000 </r>
       <r>    5.0594    1.0000 </r>
       <r>    5.1077    1.0000 </r>
       <r>    5.2920    1.0000 </r>
       <r>    5.5984    1.0000 </r>
       <r>    5.7168    1.0000 </r>
       <r>    5.8190    1.0000 </r>
       <r>    5.9446    1.0000 </r>
       <r>    6.1493    1.0000 </r>
       <r>    6.4022    1.0000 </r>
       <r>    6.6132    1.0000 </r>
       <r>    6.6923    1.0000 </r>
       <r>    6.8535    1.0000 </r>
       <r>    6.9761    1.0000 </r>
       <r>    7.0997    1.0000 </r>
       <r>    7.2895    1.0000 </r>
       <r>    7.3759    1.0000 </r>
       <r>    7.5003    1.0000 </r>
       <r>    7.5881    1.0000 </r>
       <r>    7.9584    1.0003 </r>
       <r>    8.4358    0.8058 </r>
       <r>    8.6719    0.0132 </r>
       <r>    8.8382   -0.0222 </r>
       <r>    8.9628   -0.0034 </r>
       <r>    9.2100   -0.0000 </r>
       <r>    9.3909   -0.0000 </r>
       <r>    9.6665   -0.0000 </r>
       <r>    9.7171   -0.0000 </r>
       <r>    9.8502   -0.0000 </r>
       <r>    9.9311   -0.0000 </r>
       <r>   10.2388   -0.0000 </r>
       <r>   10.3348   -0.0000 </r>
       <r>   10.4120   -0.0000 </r>
       <r>   10.5403   -0.0000 </r>
       <r>   10.8698   -0.0000 </r>
       <r>   11.0281   -0.0000 </r>
       <r>   11.1076   -0.0000 </r>
       <r>   11.2944   -0.0000 </r>
       <r>   11.5589   -0.0000 </r>
       <r>   11.7889   -0.0000 </r>
       <r>   11.8445   -0.0000 </r>
       <r>   11.9614   -0.0000 </r>
       <r>   12.1203   -0.0000 </r>
       <r>   12.3135   -0.0000 </r>
      </set>
      <set comment="kpoint 13">
       <r>   -2.9039    1.0000 </r>
       <r>   -1.6272    1.0000 </r>
       <r>   -1.1010    1.0000 </r>
       <r>   -0.5368    1.0000 </r>
       <r>   -0.3490    1.0000 </r>
       <r>   -0.2495    1.0000 </r>
       <r>    0.2106    1.0000 </r>
       <r>    0.5840    1.0000 </r>
       <r>    0.7361    1.0000 </r>
       <r>    0.9597    1.0000 </r>
       <r>    1.5821    1.0000 </r>
       <r>    1.8728    1.0000 </r>
       <r>    2.2253    1.0000 </r>
       <r>    2.4113    1.0000 </r>
       <r>    2.7484    1.0000 </r>
       <r>    3.0382    1.0000 </r>
       <r>    3.3653    1.0000 </r>
       <r>    3.6114    1.0000 </r>
       <r>    4.0645    1.0000 </r>
       <r>    4.3768    1.0000 </r>
       <r>    4.7296    1.0000 </r>
       <r>    4.9717    1.0000 </r>
       <r>    5.1166    1.0000 </r>
       <r>    5.2790    1.0000 </r>
       <r>    5.4976    1.0000 </r>
       <r>    5.7584    1.0000 </r>
       <r>    5.7903    1.0000 </r>
       <r>    6.0959    1.0000 </r>
       <r>    6.1902    1.0000 </r>
       <r>    6.3886    1.0000 </r>
       <r>    6.5420    1.0000 </r>
       <r>    6.6603    1.0000 </r>
       <r>    6.8188    1.0000 </r>
       <r>    7.0577    1.0000 </r>
       <r>    7.1685    1.0000 </r>
       <r>    7.2607    1.0000 </r>
       <r>    7.3176    1.0000 </r>
       <r>    7.5724    1.0000 </r>
       <r>    7.6378    1.0000 </r>
       <r>    8.0796    1.0044 </r>
       <r>    8.3859    0.9381 </r>
       <r>    8.6534    0.0419 </r>
       <r>    8.7971   -0.0313 </r>
       <r>    8.8999   -0.0100 </r>
       <r>    9.2537   -0.0000 </r>
       <r>    9.4146   -0.0000 </r>
       <r>    9.5688   -0.0000 </r>
       <r>    9.7060   -0.0000 </r>
       <r>    9.7549   -0.0000 </r>
       <r>    9.9378   -0.0000 </r>
       <r>   10.2258   -0.0000 </r>
       <r>   10.3538   -0.0000 </r>
       <r>   10.4792   -0.0000 </r>
       <r>   10.5328   -0.0000 </r>
       <r>   10.8722   -0.0000 </r>
       <r>   11.0163   -0.0000 </r>
       <r>   11.1343   -0.0000 </r>
       <r>   11.4052   -0.0000 </r>
       <r>   11.5999   -0.0000 </r>
       <r>   11.7536   -0.0000 </r>
       <r>   11.8212   -0.0000 </r>
       <r>   12.0201   -0.0000 </r>
       <r>   12.0687   -0.0000 </r>
       <r>   12.4004   -0.0000 </r>
      </set>
      <set comment="kpoint 14">
       <r>   -2.9059    1.0000 </r>
       <r>   -1.5851    1.0000 </r>
       <r>   -1.1205    1.0000 </r>
       <r>   -0.7210    1.0000 </r>
       <r>   -0.2906    1.0000 </r>
       <r>   -0.1236    1.0000 </r>
       <r>    0.2982    1.0000 </r>
       <r>    0.4362    1.0000 </r>
       <r>    0.7206    1.0000 </r>
       <r>    1.0605    1.0000 </r>
       <r>    1.6063    1.0000 </r>
       <r>    1.8535    1.0000 </r>
       <r>    2.1828    1.0000 </r>
       <r>    2.4390    1.0000 </r>
       <r>    2.6139    1.0000 </r>
       <r>    3.1353    1.0000 </r>
       <r>    3.2870    1.0000 </r>
       <r>    3.7082    1.0000 </r>
       <r>    3.9829    1.0000 </r>
       <r>    4.4657    1.0000 </r>
       <r>    4.7469    1.0000 </r>
       <r>    4.9985    1.0000 </r>
       <r>    5.1642    1.0000 </r>
       <r>    5.2465    1.0000 </r>
       <r>    5.4893    1.0000 </r>
       <r>    5.7176    1.0000 </r>
       <r>    5.8011    1.0000 </r>
       <r>    5.9607    1.0000 </r>
       <r>    6.1050    1.0000 </r>
       <r>    6.5096    1.0000 </r>
       <r>    6.6539    1.0000 </r>
       <r>    6.7205    1.0000 </r>
       <r>    6.7891    1.0000 </r>
       <r>    6.9772    1.0000 </r>
       <r>    7.0501    1.0000 </r>
       <r>    7.2245    1.0000 </r>
       <r>    7.3831    1.0000 </r>
       <r>    7.5983    1.0000 </r>
       <r>    7.7776    1.0000 </r>
       <r>    7.8880    1.0000 </r>
       <r>    8.5085    0.5247 </r>
       <r>    8.5925    0.1956 </r>
       <r>    8.7755   -0.0346 </r>
       <r>    8.9325   -0.0059 </r>
       <r>    9.2309   -0.0000 </r>
       <r>    9.5248   -0.0000 </r>
       <r>    9.6397   -0.0000 </r>
       <r>    9.7055   -0.0000 </r>
       <r>    9.8118   -0.0000 </r>
       <r>    9.9737   -0.0000 </r>
       <r>   10.1135   -0.0000 </r>
       <r>   10.2583   -0.0000 </r>
       <r>   10.4220   -0.0000 </r>
       <r>   10.5703   -0.0000 </r>
       <r>   10.8667   -0.0000 </r>
       <r>   11.0698   -0.0000 </r>
       <r>   11.3049   -0.0000 </r>
       <r>   11.3935   -0.0000 </r>
       <r>   11.5102   -0.0000 </r>
       <r>   11.6165   -0.0000 </r>
       <r>   11.8482   -0.0000 </r>
       <r>   11.9617   -0.0000 </r>
       <r>   12.1891   -0.0000 </r>
       <r>   12.3657   -0.0000 </r>
      </set>
      <set comment="kpoint 15">
       <r>   -2.8864    1.0000 </r>
       <r>   -1.6941    1.0000 </r>
       <r>   -1.1650    1.0000 </r>
       <r>   -0.5101    1.0000 </r>
       <r>   -0.3645    1.0000 </r>
       <r>    0.0805    1.0000 </r>
       <r>    0.2499    1.0000 </r>
       <r>    0.4269    1.0000 </r>
       <r>    0.6413    1.0000 </r>
       <r>    1.0078    1.0000 </r>
       <r>    1.5351    1.0000 </r>
       <r>    1.9727    1.0000 </r>
       <r>    2.0689    1.0000 </r>
       <r>    2.3642    1.0000 </r>
       <r>    2.7020    1.0000 </r>
       <r>    3.1506    1.0000 </r>
       <r>    3.2567    1.0000 </r>
       <r>    3.5325    1.0000 </r>
       <r>    4.1103    1.0000 </r>
       <r>    4.4074    1.0000 </r>
       <r>    4.8675    1.0000 </r>
       <r>    5.1434    1.0000 </r>
       <r>    5.1945    1.0000 </r>
       <r>    5.3428    1.0000 </r>
       <r>    5.3765    1.0000 </r>
       <r>    5.6721    1.0000 </r>
       <r>    5.8737    1.0000 </r>
       <r>    6.0048    1.0000 </r>
       <r>    6.1452    1.0000 </r>
       <r>    6.3798    1.0000 </r>
       <r>    6.5522    1.0000 </r>
       <r>    6.7174    1.0000 </r>
       <r>    6.8484    1.0000 </r>
       <r>    7.0397    1.0000 </r>
       <r>    7.1056    1.0000 </r>
       <r>    7.2649    1.0000 </r>
       <r>    7.3632    1.0000 </r>
       <r>    7.4632    1.0000 </r>
       <r>    7.6271    1.0000 </r>
       <r>    7.9156    1.0001 </r>
       <r>    8.4150    0.8683 </r>
       <r>    8.5825    0.2294 </r>
       <r>    8.8498   -0.0195 </r>
       <r>    9.0744   -0.0003 </r>
       <r>    9.1900   -0.0000 </r>
       <r>    9.4247   -0.0000 </r>
       <r>    9.6083   -0.0000 </r>
       <r>    9.7660   -0.0000 </r>
       <r>    9.8864   -0.0000 </r>
       <r>    9.9283   -0.0000 </r>
       <r>   10.1634   -0.0000 </r>
       <r>   10.3533   -0.0000 </r>
       <r>   10.4748   -0.0000 </r>
       <r>   10.5338   -0.0000 </r>
       <r>   10.8908   -0.0000 </r>
       <r>   11.0095   -0.0000 </r>
       <r>   11.2331   -0.0000 </r>
       <r>   11.3424   -0.0000 </r>
       <r>   11.5114   -0.0000 </r>
       <r>   11.6803   -0.0000 </r>
       <r>   11.7602   -0.0000 </r>
       <r>   11.9370   -0.0000 </r>
       <r>   12.0985   -0.0000 </r>
       <r>   12.2244   -0.0000 </r>
      </set>
      <set comment="kpoint 16">
       <r>   -2.8912    1.0000 </r>
       <r>   -1.6767    1.0000 </r>
       <r>   -1.1479    1.0000 </r>
       <r>   -0.5083    1.0000 </r>
       <r>   -0.2711    1.0000 </r>
       <r>   -0.0574    1.0000 </r>
       <r>    0.0442    1.0000 </r>
       <r>    0.4167    1.0000 </r>
       <r>    0.8715    1.0000 </r>
       <r>    1.1007    1.0000 </r>
       <r>    1.4479    1.0000 </r>
       <r>    1.9217    1.0000 </r>
       <r>    2.1200    1.0000 </r>
       <r>    2.3149    1.0000 </r>
       <r>    2.8940    1.0000 </r>
       <r>    3.0378    1.0000 </r>
       <r>    3.2745    1.0000 </r>
       <r>    3.6035    1.0000 </r>
       <r>    4.0554    1.0000 </r>
       <r>    4.5198    1.0000 </r>
       <r>    4.7747    1.0000 </r>
       <r>    4.8723    1.0000 </r>
       <r>    5.1583    1.0000 </r>
       <r>    5.3048    1.0000 </r>
       <r>    5.4542    1.0000 </r>
       <r>    5.6896    1.0000 </r>
       <r>    5.8272    1.0000 </r>
       <r>    5.9674    1.0000 </r>
       <r>    6.1479    1.0000 </r>
       <r>    6.4611    1.0000 </r>
       <r>    6.5262    1.0000 </r>
       <r>    6.7711    1.0000 </r>
       <r>    6.8609    1.0000 </r>
       <r>    7.0714    1.0000 </r>
       <r>    7.1175    1.0000 </r>
       <r>    7.2790    1.0000 </r>
       <r>    7.4085    1.0000 </r>
       <r>    7.6070    1.0000 </r>
       <r>    7.6991    1.0000 </r>
       <r>    7.9297    1.0001 </r>
       <r>    8.4258    0.8373 </r>
       <r>    8.6392    0.0694 </r>
       <r>    8.7460   -0.0347 </r>
       <r>    8.9983   -0.0016 </r>
       <r>    9.1356   -0.0001 </r>
       <r>    9.3712   -0.0000 </r>
       <r>    9.6129   -0.0000 </r>
       <r>    9.7848   -0.0000 </r>
       <r>    9.8545   -0.0000 </r>
       <r>    9.9679   -0.0000 </r>
       <r>   10.1573   -0.0000 </r>
       <r>   10.3432   -0.0000 </r>
       <r>   10.4278   -0.0000 </r>
       <r>   10.5440   -0.0000 </r>
       <r>   10.8192   -0.0000 </r>
       <r>   11.0661   -0.0000 </r>
       <r>   11.1185   -0.0000 </r>
       <r>   11.2938   -0.0000 </r>
       <r>   11.4512   -0.0000 </r>
       <r>   11.7146   -0.0000 </r>
       <r>   11.8410   -0.0000 </r>
       <r>   12.0459   -0.0000 </r>
       <r>   12.1802   -0.0000 </r>
       <r>   12.2375   -0.0000 </r>
      </set>
      <set comment="kpoint 17">
       <r>   -2.6001    1.0000 </r>
       <r>   -2.1572    1.0000 </r>
       <r>   -1.1120    1.0000 </r>
       <r>   -0.7428    1.0000 </r>
       <r>   -0.5933    1.0000 </r>
       <r>    0.0150    1.0000 </r>
       <r>    0.2438    1.0000 </r>
       <r>    0.5225    1.0000 </r>
       <r>    1.0207    1.0000 </r>
       <r>    1.4981    1.0000 </r>
       <r>    1.7027    1.0000 </r>
       <r>    1.9548    1.0000 </r>
       <r>    2.1544    1.0000 </r>
       <r>    2.8191    1.0000 </r>
       <r>    3.0464    1.0000 </r>
       <r>    3.3352    1.0000 </r>
       <r>    3.4290    1.0000 </r>
       <r>    3.5573    1.0000 </r>
       <r>    4.1146    1.0000 </r>
       <r>    4.2801    1.0000 </r>
       <r>    4.3564    1.0000 </r>
       <r>    4.4410    1.0000 </r>
       <r>    4.5491    1.0000 </r>
       <r>    4.8655    1.0000 </r>
       <r>    4.9825    1.0000 </r>
       <r>    5.2282    1.0000 </r>
       <r>    5.5400    1.0000 </r>
       <r>    5.7165    1.0000 </r>
       <r>    5.9634    1.0000 </r>
       <r>    6.1076    1.0000 </r>
       <r>    6.4329    1.0000 </r>
       <r>    6.6232    1.0000 </r>
       <r>    6.8658    1.0000 </r>
       <r>    6.9097    1.0000 </r>
       <r>    7.1638    1.0000 </r>
       <r>    7.2719    1.0000 </r>
       <r>    7.4146    1.0000 </r>
       <r>    8.2307    1.0311 </r>
       <r>    8.3946    0.9194 </r>
       <r>    8.4779    0.6517 </r>
       <r>    8.7334   -0.0324 </r>
       <r>    8.9595   -0.0036 </r>
       <r>    9.1214   -0.0001 </r>
       <r>    9.2333   -0.0000 </r>
       <r>    9.3874   -0.0000 </r>
       <r>    9.6083   -0.0000 </r>
       <r>    9.7555   -0.0000 </r>
       <r>    9.8841   -0.0000 </r>
       <r>   10.1092   -0.0000 </r>
       <r>   10.3149   -0.0000 </r>
       <r>   10.5455   -0.0000 </r>
       <r>   10.6625   -0.0000 </r>
       <r>   10.7709   -0.0000 </r>
       <r>   10.8328   -0.0000 </r>
       <r>   11.0468   -0.0000 </r>
       <r>   11.1191   -0.0000 </r>
       <r>   11.2423   -0.0000 </r>
       <r>   11.4372   -0.0000 </r>
       <r>   11.5257   -0.0000 </r>
       <r>   11.5848   -0.0000 </r>
       <r>   11.7358   -0.0000 </r>
       <r>   12.0171   -0.0000 </r>
       <r>   12.1445   -0.0000 </r>
       <r>   12.3264   -0.0000 </r>
      </set>
      <set comment="kpoint 18">
       <r>   -2.5454    1.0000 </r>
       <r>   -2.2262    1.0000 </r>
       <r>   -1.1752    1.0000 </r>
       <r>   -0.8533    1.0000 </r>
       <r>   -0.3853    1.0000 </r>
       <r>    0.0447    1.0000 </r>
       <r>    0.2473    1.0000 </r>
       <r>    0.6530    1.0000 </r>
       <r>    0.9004    1.0000 </r>
       <r>    1.4666    1.0000 </r>
       <r>    1.7036    1.0000 </r>
       <r>    1.9202    1.0000 </r>
       <r>    2.2051    1.0000 </r>
       <r>    2.7962    1.0000 </r>
       <r>    3.0075    1.0000 </r>
       <r>    3.2825    1.0000 </r>
       <r>    3.3163    1.0000 </r>
       <r>    3.6416    1.0000 </r>
       <r>    4.0938    1.0000 </r>
       <r>    4.1653    1.0000 </r>
       <r>    4.3023    1.0000 </r>
       <r>    4.5000    1.0000 </r>
       <r>    4.6601    1.0000 </r>
       <r>    4.8784    1.0000 </r>
       <r>    5.0088    1.0000 </r>
       <r>    5.2169    1.0000 </r>
       <r>    5.7271    1.0000 </r>
       <r>    5.7896    1.0000 </r>
       <r>    5.8923    1.0000 </r>
       <r>    6.0732    1.0000 </r>
       <r>    6.4105    1.0000 </r>
       <r>    6.5484    1.0000 </r>
       <r>    6.8484    1.0000 </r>
       <r>    6.9494    1.0000 </r>
       <r>    7.2755    1.0000 </r>
       <r>    7.3150    1.0000 </r>
       <r>    7.4570    1.0000 </r>
       <r>    8.1471    1.0131 </r>
       <r>    8.2913    1.0333 </r>
       <r>    8.4980    0.5691 </r>
       <r>    8.6628    0.0263 </r>
       <r>    8.8904   -0.0115 </r>
       <r>    9.0763   -0.0003 </r>
       <r>    9.2773   -0.0000 </r>
       <r>    9.4016   -0.0000 </r>
       <r>    9.6124   -0.0000 </r>
       <r>    9.8825   -0.0000 </r>
       <r>    9.9659   -0.0000 </r>
       <r>   10.1982   -0.0000 </r>
       <r>   10.2252   -0.0000 </r>
       <r>   10.6310   -0.0000 </r>
       <r>   10.7484   -0.0000 </r>
       <r>   10.8280   -0.0000 </r>
       <r>   10.8726   -0.0000 </r>
       <r>   10.9803   -0.0000 </r>
       <r>   11.0642   -0.0000 </r>
       <r>   11.2046   -0.0000 </r>
       <r>   11.3263   -0.0000 </r>
       <r>   11.4817   -0.0000 </r>
       <r>   11.6053   -0.0000 </r>
       <r>   11.7288   -0.0000 </r>
       <r>   11.8899   -0.0000 </r>
       <r>   12.0948   -0.0000 </r>
       <r>   12.2935   -0.0000 </r>
      </set>
      <set comment="kpoint 19">
       <r>   -2.5559    1.0000 </r>
       <r>   -2.2382    1.0000 </r>
       <r>   -1.0383    1.0000 </r>
       <r>   -0.7945    1.0000 </r>
       <r>   -0.5895    1.0000 </r>
       <r>    0.0593    1.0000 </r>
       <r>    0.2710    1.0000 </r>
       <r>    0.5280    1.0000 </r>
       <r>    0.9949    1.0000 </r>
       <r>    1.5582    1.0000 </r>
       <r>    1.6844    1.0000 </r>
       <r>    1.8383    1.0000 </r>
       <r>    2.1246    1.0000 </r>
       <r>    2.7549    1.0000 </r>
       <r>    3.1395    1.0000 </r>
       <r>    3.2168    1.0000 </r>
       <r>    3.4185    1.0000 </r>
       <r>    3.5316    1.0000 </r>
       <r>    4.1703    1.0000 </r>
       <r>    4.2936    1.0000 </r>
       <r>    4.4334    1.0000 </r>
       <r>    4.6008    1.0000 </r>
       <r>    4.7110    1.0000 </r>
       <r>    4.8228    1.0000 </r>
       <r>    4.9258    1.0000 </r>
       <r>    5.2061    1.0000 </r>
       <r>    5.6335    1.0000 </r>
       <r>    5.6943    1.0000 </r>
       <r>    5.8453    1.0000 </r>
       <r>    6.0568    1.0000 </r>
       <r>    6.3658    1.0000 </r>
       <r>    6.6452    1.0000 </r>
       <r>    6.7589    1.0000 </r>
       <r>    7.0745    1.0000 </r>
       <r>    7.1036    1.0000 </r>
       <r>    7.2210    1.0000 </r>
       <r>    7.3883    1.0000 </r>
       <r>    8.2754    1.0353 </r>
       <r>    8.3678    0.9709 </r>
       <r>    8.4818    0.6357 </r>
       <r>    8.8246   -0.0253 </r>
       <r>    8.9176   -0.0076 </r>
       <r>    9.1048   -0.0001 </r>
       <r>    9.1906   -0.0000 </r>
       <r>    9.3622   -0.0000 </r>
       <r>    9.6173   -0.0000 </r>
       <r>    9.7788   -0.0000 </r>
       <r>    9.8668   -0.0000 </r>
       <r>   10.1373   -0.0000 </r>
       <r>   10.3555   -0.0000 </r>
       <r>   10.5090   -0.0000 </r>
       <r>   10.7017   -0.0000 </r>
       <r>   10.8443   -0.0000 </r>
       <r>   10.8705   -0.0000 </r>
       <r>   10.9443   -0.0000 </r>
       <r>   11.1107   -0.0000 </r>
       <r>   11.2693   -0.0000 </r>
       <r>   11.4089   -0.0000 </r>
       <r>   11.5194   -0.0000 </r>
       <r>   11.5794   -0.0000 </r>
       <r>   11.6507   -0.0000 </r>
       <r>   11.9991   -0.0000 </r>
       <r>   12.1282   -0.0000 </r>
       <r>   12.3332   -0.0000 </r>
      </set>
      <set comment="kpoint 20">
       <r>   -2.5517    1.0000 </r>
       <r>   -2.2358    1.0000 </r>
       <r>   -1.1428    1.0000 </r>
       <r>   -0.6983    1.0000 </r>
       <r>   -0.5441    1.0000 </r>
       <r>   -0.0075    1.0000 </r>
       <r>    0.2749    1.0000 </r>
       <r>    0.5860    1.0000 </r>
       <r>    0.9662    1.0000 </r>
       <r>    1.5418    1.0000 </r>
       <r>    1.7530    1.0000 </r>
       <r>    1.7955    1.0000 </r>
       <r>    2.0928    1.0000 </r>
       <r>    2.7344    1.0000 </r>
       <r>    3.0686    1.0000 </r>
       <r>    3.2827    1.0000 </r>
       <r>    3.4446    1.0000 </r>
       <r>    3.6894    1.0000 </r>
       <r>    3.9916    1.0000 </r>
       <r>    4.2699    1.0000 </r>
       <r>    4.4324    1.0000 </r>
       <r>    4.5674    1.0000 </r>
       <r>    4.7143    1.0000 </r>
       <r>    4.7884    1.0000 </r>
       <r>    4.9059    1.0000 </r>
       <r>    5.2405    1.0000 </r>
       <r>    5.6498    1.0000 </r>
       <r>    5.8124    1.0000 </r>
       <r>    5.9898    1.0000 </r>
       <r>    6.0512    1.0000 </r>
       <r>    6.4153    1.0000 </r>
       <r>    6.5546    1.0000 </r>
       <r>    6.7448    1.0000 </r>
       <r>    6.8995    1.0000 </r>
       <r>    7.0071    1.0000 </r>
       <r>    7.3024    1.0000 </r>
       <r>    7.4561    1.0000 </r>
       <r>    8.2557    1.0348 </r>
       <r>    8.4382    0.7980 </r>
       <r>    8.4829    0.6313 </r>
       <r>    8.7298   -0.0314 </r>
       <r>    8.9301   -0.0062 </r>
       <r>    9.1310   -0.0001 </r>
       <r>    9.2767   -0.0000 </r>
       <r>    9.4324   -0.0000 </r>
       <r>    9.5551   -0.0000 </r>
       <r>    9.6683   -0.0000 </r>
       <r>    9.8998   -0.0000 </r>
       <r>   10.0478   -0.0000 </r>
       <r>   10.3657   -0.0000 </r>
       <r>   10.5236   -0.0000 </r>
       <r>   10.6580   -0.0000 </r>
       <r>   10.8085   -0.0000 </r>
       <r>   10.9170   -0.0000 </r>
       <r>   10.9798   -0.0000 </r>
       <r>   11.1853   -0.0000 </r>
       <r>   11.3404   -0.0000 </r>
       <r>   11.4077   -0.0000 </r>
       <r>   11.5516   -0.0000 </r>
       <r>   11.5876   -0.0000 </r>
       <r>   11.7521   -0.0000 </r>
       <r>   11.9142   -0.0000 </r>
       <r>   12.1098   -0.0000 </r>
       <r>   12.2929   -0.0000 </r>
      </set>
      <set comment="kpoint 21">
       <r>   -2.6515    1.0000 </r>
       <r>   -2.0567    1.0000 </r>
       <r>   -1.0779    1.0000 </r>
       <r>   -0.8173    1.0000 </r>
       <r>   -0.6262    1.0000 </r>
       <r>   -0.0739    1.0000 </r>
       <r>    0.3480    1.0000 </r>
       <r>    0.4813    1.0000 </r>
       <r>    0.9986    1.0000 </r>
       <r>    1.5033    1.0000 </r>
       <r>    1.8388    1.0000 </r>
       <r>    1.8667    1.0000 </r>
       <r>    2.2133    1.0000 </r>
       <r>    2.8549    1.0000 </r>
       <r>    3.1004    1.0000 </r>
       <r>    3.3513    1.0000 </r>
       <r>    3.4277    1.0000 </r>
       <r>    3.5224    1.0000 </r>
       <r>    4.0742    1.0000 </r>
       <r>    4.1702    1.0000 </r>
       <r>    4.3215    1.0000 </r>
       <r>    4.4729    1.0000 </r>
       <r>    4.5745    1.0000 </r>
       <r>    4.7736    1.0000 </r>
       <r>    5.0480    1.0000 </r>
       <r>    5.2651    1.0000 </r>
       <r>    5.5288    1.0000 </r>
       <r>    5.6631    1.0000 </r>
       <r>    6.0260    1.0000 </r>
       <r>    6.2201    1.0000 </r>
       <r>    6.4104    1.0000 </r>
       <r>    6.5426    1.0000 </r>
       <r>    6.7392    1.0000 </r>
       <r>    7.0028    1.0000 </r>
       <r>    7.1979    1.0000 </r>
       <r>    7.2398    1.0000 </r>
       <r>    7.4371    1.0000 </r>
       <r>    8.1891    1.0218 </r>
       <r>    8.3909    0.9277 </r>
       <r>    8.4910    0.5983 </r>
       <r>    8.7330   -0.0323 </r>
       <r>    8.8489   -0.0198 </r>
       <r>    9.0234   -0.0009 </r>
       <r>    9.2189   -0.0000 </r>
       <r>    9.5199   -0.0000 </r>
       <r>    9.6211   -0.0000 </r>
       <r>    9.7874   -0.0000 </r>
       <r>    9.8863   -0.0000 </r>
       <r>   10.1072   -0.0000 </r>
       <r>   10.2978   -0.0000 </r>
       <r>   10.5985   -0.0000 </r>
       <r>   10.6837   -0.0000 </r>
       <r>   10.8976   -0.0000 </r>
       <r>   10.9329   -0.0000 </r>
       <r>   11.0885   -0.0000 </r>
       <r>   11.1688   -0.0000 </r>
       <r>   11.3752   -0.0000 </r>
       <r>   11.4366   -0.0000 </r>
       <r>   11.4698   -0.0000 </r>
       <r>   11.5816   -0.0000 </r>
       <r>   11.6849   -0.0000 </r>
       <r>   11.9276   -0.0000 </r>
       <r>   12.0934   -0.0000 </r>
       <r>   12.3134   -0.0000 </r>
      </set>
      <set comment="kpoint 22">
       <r>   -2.5558    1.0000 </r>
       <r>   -2.2112    1.0000 </r>
       <r>   -1.2240    1.0000 </r>
       <r>   -0.7198    1.0000 </r>
       <r>   -0.4410    1.0000 </r>
       <r>    0.0159    1.0000 </r>
       <r>    0.1874    1.0000 </r>
       <r>    0.6438    1.0000 </r>
       <r>    0.9610    1.0000 </r>
       <r>    1.3517    1.0000 </r>
       <r>    1.7930    1.0000 </r>
       <r>    2.0334    1.0000 </r>
       <r>    2.2223    1.0000 </r>
       <r>    2.7188    1.0000 </r>
       <r>    2.9513    1.0000 </r>
       <r>    3.2964    1.0000 </r>
       <r>    3.4007    1.0000 </r>
       <r>    3.5380    1.0000 </r>
       <r>    3.9799    1.0000 </r>
       <r>    4.2101    1.0000 </r>
       <r>    4.4556    1.0000 </r>
       <r>    4.5419    1.0000 </r>
       <r>    4.6364    1.0000 </r>
       <r>    4.8696    1.0000 </r>
       <r>    5.0029    1.0000 </r>
       <r>    5.2381    1.0000 </r>
       <r>    5.6536    1.0000 </r>
       <r>    5.6992    1.0000 </r>
       <r>    5.9611    1.0000 </r>
       <r>    6.1028    1.0000 </r>
       <r>    6.3744    1.0000 </r>
       <r>    6.5737    1.0000 </r>
       <r>    6.7924    1.0000 </r>
       <r>    7.0156    1.0000 </r>
       <r>    7.2211    1.0000 </r>
       <r>    7.3023    1.0000 </r>
       <r>    7.4755    1.0000 </r>
       <r>    8.1502    1.0136 </r>
       <r>    8.3701    0.9671 </r>
       <r>    8.4360    0.8052 </r>
       <r>    8.6935   -0.0107 </r>
       <r>    8.9094   -0.0087 </r>
       <r>    9.1384   -0.0000 </r>
       <r>    9.2876   -0.0000 </r>
       <r>    9.4321   -0.0000 </r>
       <r>    9.5453   -0.0000 </r>
       <r>    9.8091   -0.0000 </r>
       <r>    9.9414   -0.0000 </r>
       <r>   10.0979   -0.0000 </r>
       <r>   10.3619   -0.0000 </r>
       <r>   10.4892   -0.0000 </r>
       <r>   10.6854   -0.0000 </r>
       <r>   10.7948   -0.0000 </r>
       <r>   10.8992   -0.0000 </r>
       <r>   11.0727   -0.0000 </r>
       <r>   11.1729   -0.0000 </r>
       <r>   11.2683   -0.0000 </r>
       <r>   11.3216   -0.0000 </r>
       <r>   11.4981   -0.0000 </r>
       <r>   11.5722   -0.0000 </r>
       <r>   11.7413   -0.0000 </r>
       <r>   11.9062   -0.0000 </r>
       <r>   12.1038   -0.0000 </r>
       <r>   12.2715   -0.0000 </r>
      </set>
      <set comment="kpoint 23">
       <r>   -2.5511    1.0000 </r>
       <r>   -2.2118    1.0000 </r>
       <r>   -1.2478    1.0000 </r>
       <r>   -0.7645    1.0000 </r>
       <r>   -0.3535    1.0000 </r>
       <r>    0.0487    1.0000 </r>
       <r>    0.1532    1.0000 </r>
       <r>    0.7024    1.0000 </r>
       <r>    0.8343    1.0000 </r>
       <r>    1.4232    1.0000 </r>
       <r>    1.8425    1.0000 </r>
       <r>    1.9972    1.0000 </r>
       <r>    2.1772    1.0000 </r>
       <r>    2.6907    1.0000 </r>
       <r>    2.9187    1.0000 </r>
       <r>    3.2466    1.0000 </r>
       <r>    3.4515    1.0000 </r>
       <r>    3.6857    1.0000 </r>
       <r>    3.9927    1.0000 </r>
       <r>    4.1853    1.0000 </r>
       <r>    4.3532    1.0000 </r>
       <r>    4.5141    1.0000 </r>
       <r>    4.6746    1.0000 </r>
       <r>    4.7786    1.0000 </r>
       <r>    4.9757    1.0000 </r>
       <r>    5.2890    1.0000 </r>
       <r>    5.6629    1.0000 </r>
       <r>    5.7893    1.0000 </r>
       <r>    5.9885    1.0000 </r>
       <r>    6.1265    1.0000 </r>
       <r>    6.5222    1.0000 </r>
       <r>    6.5883    1.0000 </r>
       <r>    6.7884    1.0000 </r>
       <r>    6.8960    1.0000 </r>
       <r>    7.1972    1.0000 </r>
       <r>    7.2496    1.0000 </r>
       <r>    7.3220    1.0000 </r>
       <r>    8.1839    1.0207 </r>
       <r>    8.4208    0.8519 </r>
       <r>    8.4711    0.6785 </r>
       <r>    8.7992   -0.0309 </r>
       <r>    8.9814   -0.0023 </r>
       <r>    9.1228   -0.0001 </r>
       <r>    9.2254   -0.0000 </r>
       <r>    9.4104   -0.0000 </r>
       <r>    9.5835   -0.0000 </r>
       <r>    9.6526   -0.0000 </r>
       <r>    9.9795   -0.0000 </r>
       <r>   10.0303   -0.0000 </r>
       <r>   10.3116   -0.0000 </r>
       <r>   10.6326   -0.0000 </r>
       <r>   10.6553   -0.0000 </r>
       <r>   10.7818   -0.0000 </r>
       <r>   10.9119   -0.0000 </r>
       <r>   10.9740   -0.0000 </r>
       <r>   11.1535   -0.0000 </r>
       <r>   11.3011   -0.0000 </r>
       <r>   11.4653   -0.0000 </r>
       <r>   11.5597   -0.0000 </r>
       <r>   11.6081   -0.0000 </r>
       <r>   11.7957   -0.0000 </r>
       <r>   11.9359   -0.0000 </r>
       <r>   11.9721   -0.0000 </r>
       <r>   12.2605   -0.0000 </r>
      </set>
      <set comment="kpoint 24">
       <r>   -2.6021    1.0000 </r>
       <r>   -2.1475    1.0000 </r>
       <r>   -1.1820    1.0000 </r>
       <r>   -0.7004    1.0000 </r>
       <r>   -0.4934    1.0000 </r>
       <r>   -0.0596    1.0000 </r>
       <r>    0.1925    1.0000 </r>
       <r>    0.5658    1.0000 </r>
       <r>    1.0093    1.0000 </r>
       <r>    1.4835    1.0000 </r>
       <r>    1.6602    1.0000 </r>
       <r>    2.0233    1.0000 </r>
       <r>    2.2187    1.0000 </r>
       <r>    2.7819    1.0000 </r>
       <r>    3.0223    1.0000 </r>
       <r>    3.3060    1.0000 </r>
       <r>    3.4075    1.0000 </r>
       <r>    3.6938    1.0000 </r>
       <r>    4.0169    1.0000 </r>
       <r>    4.2280    1.0000 </r>
       <r>    4.3937    1.0000 </r>
       <r>    4.4475    1.0000 </r>
       <r>    4.5658    1.0000 </r>
       <r>    4.7541    1.0000 </r>
       <r>    5.0437    1.0000 </r>
       <r>    5.1806    1.0000 </r>
       <r>    5.6029    1.0000 </r>
       <r>    5.7494    1.0000 </r>
       <r>    6.0281    1.0000 </r>
       <r>    6.1968    1.0000 </r>
       <r>    6.3875    1.0000 </r>
       <r>    6.5371    1.0000 </r>
       <r>    6.8090    1.0000 </r>
       <r>    7.0142    1.0000 </r>
       <r>    7.0767    1.0000 </r>
       <r>    7.3112    1.0000 </r>
       <r>    7.3772    1.0000 </r>
       <r>    8.2825    1.0347 </r>
       <r>    8.3775    0.9542 </r>
       <r>    8.5544    0.3345 </r>
       <r>    8.6678    0.0189 </r>
       <r>    8.9511   -0.0042 </r>
       <r>    9.0523   -0.0005 </r>
       <r>    9.1624   -0.0000 </r>
       <r>    9.5142   -0.0000 </r>
       <r>    9.6308   -0.0000 </r>
       <r>    9.7065   -0.0000 </r>
       <r>    9.8636   -0.0000 </r>
       <r>   10.0331   -0.0000 </r>
       <r>   10.3072   -0.0000 </r>
       <r>   10.6024   -0.0000 </r>
       <r>   10.7200   -0.0000 </r>
       <r>   10.8062   -0.0000 </r>
       <r>   10.9446   -0.0000 </r>
       <r>   11.0233   -0.0000 </r>
       <r>   11.1311   -0.0000 </r>
       <r>   11.2871   -0.0000 </r>
       <r>   11.4427   -0.0000 </r>
       <r>   11.4604   -0.0000 </r>
       <r>   11.6017   -0.0000 </r>
       <r>   11.7733   -0.0000 </r>
       <r>   11.9017   -0.0000 </r>
       <r>   12.1078   -0.0000 </r>
       <r>   12.2700   -0.0000 </r>
      </set>
      <set comment="kpoint 25">
       <r>   -2.6554    1.0000 </r>
       <r>   -2.0533    1.0000 </r>
       <r>   -1.0852    1.0000 </r>
       <r>   -0.7822    1.0000 </r>
       <r>   -0.5847    1.0000 </r>
       <r>   -0.1743    1.0000 </r>
       <r>    0.2807    1.0000 </r>
       <r>    0.5851    1.0000 </r>
       <r>    0.9404    1.0000 </r>
       <r>    1.5568    1.0000 </r>
       <r>    1.7054    1.0000 </r>
       <r>    2.0703    1.0000 </r>
       <r>    2.2426    1.0000 </r>
       <r>    2.7840    1.0000 </r>
       <r>    3.0572    1.0000 </r>
       <r>    3.2727    1.0000 </r>
       <r>    3.4646    1.0000 </r>
       <r>    3.5466    1.0000 </r>
       <r>    4.0050    1.0000 </r>
       <r>    4.2418    1.0000 </r>
       <r>    4.3718    1.0000 </r>
       <r>    4.4510    1.0000 </r>
       <r>    4.6554    1.0000 </r>
       <r>    4.7749    1.0000 </r>
       <r>    5.0605    1.0000 </r>
       <r>    5.2368    1.0000 </r>
       <r>    5.5090    1.0000 </r>
       <r>    5.6396    1.0000 </r>
       <r>    6.0389    1.0000 </r>
       <r>    6.1122    1.0000 </r>
       <r>    6.4355    1.0000 </r>
       <r>    6.5252    1.0000 </r>
       <r>    6.7242    1.0000 </r>
       <r>    7.0270    1.0000 </r>
       <r>    7.1868    1.0000 </r>
       <r>    7.2969    1.0000 </r>
       <r>    7.4328    1.0000 </r>
       <r>    8.2299    1.0309 </r>
       <r>    8.3056    1.0291 </r>
       <r>    8.4239    0.8430 </r>
       <r>    8.7646   -0.0354 </r>
       <r>    8.9850   -0.0022 </r>
       <r>    9.0881   -0.0002 </r>
       <r>    9.1843   -0.0000 </r>
       <r>    9.5280   -0.0000 </r>
       <r>    9.6474   -0.0000 </r>
       <r>    9.7934   -0.0000 </r>
       <r>    9.8532   -0.0000 </r>
       <r>   10.0718   -0.0000 </r>
       <r>   10.3067   -0.0000 </r>
       <r>   10.4698   -0.0000 </r>
       <r>   10.7212   -0.0000 </r>
       <r>   10.8643   -0.0000 </r>
       <r>   10.9507   -0.0000 </r>
       <r>   11.1037   -0.0000 </r>
       <r>   11.1916   -0.0000 </r>
       <r>   11.3557   -0.0000 </r>
       <r>   11.3705   -0.0000 </r>
       <r>   11.4808   -0.0000 </r>
       <r>   11.5809   -0.0000 </r>
       <r>   11.7296   -0.0000 </r>
       <r>   11.9625   -0.0000 </r>
       <r>   12.0817   -0.0000 </r>
       <r>   12.2989   -0.0000 </r>
      </set>
      <set comment="kpoint 26">
       <r>   -2.6519    1.0000 </r>
       <r>   -2.0523    1.0000 </r>
       <r>   -1.0783    1.0000 </r>
       <r>   -0.9256    1.0000 </r>
       <r>   -0.4101    1.0000 </r>
       <r>   -0.1609    1.0000 </r>
       <r>    0.2383    1.0000 </r>
       <r>    0.6001    1.0000 </r>
       <r>    0.9038    1.0000 </r>
       <r>    1.5601    1.0000 </r>
       <r>    1.7451    1.0000 </r>
       <r>    2.0001    1.0000 </r>
       <r>    2.2752    1.0000 </r>
       <r>    2.7715    1.0000 </r>
       <r>    3.0584    1.0000 </r>
       <r>    3.2996    1.0000 </r>
       <r>    3.4175    1.0000 </r>
       <r>    3.6363    1.0000 </r>
       <r>    4.0521    1.0000 </r>
       <r>    4.1516    1.0000 </r>
       <r>    4.2533    1.0000 </r>
       <r>    4.4471    1.0000 </r>
       <r>    4.6763    1.0000 </r>
       <r>    4.8052    1.0000 </r>
       <r>    4.9539    1.0000 </r>
       <r>    5.3441    1.0000 </r>
       <r>    5.6043    1.0000 </r>
       <r>    5.6780    1.0000 </r>
       <r>    6.0498    1.0000 </r>
       <r>    6.1381    1.0000 </r>
       <r>    6.3679    1.0000 </r>
       <r>    6.5040    1.0000 </r>
       <r>    6.7566    1.0000 </r>
       <r>    6.9683    1.0000 </r>
       <r>    7.1585    1.0000 </r>
       <r>    7.2979    1.0000 </r>
       <r>    7.4584    1.0000 </r>
       <r>    8.2968    1.0320 </r>
       <r>    8.3926    0.9240 </r>
       <r>    8.4611    0.7170 </r>
       <r>    8.6809    0.0020 </r>
       <r>    8.7936   -0.0319 </r>
       <r>    9.0814   -0.0002 </r>
       <r>    9.2695   -0.0000 </r>
       <r>    9.4191   -0.0000 </r>
       <r>    9.5342   -0.0000 </r>
       <r>    9.8257   -0.0000 </r>
       <r>    9.9789   -0.0000 </r>
       <r>   10.1414   -0.0000 </r>
       <r>   10.2685   -0.0000 </r>
       <r>   10.6066   -0.0000 </r>
       <r>   10.7306   -0.0000 </r>
       <r>   10.8459   -0.0000 </r>
       <r>   10.9628   -0.0000 </r>
       <r>   11.0741   -0.0000 </r>
       <r>   11.1639   -0.0000 </r>
       <r>   11.2733   -0.0000 </r>
       <r>   11.4493   -0.0000 </r>
       <r>   11.4858   -0.0000 </r>
       <r>   11.6085   -0.0000 </r>
       <r>   11.7968   -0.0000 </r>
       <r>   11.9748   -0.0000 </r>
       <r>   11.9983   -0.0000 </r>
       <r>   12.1960   -0.0000 </r>
      </set>
      <set comment="kpoint 27">
       <r>   -2.5561    1.0000 </r>
       <r>   -2.2262    1.0000 </r>
       <r>   -1.1659    1.0000 </r>
       <r>   -0.7412    1.0000 </r>
       <r>   -0.4556    1.0000 </r>
       <r>    0.0305    1.0000 </r>
       <r>    0.2049    1.0000 </r>
       <r>    0.6278    1.0000 </r>
       <r>    0.9077    1.0000 </r>
       <r>    1.4325    1.0000 </r>
       <r>    1.7199    1.0000 </r>
       <r>    1.9235    1.0000 </r>
       <r>    2.2531    1.0000 </r>
       <r>    2.6467    1.0000 </r>
       <r>    2.9891    1.0000 </r>
       <r>    3.2532    1.0000 </r>
       <r>    3.5142    1.0000 </r>
       <r>    3.7373    1.0000 </r>
       <r>    4.0306    1.0000 </r>
       <r>    4.2405    1.0000 </r>
       <r>    4.3351    1.0000 </r>
       <r>    4.4905    1.0000 </r>
       <r>    4.6879    1.0000 </r>
       <r>    4.8617    1.0000 </r>
       <r>    4.9645    1.0000 </r>
       <r>    5.2715    1.0000 </r>
       <r>    5.6235    1.0000 </r>
       <r>    5.7906    1.0000 </r>
       <r>    5.9445    1.0000 </r>
       <r>    6.1456    1.0000 </r>
       <r>    6.3635    1.0000 </r>
       <r>    6.5563    1.0000 </r>
       <r>    6.7637    1.0000 </r>
       <r>    6.8595    1.0000 </r>
       <r>    7.1555    1.0000 </r>
       <r>    7.3229    1.0000 </r>
       <r>    7.4027    1.0000 </r>
       <r>    8.2345    1.0318 </r>
       <r>    8.4485    0.7628 </r>
       <r>    8.5390    0.3968 </r>
       <r>    8.7369   -0.0332 </r>
       <r>    8.8000   -0.0307 </r>
       <r>    9.0903   -0.0002 </r>
       <r>    9.2318   -0.0000 </r>
       <r>    9.3691   -0.0000 </r>
       <r>    9.5792   -0.0000 </r>
       <r>    9.6320   -0.0000 </r>
       <r>    9.9739   -0.0000 </r>
       <r>   10.0875   -0.0000 </r>
       <r>   10.3006   -0.0000 </r>
       <r>   10.5673   -0.0000 </r>
       <r>   10.7690   -0.0000 </r>
       <r>   10.8385   -0.0000 </r>
       <r>   10.9238   -0.0000 </r>
       <r>   11.0103   -0.0000 </r>
       <r>   11.1673   -0.0000 </r>
       <r>   11.3007   -0.0000 </r>
       <r>   11.3805   -0.0000 </r>
       <r>   11.5114   -0.0000 </r>
       <r>   11.6594   -0.0000 </r>
       <r>   11.8050   -0.0000 </r>
       <r>   11.8604   -0.0000 </r>
       <r>   12.0993   -0.0000 </r>
       <r>   12.2919   -0.0000 </r>
      </set>
      <set comment="kpoint 28">
       <r>   -2.6082    1.0000 </r>
       <r>   -2.1401    1.0000 </r>
       <r>   -1.1890    1.0000 </r>
       <r>   -0.6657    1.0000 </r>
       <r>   -0.4346    1.0000 </r>
       <r>   -0.1702    1.0000 </r>
       <r>    0.1804    1.0000 </r>
       <r>    0.6137    1.0000 </r>
       <r>    0.8725    1.0000 </r>
       <r>    1.5370    1.0000 </r>
       <r>    1.8232    1.0000 </r>
       <r>    2.0373    1.0000 </r>
       <r>    2.2184    1.0000 </r>
       <r>    2.6776    1.0000 </r>
       <r>    2.9640    1.0000 </r>
       <r>    3.3046    1.0000 </r>
       <r>    3.4920    1.0000 </r>
       <r>    3.6478    1.0000 </r>
       <r>    4.0006    1.0000 </r>
       <r>    4.1756    1.0000 </r>
       <r>    4.3253    1.0000 </r>
       <r>    4.4991    1.0000 </r>
       <r>    4.6510    1.0000 </r>
       <r>    4.8805    1.0000 </r>
       <r>    5.0491    1.0000 </r>
       <r>    5.2696    1.0000 </r>
       <r>    5.4862    1.0000 </r>
       <r>    5.7190    1.0000 </r>
       <r>    5.9633    1.0000 </r>
       <r>    6.1188    1.0000 </r>
       <r>    6.3845    1.0000 </r>
       <r>    6.5001    1.0000 </r>
       <r>    6.8370    1.0000 </r>
       <r>    7.0085    1.0000 </r>
       <r>    7.1259    1.0000 </r>
       <r>    7.3075    1.0000 </r>
       <r>    7.4506    1.0000 </r>
       <r>    8.2841    1.0345 </r>
       <r>    8.3662    0.9734 </r>
       <r>    8.4901    0.6021 </r>
       <r>    8.8131   -0.0279 </r>
       <r>    8.9111   -0.0084 </r>
       <r>    9.0725   -0.0003 </r>
       <r>    9.1831   -0.0000 </r>
       <r>    9.4459   -0.0000 </r>
       <r>    9.5483   -0.0000 </r>
       <r>    9.7499   -0.0000 </r>
       <r>    9.8600   -0.0000 </r>
       <r>   10.0559   -0.0000 </r>
       <r>   10.3731   -0.0000 </r>
       <r>   10.4729   -0.0000 </r>
       <r>   10.6092   -0.0000 </r>
       <r>   10.8201   -0.0000 </r>
       <r>   10.9440   -0.0000 </r>
       <r>   11.0706   -0.0000 </r>
       <r>   11.1827   -0.0000 </r>
       <r>   11.2704   -0.0000 </r>
       <r>   11.3997   -0.0000 </r>
       <r>   11.5526   -0.0000 </r>
       <r>   11.7011   -0.0000 </r>
       <r>   11.8099   -0.0000 </r>
       <r>   11.9639   -0.0000 </r>
       <r>   12.0113   -0.0000 </r>
       <r>   12.3577   -0.0000 </r>
      </set>
      <set comment="kpoint 29">
       <r>   -3.0107    1.0000 </r>
       <r>   -1.3540    1.0000 </r>
       <r>   -0.9802    1.0000 </r>
       <r>   -0.6625    1.0000 </r>
       <r>   -0.3458    1.0000 </r>
       <r>   -0.1077    1.0000 </r>
       <r>    0.3704    1.0000 </r>
       <r>    0.5046    1.0000 </r>
       <r>    0.7600    1.0000 </r>
       <r>    0.9658    1.0000 </r>
       <r>    1.2097    1.0000 </r>
       <r>    1.4768    1.0000 </r>
       <r>    1.8142    1.0000 </r>
       <r>    2.1192    1.0000 </r>
       <r>    2.8450    1.0000 </r>
       <r>    2.9903    1.0000 </r>
       <r>    3.3463    1.0000 </r>
       <r>    4.0234    1.0000 </r>
       <r>    4.2658    1.0000 </r>
       <r>    4.3701    1.0000 </r>
       <r>    4.9565    1.0000 </r>
       <r>    5.0592    1.0000 </r>
       <r>    5.3391    1.0000 </r>
       <r>    5.7074    1.0000 </r>
       <r>    5.7757    1.0000 </r>
       <r>    5.9635    1.0000 </r>
       <r>    6.0169    1.0000 </r>
       <r>    6.2388    1.0000 </r>
       <r>    6.3164    1.0000 </r>
       <r>    6.4552    1.0000 </r>
       <r>    6.6035    1.0000 </r>
       <r>    6.7140    1.0000 </r>
       <r>    6.8355    1.0000 </r>
       <r>    7.0108    1.0000 </r>
       <r>    7.1004    1.0000 </r>
       <r>    7.3425    1.0000 </r>
       <r>    7.5399    1.0000 </r>
       <r>    7.6634    1.0000 </r>
       <r>    7.8527    1.0000 </r>
       <r>    7.9657    1.0004 </r>
       <r>    8.0862    1.0049 </r>
       <r>    8.3123    1.0262 </r>
       <r>    8.4995    0.5629 </r>
       <r>    8.6705    0.0151 </r>
       <r>    8.7839   -0.0335 </r>
       <r>    8.8887   -0.0118 </r>
       <r>    9.1656   -0.0000 </r>
       <r>    9.4846   -0.0000 </r>
       <r>    9.5854   -0.0000 </r>
       <r>    9.7617   -0.0000 </r>
       <r>   10.0070   -0.0000 </r>
       <r>   10.1042   -0.0000 </r>
       <r>   10.2236   -0.0000 </r>
       <r>   10.4033   -0.0000 </r>
       <r>   10.6453   -0.0000 </r>
       <r>   10.7971   -0.0000 </r>
       <r>   10.8524   -0.0000 </r>
       <r>   11.0614   -0.0000 </r>
       <r>   11.2635   -0.0000 </r>
       <r>   11.6640   -0.0000 </r>
       <r>   11.8256   -0.0000 </r>
       <r>   12.1764   -0.0000 </r>
       <r>   12.4439   -0.0000 </r>
       <r>   12.5648   -0.0000 </r>
      </set>
      <set comment="kpoint 30">
       <r>   -3.0072    1.0000 </r>
       <r>   -1.3576    1.0000 </r>
       <r>   -1.0507    1.0000 </r>
       <r>   -0.6180    1.0000 </r>
       <r>   -0.2781    1.0000 </r>
       <r>   -0.0891    1.0000 </r>
       <r>    0.2354    1.0000 </r>
       <r>    0.5768    1.0000 </r>
       <r>    0.7330    1.0000 </r>
       <r>    1.0969    1.0000 </r>
       <r>    1.1742    1.0000 </r>
       <r>    1.5442    1.0000 </r>
       <r>    1.6541    1.0000 </r>
       <r>    2.1774    1.0000 </r>
       <r>    2.7249    1.0000 </r>
       <r>    2.9991    1.0000 </r>
       <r>    3.4277    1.0000 </r>
       <r>    3.9338    1.0000 </r>
       <r>    4.2696    1.0000 </r>
       <r>    4.4511    1.0000 </r>
       <r>    4.9491    1.0000 </r>
       <r>    5.1527    1.0000 </r>
       <r>    5.2776    1.0000 </r>
       <r>    5.5957    1.0000 </r>
       <r>    5.8505    1.0000 </r>
       <r>    6.0200    1.0000 </r>
       <r>    6.0547    1.0000 </r>
       <r>    6.1892    1.0000 </r>
       <r>    6.2934    1.0000 </r>
       <r>    6.4579    1.0000 </r>
       <r>    6.5502    1.0000 </r>
       <r>    6.7258    1.0000 </r>
       <r>    6.8570    1.0000 </r>
       <r>    6.9831    1.0000 </r>
       <r>    7.0852    1.0000 </r>
       <r>    7.3273    1.0000 </r>
       <r>    7.5403    1.0000 </r>
       <r>    7.7891    1.0000 </r>
       <r>    7.8807    1.0000 </r>
       <r>    8.0267    1.0015 </r>
       <r>    8.0637    1.0032 </r>
       <r>    8.2747    1.0353 </r>
       <r>    8.4241    0.8422 </r>
       <r>    8.5856    0.2187 </r>
       <r>    8.7465   -0.0348 </r>
       <r>    8.9618   -0.0035 </r>
       <r>    9.2168   -0.0000 </r>
       <r>    9.6038   -0.0000 </r>
       <r>    9.6418   -0.0000 </r>
       <r>    9.8229   -0.0000 </r>
       <r>    9.8818   -0.0000 </r>
       <r>   10.0558   -0.0000 </r>
       <r>   10.2515   -0.0000 </r>
       <r>   10.3637   -0.0000 </r>
       <r>   10.5561   -0.0000 </r>
       <r>   10.7088   -0.0000 </r>
       <r>   10.8641   -0.0000 </r>
       <r>   11.1529   -0.0000 </r>
       <r>   11.2113   -0.0000 </r>
       <r>   11.7325   -0.0000 </r>
       <r>   11.8971   -0.0000 </r>
       <r>   12.1974   -0.0000 </r>
       <r>   12.3773   -0.0000 </r>
       <r>   12.5767   -0.0000 </r>
      </set>
      <set comment="kpoint 31">
       <r>   -3.0116    1.0000 </r>
       <r>   -1.3797    1.0000 </r>
       <r>   -0.8741    1.0000 </r>
       <r>   -0.7102    1.0000 </r>
       <r>   -0.3705    1.0000 </r>
       <r>   -0.1299    1.0000 </r>
       <r>    0.2732    1.0000 </r>
       <r>    0.6411    1.0000 </r>
       <r>    0.7460    1.0000 </r>
       <r>    0.9508    1.0000 </r>
       <r>    1.2226    1.0000 </r>
       <r>    1.5943    1.0000 </r>
       <r>    1.7710    1.0000 </r>
       <r>    1.9627    1.0000 </r>
       <r>    2.9067    1.0000 </r>
       <r>    3.0232    1.0000 </r>
       <r>    3.2691    1.0000 </r>
       <r>    4.1702    1.0000 </r>
       <r>    4.2060    1.0000 </r>
       <r>    4.3375    1.0000 </r>
       <r>    4.9657    1.0000 </r>
       <r>    5.1005    1.0000 </r>
       <r>    5.3765    1.0000 </r>
       <r>    5.6691    1.0000 </r>
       <r>    5.8431    1.0000 </r>
       <r>    5.9475    1.0000 </r>
       <r>    6.1373    1.0000 </r>
       <r>    6.2234    1.0000 </r>
       <r>    6.3377    1.0000 </r>
       <r>    6.3966    1.0000 </r>
       <r>    6.4913    1.0000 </r>
       <r>    6.7028    1.0000 </r>
       <r>    6.8094    1.0000 </r>
       <r>    7.0006    1.0000 </r>
       <r>    7.0642    1.0000 </r>
       <r>    7.2424    1.0000 </r>
       <r>    7.5526    1.0000 </r>
       <r>    7.6601    1.0000 </r>
       <r>    7.8049    1.0000 </r>
       <r>    7.9614    1.0003 </r>
       <r>    8.2295    1.0308 </r>
       <r>    8.3318    1.0136 </r>
       <r>    8.4438    0.7791 </r>
       <r>    8.6025    0.1643 </r>
       <r>    8.6886   -0.0061 </r>
       <r>    8.9332   -0.0058 </r>
       <r>    9.1619   -0.0000 </r>
       <r>    9.5772   -0.0000 </r>
       <r>    9.6600   -0.0000 </r>
       <r>    9.7985   -0.0000 </r>
       <r>   10.0167   -0.0000 </r>
       <r>   10.2178   -0.0000 </r>
       <r>   10.3273   -0.0000 </r>
       <r>   10.4484   -0.0000 </r>
       <r>   10.5001   -0.0000 </r>
       <r>   10.7457   -0.0000 </r>
       <r>   10.9037   -0.0000 </r>
       <r>   11.0063   -0.0000 </r>
       <r>   11.1409   -0.0000 </r>
       <r>   11.7546   -0.0000 </r>
       <r>   11.9936   -0.0000 </r>
       <r>   12.1064   -0.0000 </r>
       <r>   12.3743   -0.0000 </r>
       <r>   12.4568   -0.0000 </r>
      </set>
      <set comment="kpoint 32">
       <r>   -3.0094    1.0000 </r>
       <r>   -1.3844    1.0000 </r>
       <r>   -0.9275    1.0000 </r>
       <r>   -0.6974    1.0000 </r>
       <r>   -0.3600    1.0000 </r>
       <r>    0.0181    1.0000 </r>
       <r>    0.2492    1.0000 </r>
       <r>    0.5137    1.0000 </r>
       <r>    0.7621    1.0000 </r>
       <r>    0.9182    1.0000 </r>
       <r>    1.2042    1.0000 </r>
       <r>    1.5745    1.0000 </r>
       <r>    1.8957    1.0000 </r>
       <r>    2.0182    1.0000 </r>
       <r>    2.8209    1.0000 </r>
       <r>    3.0477    1.0000 </r>
       <r>    3.2210    1.0000 </r>
       <r>    4.1018    1.0000 </r>
       <r>    4.1762    1.0000 </r>
       <r>    4.3706    1.0000 </r>
       <r>    5.0685    1.0000 </r>
       <r>    5.1694    1.0000 </r>
       <r>    5.2927    1.0000 </r>
       <r>    5.7223    1.0000 </r>
       <r>    5.8774    1.0000 </r>
       <r>    5.9857    1.0000 </r>
       <r>    6.0537    1.0000 </r>
       <r>    6.1606    1.0000 </r>
       <r>    6.2643    1.0000 </r>
       <r>    6.3537    1.0000 </r>
       <r>    6.4867    1.0000 </r>
       <r>    6.6532    1.0000 </r>
       <r>    6.8786    1.0000 </r>
       <r>    7.0089    1.0000 </r>
       <r>    7.1442    1.0000 </r>
       <r>    7.3894    1.0000 </r>
       <r>    7.5161    1.0000 </r>
       <r>    7.6587    1.0000 </r>
       <r>    7.7958    1.0000 </r>
       <r>    7.9995    1.0008 </r>
       <r>    8.1934    1.0228 </r>
       <r>    8.3803    0.9491 </r>
       <r>    8.4558    0.7365 </r>
       <r>    8.5270    0.4468 </r>
       <r>    8.6718    0.0133 </r>
       <r>    8.9787   -0.0025 </r>
       <r>    9.2723   -0.0000 </r>
       <r>    9.4918   -0.0000 </r>
       <r>    9.6440   -0.0000 </r>
       <r>    9.7367   -0.0000 </r>
       <r>    9.9660   -0.0000 </r>
       <r>   10.1323   -0.0000 </r>
       <r>   10.3075   -0.0000 </r>
       <r>   10.4181   -0.0000 </r>
       <r>   10.5517   -0.0000 </r>
       <r>   10.7271   -0.0000 </r>
       <r>   10.8543   -0.0000 </r>
       <r>   11.0474   -0.0000 </r>
       <r>   11.2421   -0.0000 </r>
       <r>   11.7786   -0.0000 </r>
       <r>   11.9307   -0.0000 </r>
       <r>   12.1190   -0.0000 </r>
       <r>   12.3342   -0.0000 </r>
       <r>   12.4255   -0.0000 </r>
      </set>
      <set comment="kpoint 33">
       <r>   -3.0154    1.0000 </r>
       <r>   -1.3032    1.0000 </r>
       <r>   -0.9034    1.0000 </r>
       <r>   -0.7772    1.0000 </r>
       <r>   -0.4547    1.0000 </r>
       <r>    0.0319    1.0000 </r>
       <r>    0.2135    1.0000 </r>
       <r>    0.6006    1.0000 </r>
       <r>    0.7446    1.0000 </r>
       <r>    0.9995    1.0000 </r>
       <r>    1.1627    1.0000 </r>
       <r>    1.6545    1.0000 </r>
       <r>    1.7733    1.0000 </r>
       <r>    2.0022    1.0000 </r>
       <r>    2.8563    1.0000 </r>
       <r>    3.0322    1.0000 </r>
       <r>    3.3765    1.0000 </r>
       <r>    3.9855    1.0000 </r>
       <r>    4.2722    1.0000 </r>
       <r>    4.3930    1.0000 </r>
       <r>    4.9629    1.0000 </r>
       <r>    5.0401    1.0000 </r>
       <r>    5.2433    1.0000 </r>
       <r>    5.6568    1.0000 </r>
       <r>    5.7702    1.0000 </r>
       <r>    6.0337    1.0000 </r>
       <r>    6.1275    1.0000 </r>
       <r>    6.2366    1.0000 </r>
       <r>    6.3133    1.0000 </r>
       <r>    6.3669    1.0000 </r>
       <r>    6.5398    1.0000 </r>
       <r>    6.7402    1.0000 </r>
       <r>    6.8778    1.0000 </r>
       <r>    7.0474    1.0000 </r>
       <r>    7.1014    1.0000 </r>
       <r>    7.3669    1.0000 </r>
       <r>    7.5675    1.0000 </r>
       <r>    7.6683    1.0000 </r>
       <r>    7.7854    1.0000 </r>
       <r>    8.0232    1.0014 </r>
       <r>    8.0636    1.0032 </r>
       <r>    8.3303    1.0148 </r>
       <r>    8.4305    0.8227 </r>
       <r>    8.6073    0.1499 </r>
       <r>    8.7740   -0.0347 </r>
       <r>    8.9216   -0.0071 </r>
       <r>    9.1187   -0.0001 </r>
       <r>    9.5268   -0.0000 </r>
       <r>    9.6420   -0.0000 </r>
       <r>    9.7837   -0.0000 </r>
       <r>    9.9623   -0.0000 </r>
       <r>   10.1213   -0.0000 </r>
       <r>   10.2646   -0.0000 </r>
       <r>   10.4493   -0.0000 </r>
       <r>   10.5644   -0.0000 </r>
       <r>   10.7324   -0.0000 </r>
       <r>   10.8780   -0.0000 </r>
       <r>   11.0441   -0.0000 </r>
       <r>   11.2673   -0.0000 </r>
       <r>   11.7931   -0.0000 </r>
       <r>   11.9349   -0.0000 </r>
       <r>   12.0402   -0.0000 </r>
       <r>   12.3905   -0.0000 </r>
       <r>   12.7056   -0.0000 </r>
      </set>
      <set comment="kpoint 34">
       <r>   -3.0122    1.0000 </r>
       <r>   -1.3285    1.0000 </r>
       <r>   -1.0024    1.0000 </r>
       <r>   -0.5959    1.0000 </r>
       <r>   -0.3843    1.0000 </r>
       <r>   -0.2161    1.0000 </r>
       <r>    0.2519    1.0000 </r>
       <r>    0.7123    1.0000 </r>
       <r>    0.8085    1.0000 </r>
       <r>    1.0070    1.0000 </r>
       <r>    1.2666    1.0000 </r>
       <r>    1.4268    1.0000 </r>
       <r>    1.8063    1.0000 </r>
       <r>    1.9389    1.0000 </r>
       <r>    2.8707    1.0000 </r>
       <r>    2.9583    1.0000 </r>
       <r>    3.4878    1.0000 </r>
       <r>    3.9772    1.0000 </r>
       <r>    4.2144    1.0000 </r>
       <r>    4.3954    1.0000 </r>
       <r>    4.9564    1.0000 </r>
       <r>    5.1953    1.0000 </r>
       <r>    5.2802    1.0000 </r>
       <r>    5.7592    1.0000 </r>
       <r>    5.8302    1.0000 </r>
       <r>    5.9467    1.0000 </r>
       <r>    6.0200    1.0000 </r>
       <r>    6.1823    1.0000 </r>
       <r>    6.2880    1.0000 </r>
       <r>    6.3774    1.0000 </r>
       <r>    6.5269    1.0000 </r>
       <r>    6.6675    1.0000 </r>
       <r>    6.8105    1.0000 </r>
       <r>    6.9796    1.0000 </r>
       <r>    7.1769    1.0000 </r>
       <r>    7.3346    1.0000 </r>
       <r>    7.5631    1.0000 </r>
       <r>    7.7431    1.0000 </r>
       <r>    7.8413    1.0000 </r>
       <r>    8.1080    1.0072 </r>
       <r>    8.1566    1.0149 </r>
       <r>    8.2704    1.0355 </r>
       <r>    8.3804    0.9489 </r>
       <r>    8.5257    0.4524 </r>
       <r>    8.7355   -0.0329 </r>
       <r>    8.8832   -0.0128 </r>
       <r>    9.1465   -0.0000 </r>
       <r>    9.6249   -0.0000 </r>
       <r>    9.7752   -0.0000 </r>
       <r>    9.8511   -0.0000 </r>
       <r>    9.9408   -0.0000 </r>
       <r>   10.0666   -0.0000 </r>
       <r>   10.3126   -0.0000 </r>
       <r>   10.4058   -0.0000 </r>
       <r>   10.5075   -0.0000 </r>
       <r>   10.6785   -0.0000 </r>
       <r>   10.8699   -0.0000 </r>
       <r>   11.1170   -0.0000 </r>
       <r>   11.2571   -0.0000 </r>
       <r>   11.7290   -0.0000 </r>
       <r>   11.8738   -0.0000 </r>
       <r>   12.1509   -0.0000 </r>
       <r>   12.3359   -0.0000 </r>
       <r>   12.7672   -0.0000 </r>
      </set>
      <set comment="kpoint 35">
       <r>   -3.0099    1.0000 </r>
       <r>   -1.3254    1.0000 </r>
       <r>   -1.0239    1.0000 </r>
       <r>   -0.7111    1.0000 </r>
       <r>   -0.2465    1.0000 </r>
       <r>   -0.1230    1.0000 </r>
       <r>    0.2640    1.0000 </r>
       <r>    0.5241    1.0000 </r>
       <r>    0.7993    1.0000 </r>
       <r>    1.1010    1.0000 </r>
       <r>    1.2738    1.0000 </r>
       <r>    1.4146    1.0000 </r>
       <r>    1.6631    1.0000 </r>
       <r>    2.1484    1.0000 </r>
       <r>    2.8461    1.0000 </r>
       <r>    2.9662    1.0000 </r>
       <r>    3.3861    1.0000 </r>
       <r>    3.9922    1.0000 </r>
       <r>    4.1967    1.0000 </r>
       <r>    4.3821    1.0000 </r>
       <r>    5.0651    1.0000 </r>
       <r>    5.2305    1.0000 </r>
       <r>    5.3017    1.0000 </r>
       <r>    5.6070    1.0000 </r>
       <r>    5.8168    1.0000 </r>
       <r>    5.9146    1.0000 </r>
       <r>    5.9994    1.0000 </r>
       <r>    6.1398    1.0000 </r>
       <r>    6.2189    1.0000 </r>
       <r>    6.3837    1.0000 </r>
       <r>    6.6179    1.0000 </r>
       <r>    6.7361    1.0000 </r>
       <r>    6.9069    1.0000 </r>
       <r>    7.0423    1.0000 </r>
       <r>    7.2252    1.0000 </r>
       <r>    7.3908    1.0000 </r>
       <r>    7.5270    1.0000 </r>
       <r>    7.6325    1.0000 </r>
       <r>    7.8150    1.0000 </r>
       <r>    7.9563    1.0003 </r>
       <r>    8.2283    1.0306 </r>
       <r>    8.3946    0.9196 </r>
       <r>    8.4838    0.6279 </r>
       <r>    8.5599    0.3127 </r>
       <r>    8.6774    0.0062 </r>
       <r>    8.8154   -0.0274 </r>
       <r>    9.2505   -0.0000 </r>
       <r>    9.4787   -0.0000 </r>
       <r>    9.6634   -0.0000 </r>
       <r>    9.8340   -0.0000 </r>
       <r>    9.9811   -0.0000 </r>
       <r>   10.1347   -0.0000 </r>
       <r>   10.2902   -0.0000 </r>
       <r>   10.3375   -0.0000 </r>
       <r>   10.5049   -0.0000 </r>
       <r>   10.6582   -0.0000 </r>
       <r>   10.8195   -0.0000 </r>
       <r>   11.1086   -0.0000 </r>
       <r>   11.4498   -0.0000 </r>
       <r>   11.6728   -0.0000 </r>
       <r>   11.8041   -0.0000 </r>
       <r>   12.1222   -0.0000 </r>
       <r>   12.3516   -0.0000 </r>
       <r>   12.6323   -0.0000 </r>
      </set>
      <set comment="kpoint 36">
       <r>   -3.0126    1.0000 </r>
       <r>   -1.3305    1.0000 </r>
       <r>   -0.9679    1.0000 </r>
       <r>   -0.7280    1.0000 </r>
       <r>   -0.2982    1.0000 </r>
       <r>   -0.0264    1.0000 </r>
       <r>    0.1903    1.0000 </r>
       <r>    0.4550    1.0000 </r>
       <r>    0.8016    1.0000 </r>
       <r>    1.0321    1.0000 </r>
       <r>    1.2504    1.0000 </r>
       <r>    1.4899    1.0000 </r>
       <r>    1.8121    1.0000 </r>
       <r>    2.1366    1.0000 </r>
       <r>    2.7600    1.0000 </r>
       <r>    3.0964    1.0000 </r>
       <r>    3.2831    1.0000 </r>
       <r>    4.0578    1.0000 </r>
       <r>    4.2099    1.0000 </r>
       <r>    4.3495    1.0000 </r>
       <r>    5.0392    1.0000 </r>
       <r>    5.1218    1.0000 </r>
       <r>    5.2646    1.0000 </r>
       <r>    5.6397    1.0000 </r>
       <r>    5.8580    1.0000 </r>
       <r>    5.9260    1.0000 </r>
       <r>    6.0259    1.0000 </r>
       <r>    6.1976    1.0000 </r>
       <r>    6.2243    1.0000 </r>
       <r>    6.3574    1.0000 </r>
       <r>    6.6239    1.0000 </r>
       <r>    6.7479    1.0000 </r>
       <r>    6.9102    1.0000 </r>
       <r>    7.0759    1.0000 </r>
       <r>    7.2485    1.0000 </r>
       <r>    7.2705    1.0000 </r>
       <r>    7.5175    1.0000 </r>
       <r>    7.7255    1.0000 </r>
       <r>    7.8522    1.0000 </r>
       <r>    7.9642    1.0004 </r>
       <r>    8.1278    1.0099 </r>
       <r>    8.2720    1.0354 </r>
       <r>    8.4302    0.8236 </r>
       <r>    8.5609    0.3091 </r>
       <r>    8.6686    0.0177 </r>
       <r>    8.9434   -0.0049 </r>
       <r>    9.2333   -0.0000 </r>
       <r>    9.5788   -0.0000 </r>
       <r>    9.7210   -0.0000 </r>
       <r>    9.7891   -0.0000 </r>
       <r>   10.0038   -0.0000 </r>
       <r>   10.1198   -0.0000 </r>
       <r>   10.1685   -0.0000 </r>
       <r>   10.3839   -0.0000 </r>
       <r>   10.4896   -0.0000 </r>
       <r>   10.6308   -0.0000 </r>
       <r>   10.8806   -0.0000 </r>
       <r>   11.0327   -0.0000 </r>
       <r>   11.4195   -0.0000 </r>
       <r>   11.7417   -0.0000 </r>
       <r>   12.0646   -0.0000 </r>
       <r>   12.1775   -0.0000 </r>
       <r>   12.3049   -0.0000 </r>
       <r>   12.4828   -0.0000 </r>
      </set>
      <set comment="kpoint 37">
       <r>   -3.0194    1.0000 </r>
       <r>   -1.2707    1.0000 </r>
       <r>   -0.8938    1.0000 </r>
       <r>   -0.7341    1.0000 </r>
       <r>   -0.4947    1.0000 </r>
       <r>   -0.1137    1.0000 </r>
       <r>    0.2222    1.0000 </r>
       <r>    0.5691    1.0000 </r>
       <r>    0.7691    1.0000 </r>
       <r>    1.1045    1.0000 </r>
       <r>    1.3113    1.0000 </r>
       <r>    1.5752    1.0000 </r>
       <r>    1.7568    1.0000 </r>
       <r>    1.9019    1.0000 </r>
       <r>    2.8771    1.0000 </r>
       <r>    3.1550    1.0000 </r>
       <r>    3.2828    1.0000 </r>
       <r>    4.0640    1.0000 </r>
       <r>    4.1854    1.0000 </r>
       <r>    4.3666    1.0000 </r>
       <r>    4.9458    1.0000 </r>
       <r>    5.1363    1.0000 </r>
       <r>    5.3398    1.0000 </r>
       <r>    5.6556    1.0000 </r>
       <r>    5.7943    1.0000 </r>
       <r>    5.9854    1.0000 </r>
       <r>    6.0902    1.0000 </r>
       <r>    6.1448    1.0000 </r>
       <r>    6.2859    1.0000 </r>
       <r>    6.3508    1.0000 </r>
       <r>    6.5058    1.0000 </r>
       <r>    6.6653    1.0000 </r>
       <r>    6.8582    1.0000 </r>
       <r>    7.0750    1.0000 </r>
       <r>    7.1710    1.0000 </r>
       <r>    7.3765    1.0000 </r>
       <r>    7.5155    1.0000 </r>
       <r>    7.7051    1.0000 </r>
       <r>    7.8925    1.0001 </r>
       <r>    7.9464    1.0002 </r>
       <r>    8.1485    1.0133 </r>
       <r>    8.3293    1.0156 </r>
       <r>    8.4800    0.6430 </r>
       <r>    8.5440    0.3762 </r>
       <r>    8.6705    0.0150 </r>
       <r>    8.8670   -0.0159 </r>
       <r>    9.1092   -0.0001 </r>
       <r>    9.5597   -0.0000 </r>
       <r>    9.7685   -0.0000 </r>
       <r>    9.8749   -0.0000 </r>
       <r>   10.0899   -0.0000 </r>
       <r>   10.1887   -0.0000 </r>
       <r>   10.2783   -0.0000 </r>
       <r>   10.3364   -0.0000 </r>
       <r>   10.4496   -0.0000 </r>
       <r>   10.7220   -0.0000 </r>
       <r>   10.7950   -0.0000 </r>
       <r>   11.0143   -0.0000 </r>
       <r>   11.3006   -0.0000 </r>
       <r>   11.7766   -0.0000 </r>
       <r>   11.9369   -0.0000 </r>
       <r>   12.1696   -0.0000 </r>
       <r>   12.4310   -0.0000 </r>
       <r>   12.5548   -0.0000 </r>
      </set>
      <set comment="kpoint 38">
       <r>   -3.0163    1.0000 </r>
       <r>   -1.2842    1.0000 </r>
       <r>   -0.9737    1.0000 </r>
       <r>   -0.7585    1.0000 </r>
       <r>   -0.3306    1.0000 </r>
       <r>    0.0378    1.0000 </r>
       <r>    0.2116    1.0000 </r>
       <r>    0.3317    1.0000 </r>
       <r>    0.8214    1.0000 </r>
       <r>    0.9393    1.0000 </r>
       <r>    1.3978    1.0000 </r>
       <r>    1.5978    1.0000 </r>
       <r>    1.7248    1.0000 </r>
       <r>    2.0897    1.0000 </r>
       <r>    2.8068    1.0000 </r>
       <r>    3.0380    1.0000 </r>
       <r>    3.4184    1.0000 </r>
       <r>    3.8696    1.0000 </r>
       <r>    4.2322    1.0000 </r>
       <r>    4.4045    1.0000 </r>
       <r>    4.9334    1.0000 </r>
       <r>    5.1281    1.0000 </r>
       <r>    5.3708    1.0000 </r>
       <r>    5.6692    1.0000 </r>
       <r>    5.8676    1.0000 </r>
       <r>    5.9318    1.0000 </r>
       <r>    6.1356    1.0000 </r>
       <r>    6.1872    1.0000 </r>
       <r>    6.2568    1.0000 </r>
       <r>    6.4090    1.0000 </r>
       <r>    6.5603    1.0000 </r>
       <r>    6.5714    1.0000 </r>
       <r>    6.8505    1.0000 </r>
       <r>    7.0473    1.0000 </r>
       <r>    7.0900    1.0000 </r>
       <r>    7.4103    1.0000 </r>
       <r>    7.5197    1.0000 </r>
       <r>    7.7608    1.0000 </r>
       <r>    7.8784    1.0000 </r>
       <r>    7.9553    1.0003 </r>
       <r>    8.2154    1.0279 </r>
       <r>    8.3476    0.9982 </r>
       <r>    8.3923    0.9247 </r>
       <r>    8.5060    0.5355 </r>
       <r>    8.7042   -0.0190 </r>
       <r>    8.8956   -0.0107 </r>
       <r>    9.2562   -0.0000 </r>
       <r>    9.4702   -0.0000 </r>
       <r>    9.6167   -0.0000 </r>
       <r>    9.8097   -0.0000 </r>
       <r>   10.0311   -0.0000 </r>
       <r>   10.1376   -0.0000 </r>
       <r>   10.3199   -0.0000 </r>
       <r>   10.4283   -0.0000 </r>
       <r>   10.5398   -0.0000 </r>
       <r>   10.6640   -0.0000 </r>
       <r>   10.7683   -0.0000 </r>
       <r>   11.0382   -0.0000 </r>
       <r>   11.3367   -0.0000 </r>
       <r>   11.7212   -0.0000 </r>
       <r>   11.8433   -0.0000 </r>
       <r>   12.2422   -0.0000 </r>
       <r>   12.4995   -0.0000 </r>
       <r>   12.6395   -0.0000 </r>
      </set>
      <set comment="kpoint 39">
       <r>   -3.0112    1.0000 </r>
       <r>   -1.3499    1.0000 </r>
       <r>   -1.0049    1.0000 </r>
       <r>   -0.6391    1.0000 </r>
       <r>   -0.3487    1.0000 </r>
       <r>    0.0086    1.0000 </r>
       <r>    0.1938    1.0000 </r>
       <r>    0.5342    1.0000 </r>
       <r>    0.7955    1.0000 </r>
       <r>    0.9127    1.0000 </r>
       <r>    1.2783    1.0000 </r>
       <r>    1.5044    1.0000 </r>
       <r>    1.6911    1.0000 </r>
       <r>    2.1992    1.0000 </r>
       <r>    2.8423    1.0000 </r>
       <r>    3.0120    1.0000 </r>
       <r>    3.3692    1.0000 </r>
       <r>    3.9815    1.0000 </r>
       <r>    4.1051    1.0000 </r>
       <r>    4.4288    1.0000 </r>
       <r>    5.0689    1.0000 </r>
       <r>    5.2031    1.0000 </r>
       <r>    5.2979    1.0000 </r>
       <r>    5.6188    1.0000 </r>
       <r>    5.8197    1.0000 </r>
       <r>    5.9464    1.0000 </r>
       <r>    6.0386    1.0000 </r>
       <r>    6.1951    1.0000 </r>
       <r>    6.2789    1.0000 </r>
       <r>    6.4351    1.0000 </r>
       <r>    6.5744    1.0000 </r>
       <r>    6.6908    1.0000 </r>
       <r>    6.8828    1.0000 </r>
       <r>    7.0808    1.0000 </r>
       <r>    7.2019    1.0000 </r>
       <r>    7.3371    1.0000 </r>
       <r>    7.4751    1.0000 </r>
       <r>    7.6740    1.0000 </r>
       <r>    7.7973    1.0000 </r>
       <r>    7.9790    1.0005 </r>
       <r>    8.1533    1.0142 </r>
       <r>    8.2456    1.0336 </r>
       <r>    8.4210    0.8514 </r>
       <r>    8.4708    0.6796 </r>
       <r>    8.7538   -0.0353 </r>
       <r>    8.8615   -0.0170 </r>
       <r>    9.2805   -0.0000 </r>
       <r>    9.5954   -0.0000 </r>
       <r>    9.6788   -0.0000 </r>
       <r>    9.8304   -0.0000 </r>
       <r>    9.9492   -0.0000 </r>
       <r>   10.1448   -0.0000 </r>
       <r>   10.2892   -0.0000 </r>
       <r>   10.4219   -0.0000 </r>
       <r>   10.5725   -0.0000 </r>
       <r>   10.6262   -0.0000 </r>
       <r>   10.9003   -0.0000 </r>
       <r>   11.0284   -0.0000 </r>
       <r>   11.2971   -0.0000 </r>
       <r>   11.7462   -0.0000 </r>
       <r>   11.9263   -0.0000 </r>
       <r>   12.2279   -0.0000 </r>
       <r>   12.3103   -0.0000 </r>
       <r>   12.5332   -0.0000 </r>
      </set>
      <set comment="kpoint 40">
       <r>   -3.0165    1.0000 </r>
       <r>   -1.2928    1.0000 </r>
       <r>   -1.0224    1.0000 </r>
       <r>   -0.5733    1.0000 </r>
       <r>   -0.3836    1.0000 </r>
       <r>   -0.1212    1.0000 </r>
       <r>    0.0738    1.0000 </r>
       <r>    0.5849    1.0000 </r>
       <r>    0.8734    1.0000 </r>
       <r>    1.0287    1.0000 </r>
       <r>    1.3030    1.0000 </r>
       <r>    1.4215    1.0000 </r>
       <r>    1.8424    1.0000 </r>
       <r>    1.9891    1.0000 </r>
       <r>    2.8563    1.0000 </r>
       <r>    3.0656    1.0000 </r>
       <r>    3.4771    1.0000 </r>
       <r>    3.8699    1.0000 </r>
       <r>    4.1256    1.0000 </r>
       <r>    4.4084    1.0000 </r>
       <r>    5.0015    1.0000 </r>
       <r>    5.2117    1.0000 </r>
       <r>    5.3720    1.0000 </r>
       <r>    5.6877    1.0000 </r>
       <r>    5.8493    1.0000 </r>
       <r>    5.9458    1.0000 </r>
       <r>    6.0573    1.0000 </r>
       <r>    6.1070    1.0000 </r>
       <r>    6.3215    1.0000 </r>
       <r>    6.3728    1.0000 </r>
       <r>    6.4863    1.0000 </r>
       <r>    6.6870    1.0000 </r>
       <r>    6.8619    1.0000 </r>
       <r>    7.0206    1.0000 </r>
       <r>    7.1366    1.0000 </r>
       <r>    7.2973    1.0000 </r>
       <r>    7.5491    1.0000 </r>
       <r>    7.6360    1.0000 </r>
       <r>    7.8474    1.0000 </r>
       <r>    8.1107    1.0075 </r>
       <r>    8.1674    1.0170 </r>
       <r>    8.3543    0.9901 </r>
       <r>    8.4607    0.7183 </r>
       <r>    8.4828    0.6318 </r>
       <r>    8.5955    0.1861 </r>
       <r>    8.9513   -0.0042 </r>
       <r>    9.1652   -0.0000 </r>
       <r>    9.5184   -0.0000 </r>
       <r>    9.7317   -0.0000 </r>
       <r>    9.8787   -0.0000 </r>
       <r>   10.0682   -0.0000 </r>
       <r>   10.1859   -0.0000 </r>
       <r>   10.2985   -0.0000 </r>
       <r>   10.3447   -0.0000 </r>
       <r>   10.5347   -0.0000 </r>
       <r>   10.6601   -0.0000 </r>
       <r>   10.8551   -0.0000 </r>
       <r>   10.9868   -0.0000 </r>
       <r>   11.3378   -0.0000 </r>
       <r>   11.6574   -0.0000 </r>
       <r>   11.9361   -0.0000 </r>
       <r>   12.1452   -0.0000 </r>
       <r>   12.4096   -0.0000 </r>
       <r>   12.7345   -0.0000 </r>
      </set>
      <set comment="kpoint 41">
       <r>   -2.7946    1.0000 </r>
       <r>   -1.5679    1.0000 </r>
       <r>   -1.2014    1.0000 </r>
       <r>   -0.9930    1.0000 </r>
       <r>   -0.8014    1.0000 </r>
       <r>   -0.3424    1.0000 </r>
       <r>    0.5616    1.0000 </r>
       <r>    0.9429    1.0000 </r>
       <r>    1.2111    1.0000 </r>
       <r>    1.6548    1.0000 </r>
       <r>    1.7618    1.0000 </r>
       <r>    1.9405    1.0000 </r>
       <r>    2.1653    1.0000 </r>
       <r>    2.3337    1.0000 </r>
       <r>    2.5264    1.0000 </r>
       <r>    2.6582    1.0000 </r>
       <r>    3.3956    1.0000 </r>
       <r>    3.5675    1.0000 </r>
       <r>    3.9767    1.0000 </r>
       <r>    4.1990    1.0000 </r>
       <r>    4.4918    1.0000 </r>
       <r>    4.6523    1.0000 </r>
       <r>    4.8495    1.0000 </r>
       <r>    5.2305    1.0000 </r>
       <r>    5.3664    1.0000 </r>
       <r>    5.4645    1.0000 </r>
       <r>    5.7311    1.0000 </r>
       <r>    6.0033    1.0000 </r>
       <r>    6.1591    1.0000 </r>
       <r>    6.3753    1.0000 </r>
       <r>    6.4955    1.0000 </r>
       <r>    6.6794    1.0000 </r>
       <r>    6.9517    1.0000 </r>
       <r>    7.0544    1.0000 </r>
       <r>    7.1315    1.0000 </r>
       <r>    7.4355    1.0000 </r>
       <r>    7.8061    1.0000 </r>
       <r>    7.9426    1.0002 </r>
       <r>    8.0481    1.0024 </r>
       <r>    8.3148    1.0249 </r>
       <r>    8.4989    0.5654 </r>
       <r>    8.6120    0.1364 </r>
       <r>    8.6466    0.0544 </r>
       <r>    8.7269   -0.0304 </r>
       <r>    8.7749   -0.0346 </r>
       <r>    8.8909   -0.0115 </r>
       <r>    9.0440   -0.0006 </r>
       <r>    9.1111   -0.0001 </r>
       <r>   10.4655   -0.0000 </r>
       <r>   10.5365   -0.0000 </r>
       <r>   10.6560   -0.0000 </r>
       <r>   10.8300   -0.0000 </r>
       <r>   10.9560   -0.0000 </r>
       <r>   11.0363   -0.0000 </r>
       <r>   11.3116   -0.0000 </r>
       <r>   11.5227   -0.0000 </r>
       <r>   11.6097   -0.0000 </r>
       <r>   11.7142   -0.0000 </r>
       <r>   11.8429   -0.0000 </r>
       <r>   11.9058   -0.0000 </r>
       <r>   12.0548   -0.0000 </r>
       <r>   12.1760   -0.0000 </r>
       <r>   12.2121   -0.0000 </r>
       <r>   12.3747   -0.0000 </r>
      </set>
      <set comment="kpoint 42">
       <r>   -2.7816    1.0000 </r>
       <r>   -1.5719    1.0000 </r>
       <r>   -1.3065    1.0000 </r>
       <r>   -1.0121    1.0000 </r>
       <r>   -0.7842    1.0000 </r>
       <r>   -0.1681    1.0000 </r>
       <r>    0.6285    1.0000 </r>
       <r>    0.9914    1.0000 </r>
       <r>    1.1035    1.0000 </r>
       <r>    1.4895    1.0000 </r>
       <r>    1.7342    1.0000 </r>
       <r>    1.9493    1.0000 </r>
       <r>    2.1806    1.0000 </r>
       <r>    2.3548    1.0000 </r>
       <r>    2.5022    1.0000 </r>
       <r>    2.8005    1.0000 </r>
       <r>    3.2789    1.0000 </r>
       <r>    3.6619    1.0000 </r>
       <r>    3.9744    1.0000 </r>
       <r>    4.0561    1.0000 </r>
       <r>    4.4655    1.0000 </r>
       <r>    4.5723    1.0000 </r>
       <r>    4.8947    1.0000 </r>
       <r>    5.3167    1.0000 </r>
       <r>    5.4322    1.0000 </r>
       <r>    5.5517    1.0000 </r>
       <r>    5.6988    1.0000 </r>
       <r>    6.0232    1.0000 </r>
       <r>    6.1293    1.0000 </r>
       <r>    6.3982    1.0000 </r>
       <r>    6.4859    1.0000 </r>
       <r>    6.7368    1.0000 </r>
       <r>    6.9155    1.0000 </r>
       <r>    7.1369    1.0000 </r>
       <r>    7.2138    1.0000 </r>
       <r>    7.4564    1.0000 </r>
       <r>    7.7724    1.0000 </r>
       <r>    7.8700    1.0000 </r>
       <r>    8.0322    1.0017 </r>
       <r>    8.2207    1.0290 </r>
       <r>    8.4081    0.8868 </r>
       <r>    8.5055    0.5375 </r>
       <r>    8.6900   -0.0074 </r>
       <r>    8.7498   -0.0351 </r>
       <r>    8.8104   -0.0285 </r>
       <r>    8.9021   -0.0097 </r>
       <r>    9.0227   -0.0010 </r>
       <r>    9.2477   -0.0000 </r>
       <r>   10.3378   -0.0000 </r>
       <r>   10.5314   -0.0000 </r>
       <r>   10.6173   -0.0000 </r>
       <r>   10.8425   -0.0000 </r>
       <r>   10.9149   -0.0000 </r>
       <r>   11.1203   -0.0000 </r>
       <r>   11.3057   -0.0000 </r>
       <r>   11.4680   -0.0000 </r>
       <r>   11.6710   -0.0000 </r>
       <r>   11.6992   -0.0000 </r>
       <r>   11.8465   -0.0000 </r>
       <r>   11.9375   -0.0000 </r>
       <r>   12.0272   -0.0000 </r>
       <r>   12.1784   -0.0000 </r>
       <r>   12.1962   -0.0000 </r>
       <r>   12.3665   -0.0000 </r>
      </set>
      <set comment="kpoint 43">
       <r>   -2.7827    1.0000 </r>
       <r>   -1.5479    1.0000 </r>
       <r>   -1.2914    1.0000 </r>
       <r>   -1.1521    1.0000 </r>
       <r>   -0.6177    1.0000 </r>
       <r>   -0.1781    1.0000 </r>
       <r>    0.4954    1.0000 </r>
       <r>    0.8797    1.0000 </r>
       <r>    1.2160    1.0000 </r>
       <r>    1.5155    1.0000 </r>
       <r>    1.7881    1.0000 </r>
       <r>    1.9805    1.0000 </r>
       <r>    2.2748    1.0000 </r>
       <r>    2.3901    1.0000 </r>
       <r>    2.4577    1.0000 </r>
       <r>    2.7640    1.0000 </r>
       <r>    3.1645    1.0000 </r>
       <r>    3.6803    1.0000 </r>
       <r>    3.9311    1.0000 </r>
       <r>    4.0918    1.0000 </r>
       <r>    4.3839    1.0000 </r>
       <r>    4.5934    1.0000 </r>
       <r>    5.0425    1.0000 </r>
       <r>    5.2502    1.0000 </r>
       <r>    5.4858    1.0000 </r>
       <r>    5.5380    1.0000 </r>
       <r>    5.7174    1.0000 </r>
       <r>    5.9135    1.0000 </r>
       <r>    6.1191    1.0000 </r>
       <r>    6.4360    1.0000 </r>
       <r>    6.6194    1.0000 </r>
       <r>    6.7516    1.0000 </r>
       <r>    6.9166    1.0000 </r>
       <r>    7.0163    1.0000 </r>
       <r>    7.1836    1.0000 </r>
       <r>    7.4967    1.0000 </r>
       <r>    7.5865    1.0000 </r>
       <r>    7.9207    1.0001 </r>
       <r>    8.0727    1.0039 </r>
       <r>    8.2829    1.0347 </r>
       <r>    8.3631    0.9781 </r>
       <r>    8.5848    0.2216 </r>
       <r>    8.5984    0.1769 </r>
       <r>    8.7094   -0.0224 </r>
       <r>    8.8575   -0.0179 </r>
       <r>    8.9489   -0.0044 </r>
       <r>    9.1283   -0.0001 </r>
       <r>    9.2119   -0.0000 </r>
       <r>   10.3564   -0.0000 </r>
       <r>   10.4369   -0.0000 </r>
       <r>   10.6466   -0.0000 </r>
       <r>   10.7814   -0.0000 </r>
       <r>   11.0195   -0.0000 </r>
       <r>   11.1462   -0.0000 </r>
       <r>   11.3522   -0.0000 </r>
       <r>   11.5295   -0.0000 </r>
       <r>   11.5878   -0.0000 </r>
       <r>   11.6527   -0.0000 </r>
       <r>   11.7619   -0.0000 </r>
       <r>   11.9090   -0.0000 </r>
       <r>   12.0014   -0.0000 </r>
       <r>   12.1373   -0.0000 </r>
       <r>   12.2532   -0.0000 </r>
       <r>   12.3877   -0.0000 </r>
      </set>
      <set comment="kpoint 44">
       <r>   -2.7891    1.0000 </r>
       <r>   -1.5664    1.0000 </r>
       <r>   -1.3424    1.0000 </r>
       <r>   -0.8892    1.0000 </r>
       <r>   -0.6738    1.0000 </r>
       <r>   -0.4028    1.0000 </r>
       <r>    0.4846    1.0000 </r>
       <r>    0.9464    1.0000 </r>
       <r>    1.3113    1.0000 </r>
       <r>    1.5375    1.0000 </r>
       <r>    1.8217    1.0000 </r>
       <r>    1.9685    1.0000 </r>
       <r>    2.0838    1.0000 </r>
       <r>    2.3062    1.0000 </r>
       <r>    2.5170    1.0000 </r>
       <r>    2.8382    1.0000 </r>
       <r>    3.1826    1.0000 </r>
       <r>    3.6655    1.0000 </r>
       <r>    4.0346    1.0000 </r>
       <r>    4.1791    1.0000 </r>
       <r>    4.4708    1.0000 </r>
       <r>    4.6374    1.0000 </r>
       <r>    4.8587    1.0000 </r>
       <r>    5.1570    1.0000 </r>
       <r>    5.3872    1.0000 </r>
       <r>    5.5478    1.0000 </r>
       <r>    5.7083    1.0000 </r>
       <r>    5.9685    1.0000 </r>
       <r>    6.1576    1.0000 </r>
       <r>    6.4001    1.0000 </r>
       <r>    6.5825    1.0000 </r>
       <r>    6.6940    1.0000 </r>
       <r>    6.9658    1.0000 </r>
       <r>    7.0542    1.0000 </r>
       <r>    7.1301    1.0000 </r>
       <r>    7.5114    1.0000 </r>
       <r>    7.6671    1.0000 </r>
       <r>    7.8989    1.0001 </r>
       <r>    8.0377    1.0019 </r>
       <r>    8.2455    1.0336 </r>
       <r>    8.4546    0.7409 </r>
       <r>    8.5640    0.2970 </r>
       <r>    8.6566    0.0363 </r>
       <r>    8.7137   -0.0248 </r>
       <r>    8.8463   -0.0203 </r>
       <r>    8.9569   -0.0038 </r>
       <r>    9.0047   -0.0014 </r>
       <r>    9.2238   -0.0000 </r>
       <r>   10.3932   -0.0000 </r>
       <r>   10.4611   -0.0000 </r>
       <r>   10.6754   -0.0000 </r>
       <r>   10.7630   -0.0000 </r>
       <r>   11.0311   -0.0000 </r>
       <r>   11.1004   -0.0000 </r>
       <r>   11.4268   -0.0000 </r>
       <r>   11.4865   -0.0000 </r>
       <r>   11.5545   -0.0000 </r>
       <r>   11.7346   -0.0000 </r>
       <r>   11.7717   -0.0000 </r>
       <r>   11.8112   -0.0000 </r>
       <r>   12.0605   -0.0000 </r>
       <r>   12.2353   -0.0000 </r>
       <r>   12.3693   -0.0000 </r>
       <r>   12.4204   -0.0000 </r>
      </set>
      <set comment="kpoint 45">
       <r>   -2.7754    1.0000 </r>
       <r>   -1.5682    1.0000 </r>
       <r>   -1.4031    1.0000 </r>
       <r>   -0.9730    1.0000 </r>
       <r>   -0.6659    1.0000 </r>
       <r>   -0.2161    1.0000 </r>
       <r>    0.6102    1.0000 </r>
       <r>    0.8444    1.0000 </r>
       <r>    1.2115    1.0000 </r>
       <r>    1.5342    1.0000 </r>
       <r>    1.7798    1.0000 </r>
       <r>    1.9262    1.0000 </r>
       <r>    2.1295    1.0000 </r>
       <r>    2.4277    1.0000 </r>
       <r>    2.5322    1.0000 </r>
       <r>    2.6994    1.0000 </r>
       <r>    3.3635    1.0000 </r>
       <r>    3.6183    1.0000 </r>
       <r>    3.9455    1.0000 </r>
       <r>    4.0803    1.0000 </r>
       <r>    4.3736    1.0000 </r>
       <r>    4.6407    1.0000 </r>
       <r>    4.7760    1.0000 </r>
       <r>    5.3476    1.0000 </r>
       <r>    5.4985    1.0000 </r>
       <r>    5.5595    1.0000 </r>
       <r>    5.7268    1.0000 </r>
       <r>    5.9742    1.0000 </r>
       <r>    6.1190    1.0000 </r>
       <r>    6.4244    1.0000 </r>
       <r>    6.5731    1.0000 </r>
       <r>    6.7902    1.0000 </r>
       <r>    6.9284    1.0000 </r>
       <r>    7.0932    1.0000 </r>
       <r>    7.1566    1.0000 </r>
       <r>    7.4037    1.0000 </r>
       <r>    7.7396    1.0000 </r>
       <r>    7.8881    1.0000 </r>
       <r>    8.0746    1.0040 </r>
       <r>    8.3270    1.0173 </r>
       <r>    8.4333    0.8140 </r>
       <r>    8.4475    0.7662 </r>
       <r>    8.5786    0.2432 </r>
       <r>    8.7211   -0.0283 </r>
       <r>    8.8334   -0.0233 </r>
       <r>    8.9487   -0.0044 </r>
       <r>    9.0261   -0.0009 </r>
       <r>    9.2266   -0.0000 </r>
       <r>   10.4257   -0.0000 </r>
       <r>   10.5072   -0.0000 </r>
       <r>   10.7485   -0.0000 </r>
       <r>   10.8527   -0.0000 </r>
       <r>   10.8946   -0.0000 </r>
       <r>   11.1132   -0.0000 </r>
       <r>   11.2953   -0.0000 </r>
       <r>   11.3708   -0.0000 </r>
       <r>   11.5640   -0.0000 </r>
       <r>   11.6507   -0.0000 </r>
       <r>   11.7874   -0.0000 </r>
       <r>   11.9100   -0.0000 </r>
       <r>   11.9845   -0.0000 </r>
       <r>   12.1918   -0.0000 </r>
       <r>   12.2894   -0.0000 </r>
       <r>   12.3566   -0.0000 </r>
      </set>
      <set comment="kpoint 46">
       <r>   -2.7717    1.0000 </r>
       <r>   -1.6422    1.0000 </r>
       <r>   -1.3097    1.0000 </r>
       <r>   -0.9525    1.0000 </r>
       <r>   -0.7316    1.0000 </r>
       <r>   -0.2268    1.0000 </r>
       <r>    0.6936    1.0000 </r>
       <r>    1.0063    1.0000 </r>
       <r>    1.0866    1.0000 </r>
       <r>    1.4445    1.0000 </r>
       <r>    1.7137    1.0000 </r>
       <r>    1.9236    1.0000 </r>
       <r>    2.2121    1.0000 </r>
       <r>    2.3768    1.0000 </r>
       <r>    2.4975    1.0000 </r>
       <r>    2.7187    1.0000 </r>
       <r>    3.3177    1.0000 </r>
       <r>    3.6476    1.0000 </r>
       <r>    3.9921    1.0000 </r>
       <r>    4.1383    1.0000 </r>
       <r>    4.4247    1.0000 </r>
       <r>    4.6309    1.0000 </r>
       <r>    4.8064    1.0000 </r>
       <r>    5.2361    1.0000 </r>
       <r>    5.4659    1.0000 </r>
       <r>    5.5384    1.0000 </r>
       <r>    5.8516    1.0000 </r>
       <r>    5.9643    1.0000 </r>
       <r>    6.1864    1.0000 </r>
       <r>    6.3513    1.0000 </r>
       <r>    6.5333    1.0000 </r>
       <r>    6.6272    1.0000 </r>
       <r>    6.9263    1.0000 </r>
       <r>    7.1492    1.0000 </r>
       <r>    7.2324    1.0000 </r>
       <r>    7.5003    1.0000 </r>
       <r>    7.6356    1.0000 </r>
       <r>    7.9814    1.0005 </r>
       <r>    8.0360    1.0018 </r>
       <r>    8.2580    1.0350 </r>
       <r>    8.4776    0.6526 </r>
       <r>    8.5231    0.4632 </r>
       <r>    8.5701    0.2739 </r>
       <r>    8.6712    0.0141 </r>
       <r>    8.7906   -0.0324 </r>
       <r>    8.9010   -0.0099 </r>
       <r>    9.1003   -0.0001 </r>
       <r>    9.3384   -0.0000 </r>
       <r>   10.2417   -0.0000 </r>
       <r>   10.5000   -0.0000 </r>
       <r>   10.6755   -0.0000 </r>
       <r>   10.7956   -0.0000 </r>
       <r>   10.9303   -0.0000 </r>
       <r>   11.0474   -0.0000 </r>
       <r>   11.2476   -0.0000 </r>
       <r>   11.3950   -0.0000 </r>
       <r>   11.5570   -0.0000 </r>
       <r>   11.7506   -0.0000 </r>
       <r>   11.8861   -0.0000 </r>
       <r>   11.9492   -0.0000 </r>
       <r>   12.0494   -0.0000 </r>
       <r>   12.2036   -0.0000 </r>
       <r>   12.3018   -0.0000 </r>
       <r>   12.3996   -0.0000 </r>
      </set>
      <set comment="kpoint 47">
       <r>   -2.7786    1.0000 </r>
       <r>   -1.6890    1.0000 </r>
       <r>   -1.1099    1.0000 </r>
       <r>   -0.9830    1.0000 </r>
       <r>   -0.7716    1.0000 </r>
       <r>   -0.3640    1.0000 </r>
       <r>    0.6866    1.0000 </r>
       <r>    0.9140    1.0000 </r>
       <r>    1.3029    1.0000 </r>
       <r>    1.3915    1.0000 </r>
       <r>    1.7382    1.0000 </r>
       <r>    2.0063    1.0000 </r>
       <r>    2.1516    1.0000 </r>
       <r>    2.3695    1.0000 </r>
       <r>    2.4593    1.0000 </r>
       <r>    2.5932    1.0000 </r>
       <r>    3.4763    1.0000 </r>
       <r>    3.6245    1.0000 </r>
       <r>    4.0760    1.0000 </r>
       <r>    4.1894    1.0000 </r>
       <r>    4.4741    1.0000 </r>
       <r>    4.5859    1.0000 </r>
       <r>    4.8148    1.0000 </r>
       <r>    5.2511    1.0000 </r>
       <r>    5.3101    1.0000 </r>
       <r>    5.4334    1.0000 </r>
       <r>    5.8729    1.0000 </r>
       <r>    6.0460    1.0000 </r>
       <r>    6.2138    1.0000 </r>
       <r>    6.2978    1.0000 </r>
       <r>    6.4736    1.0000 </r>
       <r>    6.5870    1.0000 </r>
       <r>    7.0104    1.0000 </r>
       <r>    7.1121    1.0000 </r>
       <r>    7.2645    1.0000 </r>
       <r>    7.4698    1.0000 </r>
       <r>    7.6414    1.0000 </r>
       <r>    7.8970    1.0001 </r>
       <r>    8.1342    1.0109 </r>
       <r>    8.2595    1.0351 </r>
       <r>    8.4782    0.6503 </r>
       <r>    8.5363    0.4081 </r>
       <r>    8.5893    0.2063 </r>
       <r>    8.6164    0.1245 </r>
       <r>    8.7479   -0.0349 </r>
       <r>    8.9098   -0.0086 </r>
       <r>    9.1419   -0.0000 </r>
       <r>    9.2629   -0.0000 </r>
       <r>   10.3947   -0.0000 </r>
       <r>   10.4350   -0.0000 </r>
       <r>   10.6819   -0.0000 </r>
       <r>   10.8267   -0.0000 </r>
       <r>   11.0163   -0.0000 </r>
       <r>   11.1385   -0.0000 </r>
       <r>   11.2715   -0.0000 </r>
       <r>   11.4280   -0.0000 </r>
       <r>   11.6241   -0.0000 </r>
       <r>   11.6715   -0.0000 </r>
       <r>   11.8214   -0.0000 </r>
       <r>   11.9313   -0.0000 </r>
       <r>   12.1084   -0.0000 </r>
       <r>   12.1920   -0.0000 </r>
       <r>   12.2442   -0.0000 </r>
       <r>   12.3742   -0.0000 </r>
      </set>
      <set comment="kpoint 48">
       <r>   -2.7732    1.0000 </r>
       <r>   -1.5972    1.0000 </r>
       <r>   -1.3920    1.0000 </r>
       <r>   -0.9617    1.0000 </r>
       <r>   -0.6494    1.0000 </r>
       <r>   -0.2228    1.0000 </r>
       <r>    0.6089    1.0000 </r>
       <r>    0.9298    1.0000 </r>
       <r>    1.1856    1.0000 </r>
       <r>    1.5152    1.0000 </r>
       <r>    1.7567    1.0000 </r>
       <r>    1.8280    1.0000 </r>
       <r>    2.1150    1.0000 </r>
       <r>    2.3410    1.0000 </r>
       <r>    2.6081    1.0000 </r>
       <r>    2.7894    1.0000 </r>
       <r>    3.3133    1.0000 </r>
       <r>    3.6939    1.0000 </r>
       <r>    3.9717    1.0000 </r>
       <r>    4.0712    1.0000 </r>
       <r>    4.3319    1.0000 </r>
       <r>    4.6379    1.0000 </r>
       <r>    4.8718    1.0000 </r>
       <r>    5.2721    1.0000 </r>
       <r>    5.5031    1.0000 </r>
       <r>    5.6103    1.0000 </r>
       <r>    5.6806    1.0000 </r>
       <r>    5.9075    1.0000 </r>
       <r>    6.2300    1.0000 </r>
       <r>    6.4113    1.0000 </r>
       <r>    6.5428    1.0000 </r>
       <r>    6.7273    1.0000 </r>
       <r>    7.0113    1.0000 </r>
       <r>    7.1228    1.0000 </r>
       <r>    7.2226    1.0000 </r>
       <r>    7.4688    1.0000 </r>
       <r>    7.6640    1.0000 </r>
       <r>    7.8468    1.0000 </r>
       <r>    7.9806    1.0005 </r>
       <r>    8.2487    1.0340 </r>
       <r>    8.3271    1.0172 </r>
       <r>    8.5300    0.4342 </r>
       <r>    8.6681    0.0184 </r>
       <r>    8.7036   -0.0186 </r>
       <r>    8.7707   -0.0350 </r>
       <r>    8.9358   -0.0056 </r>
       <r>    9.0108   -0.0013 </r>
       <r>    9.3057   -0.0000 </r>
       <r>   10.3692   -0.0000 </r>
       <r>   10.5438   -0.0000 </r>
       <r>   10.6305   -0.0000 </r>
       <r>   10.8795   -0.0000 </r>
       <r>   11.0152   -0.0000 </r>
       <r>   11.1056   -0.0000 </r>
       <r>   11.2930   -0.0000 </r>
       <r>   11.4247   -0.0000 </r>
       <r>   11.5191   -0.0000 </r>
       <r>   11.6102   -0.0000 </r>
       <r>   11.8106   -0.0000 </r>
       <r>   12.0153   -0.0000 </r>
       <r>   12.0869   -0.0000 </r>
       <r>   12.2063   -0.0000 </r>
       <r>   12.3044   -0.0000 </r>
       <r>   12.3731   -0.0000 </r>
      </set>
      <set comment="kpoint 49">
       <r>   -2.7683    1.0000 </r>
       <r>   -1.6611    1.0000 </r>
       <r>   -1.3186    1.0000 </r>
       <r>   -0.9119    1.0000 </r>
       <r>   -0.7517    1.0000 </r>
       <r>   -0.1792    1.0000 </r>
       <r>    0.5955    1.0000 </r>
       <r>    0.9255    1.0000 </r>
       <r>    1.1985    1.0000 </r>
       <r>    1.4841    1.0000 </r>
       <r>    1.7190    1.0000 </r>
       <r>    2.0259    1.0000 </r>
       <r>    2.1953    1.0000 </r>
       <r>    2.2721    1.0000 </r>
       <r>    2.4945    1.0000 </r>
       <r>    2.6778    1.0000 </r>
       <r>    3.3686    1.0000 </r>
       <r>    3.6555    1.0000 </r>
       <r>    3.9423    1.0000 </r>
       <r>    4.0610    1.0000 </r>
       <r>    4.5213    1.0000 </r>
       <r>    4.5956    1.0000 </r>
       <r>    4.8917    1.0000 </r>
       <r>    5.2952    1.0000 </r>
       <r>    5.4061    1.0000 </r>
       <r>    5.5514    1.0000 </r>
       <r>    5.7853    1.0000 </r>
       <r>    5.9870    1.0000 </r>
       <r>    6.1850    1.0000 </r>
       <r>    6.3199    1.0000 </r>
       <r>    6.6217    1.0000 </r>
       <r>    6.6783    1.0000 </r>
       <r>    6.9726    1.0000 </r>
       <r>    7.0396    1.0000 </r>
       <r>    7.2897    1.0000 </r>
       <r>    7.3261    1.0000 </r>
       <r>    7.7036    1.0000 </r>
       <r>    7.9016    1.0001 </r>
       <r>    8.0321    1.0017 </r>
       <r>    8.3119    1.0263 </r>
       <r>    8.3598    0.9828 </r>
       <r>    8.4971    0.5727 </r>
       <r>    8.6056    0.1551 </r>
       <r>    8.6567    0.0362 </r>
       <r>    8.8652   -0.0163 </r>
       <r>    8.9399   -0.0052 </r>
       <r>    9.1812   -0.0000 </r>
       <r>    9.2925   -0.0000 </r>
       <r>   10.2864   -0.0000 </r>
       <r>   10.4372   -0.0000 </r>
       <r>   10.7066   -0.0000 </r>
       <r>   10.8736   -0.0000 </r>
       <r>   10.9966   -0.0000 </r>
       <r>   11.0824   -0.0000 </r>
       <r>   11.2918   -0.0000 </r>
       <r>   11.3888   -0.0000 </r>
       <r>   11.5012   -0.0000 </r>
       <r>   11.6789   -0.0000 </r>
       <r>   11.7384   -0.0000 </r>
       <r>   11.8226   -0.0000 </r>
       <r>   12.0935   -0.0000 </r>
       <r>   12.2157   -0.0000 </r>
       <r>   12.3537   -0.0000 </r>
       <r>   12.4102   -0.0000 </r>
      </set>
      <set comment="kpoint 50">
       <r>   -2.7806    1.0000 </r>
       <r>   -1.6330    1.0000 </r>
       <r>   -1.2790    1.0000 </r>
       <r>   -0.9016    1.0000 </r>
       <r>   -0.6690    1.0000 </r>
       <r>   -0.4534    1.0000 </r>
       <r>    0.6533    1.0000 </r>
       <r>    1.0177    1.0000 </r>
       <r>    1.2368    1.0000 </r>
       <r>    1.4198    1.0000 </r>
       <r>    1.8317    1.0000 </r>
       <r>    1.9256    1.0000 </r>
       <r>    2.1661    1.0000 </r>
       <r>    2.2989    1.0000 </r>
       <r>    2.3797    1.0000 </r>
       <r>    2.8135    1.0000 </r>
       <r>    3.2816    1.0000 </r>
       <r>    3.7359    1.0000 </r>
       <r>    4.0297    1.0000 </r>
       <r>    4.1975    1.0000 </r>
       <r>    4.4230    1.0000 </r>
       <r>    4.5577    1.0000 </r>
       <r>    4.8443    1.0000 </r>
       <r>    5.2469    1.0000 </r>
       <r>    5.3830    1.0000 </r>
       <r>    5.5148    1.0000 </r>
       <r>    5.7279    1.0000 </r>
       <r>    6.0164    1.0000 </r>
       <r>    6.2267    1.0000 </r>
       <r>    6.3312    1.0000 </r>
       <r>    6.4343    1.0000 </r>
       <r>    6.6479    1.0000 </r>
       <r>    7.0339    1.0000 </r>
       <r>    7.1013    1.0000 </r>
       <r>    7.2464    1.0000 </r>
       <r>    7.5357    1.0000 </r>
       <r>    7.7163    1.0000 </r>
       <r>    7.8620    1.0000 </r>
       <r>    8.0675    1.0035 </r>
       <r>    8.1790    1.0196 </r>
       <r>    8.4506    0.7552 </r>
       <r>    8.5677    0.2832 </r>
       <r>    8.6180    0.1201 </r>
       <r>    8.7082   -0.0216 </r>
       <r>    8.7898   -0.0326 </r>
       <r>    8.9223   -0.0070 </r>
       <r>    9.0465   -0.0005 </r>
       <r>    9.2506   -0.0000 </r>
       <r>   10.3952   -0.0000 </r>
       <r>   10.5284   -0.0000 </r>
       <r>   10.7105   -0.0000 </r>
       <r>   10.8067   -0.0000 </r>
       <r>   10.8460   -0.0000 </r>
       <r>   11.1402   -0.0000 </r>
       <r>   11.4180   -0.0000 </r>
       <r>   11.4788   -0.0000 </r>
       <r>   11.6040   -0.0000 </r>
       <r>   11.7098   -0.0000 </r>
       <r>   11.7654   -0.0000 </r>
       <r>   11.9025   -0.0000 </r>
       <r>   12.0508   -0.0000 </r>
       <r>   12.1280   -0.0000 </r>
       <r>   12.2322   -0.0000 </r>
       <r>   12.3688   -0.0000 </r>
      </set>
      <set comment="kpoint 51">
       <r>   -2.7640    1.0000 </r>
       <r>   -1.6669    1.0000 </r>
       <r>   -1.3153    1.0000 </r>
       <r>   -1.0066    1.0000 </r>
       <r>   -0.6204    1.0000 </r>
       <r>   -0.2527    1.0000 </r>
       <r>    0.7060    1.0000 </r>
       <r>    0.9313    1.0000 </r>
       <r>    1.1659    1.0000 </r>
       <r>    1.4627    1.0000 </r>
       <r>    1.7077    1.0000 </r>
       <r>    2.0006    1.0000 </r>
       <r>    2.0912    1.0000 </r>
       <r>    2.2818    1.0000 </r>
       <r>    2.5926    1.0000 </r>
       <r>    2.7508    1.0000 </r>
       <r>    3.2296    1.0000 </r>
       <r>    3.7743    1.0000 </r>
       <r>    3.9729    1.0000 </r>
       <r>    4.1373    1.0000 </r>
       <r>    4.3665    1.0000 </r>
       <r>    4.4802    1.0000 </r>
       <r>    4.8924    1.0000 </r>
       <r>    5.2910    1.0000 </r>
       <r>    5.4462    1.0000 </r>
       <r>    5.5977    1.0000 </r>
       <r>    5.8095    1.0000 </r>
       <r>    5.9475    1.0000 </r>
       <r>    6.1914    1.0000 </r>
       <r>    6.3672    1.0000 </r>
       <r>    6.5108    1.0000 </r>
       <r>    6.6553    1.0000 </r>
       <r>    7.0141    1.0000 </r>
       <r>    7.1701    1.0000 </r>
       <r>    7.2818    1.0000 </r>
       <r>    7.4824    1.0000 </r>
       <r>    7.6723    1.0000 </r>
       <r>    7.9189    1.0001 </r>
       <r>    8.0185    1.0013 </r>
       <r>    8.1633    1.0162 </r>
       <r>    8.4095    0.8833 </r>
       <r>    8.4640    0.7059 </r>
       <r>    8.5736    0.2613 </r>
       <r>    8.6755    0.0086 </r>
       <r>    8.7622   -0.0354 </r>
       <r>    8.9930   -0.0018 </r>
       <r>    9.1883   -0.0000 </r>
       <r>    9.3477   -0.0000 </r>
       <r>   10.3015   -0.0000 </r>
       <r>   10.4485   -0.0000 </r>
       <r>   10.6779   -0.0000 </r>
       <r>   10.8304   -0.0000 </r>
       <r>   10.8817   -0.0000 </r>
       <r>   11.1335   -0.0000 </r>
       <r>   11.3012   -0.0000 </r>
       <r>   11.4551   -0.0000 </r>
       <r>   11.5216   -0.0000 </r>
       <r>   11.6723   -0.0000 </r>
       <r>   11.7937   -0.0000 </r>
       <r>   11.9084   -0.0000 </r>
       <r>   12.0130   -0.0000 </r>
       <r>   12.2522   -0.0000 </r>
       <r>   12.3133   -0.0000 </r>
       <r>   12.4138   -0.0000 </r>
      </set>
      <set comment="kpoint 52">
       <r>   -2.7710    1.0000 </r>
       <r>   -1.5710    1.0000 </r>
       <r>   -1.4258    1.0000 </r>
       <r>   -0.9935    1.0000 </r>
       <r>   -0.5870    1.0000 </r>
       <r>   -0.2792    1.0000 </r>
       <r>    0.6441    1.0000 </r>
       <r>    0.9044    1.0000 </r>
       <r>    1.2014    1.0000 </r>
       <r>    1.6474    1.0000 </r>
       <r>    1.7198    1.0000 </r>
       <r>    1.8606    1.0000 </r>
       <r>    2.1097    1.0000 </r>
       <r>    2.3070    1.0000 </r>
       <r>    2.5437    1.0000 </r>
       <r>    2.7169    1.0000 </r>
       <r>    3.3223    1.0000 </r>
       <r>    3.6538    1.0000 </r>
       <r>    4.0044    1.0000 </r>
       <r>    4.0215    1.0000 </r>
       <r>    4.4387    1.0000 </r>
       <r>    4.6218    1.0000 </r>
       <r>    4.9304    1.0000 </r>
       <r>    5.2854    1.0000 </r>
       <r>    5.4290    1.0000 </r>
       <r>    5.6071    1.0000 </r>
       <r>    5.7440    1.0000 </r>
       <r>    5.9452    1.0000 </r>
       <r>    6.1050    1.0000 </r>
       <r>    6.3631    1.0000 </r>
       <r>    6.6128    1.0000 </r>
       <r>    6.7397    1.0000 </r>
       <r>    6.9777    1.0000 </r>
       <r>    7.0199    1.0000 </r>
       <r>    7.1869    1.0000 </r>
       <r>    7.4718    1.0000 </r>
       <r>    7.7259    1.0000 </r>
       <r>    7.8798    1.0000 </r>
       <r>    8.0754    1.0040 </r>
       <r>    8.2909    1.0334 </r>
       <r>    8.4296    0.8256 </r>
       <r>    8.5047    0.5408 </r>
       <r>    8.5556    0.3297 </r>
       <r>    8.6990   -0.0152 </r>
       <r>    8.7724   -0.0349 </r>
       <r>    8.9414   -0.0050 </r>
       <r>    9.1640   -0.0000 </r>
       <r>    9.3392   -0.0000 </r>
       <r>   10.2866   -0.0000 </r>
       <r>   10.4384   -0.0000 </r>
       <r>   10.6375   -0.0000 </r>
       <r>   10.8571   -0.0000 </r>
       <r>   10.9282   -0.0000 </r>
       <r>   11.1115   -0.0000 </r>
       <r>   11.3789   -0.0000 </r>
       <r>   11.4388   -0.0000 </r>
       <r>   11.4656   -0.0000 </r>
       <r>   11.7041   -0.0000 </r>
       <r>   11.7658   -0.0000 </r>
       <r>   11.8764   -0.0000 </r>
       <r>   12.0195   -0.0000 </r>
       <r>   12.1233   -0.0000 </r>
       <r>   12.2231   -0.0000 </r>
       <r>   12.3977   -0.0000 </r>
      </set>
      <set comment="kpoint 53">
       <r>   -2.4240    1.0000 </r>
       <r>   -1.9433    1.0000 </r>
       <r>   -1.7142    1.0000 </r>
       <r>   -1.2645    1.0000 </r>
       <r>   -0.3412    1.0000 </r>
       <r>   -0.0404    1.0000 </r>
       <r>    0.3174    1.0000 </r>
       <r>    0.8758    1.0000 </r>
       <r>    1.3925    1.0000 </r>
       <r>    1.7306    1.0000 </r>
       <r>    2.0345    1.0000 </r>
       <r>    2.2313    1.0000 </r>
       <r>    2.4402    1.0000 </r>
       <r>    2.6846    1.0000 </r>
       <r>    2.8557    1.0000 </r>
       <r>    3.2094    1.0000 </r>
       <r>    3.3358    1.0000 </r>
       <r>    3.5476    1.0000 </r>
       <r>    3.7890    1.0000 </r>
       <r>    3.8753    1.0000 </r>
       <r>    4.0689    1.0000 </r>
       <r>    4.2361    1.0000 </r>
       <r>    4.5045    1.0000 </r>
       <r>    4.6622    1.0000 </r>
       <r>    4.8485    1.0000 </r>
       <r>    4.9899    1.0000 </r>
       <r>    5.4202    1.0000 </r>
       <r>    5.5433    1.0000 </r>
       <r>    5.6166    1.0000 </r>
       <r>    5.7163    1.0000 </r>
       <r>    6.6966    1.0000 </r>
       <r>    7.0248    1.0000 </r>
       <r>    7.1829    1.0000 </r>
       <r>    7.4465    1.0000 </r>
       <r>    7.5964    1.0000 </r>
       <r>    7.6820    1.0000 </r>
       <r>    7.7258    1.0000 </r>
       <r>    8.1162    1.0082 </r>
       <r>    8.3353    1.0106 </r>
       <r>    8.6139    0.1312 </r>
       <r>    8.6816    0.0013 </r>
       <r>    8.8421   -0.0213 </r>
       <r>    9.0454   -0.0006 </r>
       <r>    9.1677   -0.0000 </r>
       <r>    9.3419   -0.0000 </r>
       <r>    9.5411   -0.0000 </r>
       <r>    9.6043   -0.0000 </r>
       <r>    9.7988   -0.0000 </r>
       <r>    9.9805   -0.0000 </r>
       <r>   10.1853   -0.0000 </r>
       <r>   10.4133   -0.0000 </r>
       <r>   10.5696   -0.0000 </r>
       <r>   10.7419   -0.0000 </r>
       <r>   10.8364   -0.0000 </r>
       <r>   10.9787   -0.0000 </r>
       <r>   11.2583   -0.0000 </r>
       <r>   11.4591   -0.0000 </r>
       <r>   11.6551   -0.0000 </r>
       <r>   11.8327   -0.0000 </r>
       <r>   11.9312   -0.0000 </r>
       <r>   12.0151   -0.0000 </r>
       <r>   12.1345   -0.0000 </r>
       <r>   12.3573   -0.0000 </r>
       <r>   12.4988   -0.0000 </r>
      </set>
      <set comment="kpoint 54">
       <r>   -2.3608    1.0000 </r>
       <r>   -1.9861    1.0000 </r>
       <r>   -1.7691    1.0000 </r>
       <r>   -1.3285    1.0000 </r>
       <r>   -0.3255    1.0000 </r>
       <r>    0.1005    1.0000 </r>
       <r>    0.4320    1.0000 </r>
       <r>    0.9110    1.0000 </r>
       <r>    1.3234    1.0000 </r>
       <r>    1.7273    1.0000 </r>
       <r>    1.8507    1.0000 </r>
       <r>    2.2076    1.0000 </r>
       <r>    2.4061    1.0000 </r>
       <r>    2.6419    1.0000 </r>
       <r>    2.9214    1.0000 </r>
       <r>    3.1773    1.0000 </r>
       <r>    3.2313    1.0000 </r>
       <r>    3.4920    1.0000 </r>
       <r>    3.8271    1.0000 </r>
       <r>    3.9589    1.0000 </r>
       <r>    4.1110    1.0000 </r>
       <r>    4.3070    1.0000 </r>
       <r>    4.4714    1.0000 </r>
       <r>    4.7645    1.0000 </r>
       <r>    4.9670    1.0000 </r>
       <r>    5.0430    1.0000 </r>
       <r>    5.2696    1.0000 </r>
       <r>    5.4540    1.0000 </r>
       <r>    5.6463    1.0000 </r>
       <r>    5.7119    1.0000 </r>
       <r>    6.8837    1.0000 </r>
       <r>    7.0624    1.0000 </r>
       <r>    7.2008    1.0000 </r>
       <r>    7.2822    1.0000 </r>
       <r>    7.5281    1.0000 </r>
       <r>    7.6645    1.0000 </r>
       <r>    7.8759    1.0000 </r>
       <r>    8.0878    1.0051 </r>
       <r>    8.3520    0.9930 </r>
       <r>    8.5999    0.1721 </r>
       <r>    8.6808    0.0022 </r>
       <r>    8.8082   -0.0290 </r>
       <r>    8.9425   -0.0049 </r>
       <r>    9.0958   -0.0002 </r>
       <r>    9.3962   -0.0000 </r>
       <r>    9.5051   -0.0000 </r>
       <r>    9.7523   -0.0000 </r>
       <r>    9.7815   -0.0000 </r>
       <r>    9.8590   -0.0000 </r>
       <r>   10.1704   -0.0000 </r>
       <r>   10.4222   -0.0000 </r>
       <r>   10.6906   -0.0000 </r>
       <r>   10.7449   -0.0000 </r>
       <r>   10.8492   -0.0000 </r>
       <r>   10.9630   -0.0000 </r>
       <r>   11.2188   -0.0000 </r>
       <r>   11.4466   -0.0000 </r>
       <r>   11.6576   -0.0000 </r>
       <r>   11.7850   -0.0000 </r>
       <r>   11.9344   -0.0000 </r>
       <r>   11.9937   -0.0000 </r>
       <r>   12.1886   -0.0000 </r>
       <r>   12.4077   -0.0000 </r>
       <r>   12.5795   -0.0000 </r>
      </set>
      <set comment="kpoint 55">
       <r>   -2.3573    1.0000 </r>
       <r>   -2.0814    1.0000 </r>
       <r>   -1.6719    1.0000 </r>
       <r>   -1.2319    1.0000 </r>
       <r>   -0.4801    1.0000 </r>
       <r>    0.1871    1.0000 </r>
       <r>    0.2942    1.0000 </r>
       <r>    0.9502    1.0000 </r>
       <r>    1.4414    1.0000 </r>
       <r>    1.7173    1.0000 </r>
       <r>    1.7857    1.0000 </r>
       <r>    2.0865    1.0000 </r>
       <r>    2.5357    1.0000 </r>
       <r>    2.6260    1.0000 </r>
       <r>    2.9521    1.0000 </r>
       <r>    3.1213    1.0000 </r>
       <r>    3.3377    1.0000 </r>
       <r>    3.6246    1.0000 </r>
       <r>    3.8311    1.0000 </r>
       <r>    3.9571    1.0000 </r>
       <r>    4.1174    1.0000 </r>
       <r>    4.2258    1.0000 </r>
       <r>    4.4912    1.0000 </r>
       <r>    4.6921    1.0000 </r>
       <r>    4.9065    1.0000 </r>
       <r>    5.0183    1.0000 </r>
       <r>    5.1934    1.0000 </r>
       <r>    5.4786    1.0000 </r>
       <r>    5.5980    1.0000 </r>
       <r>    5.8450    1.0000 </r>
       <r>    6.7863    1.0000 </r>
       <r>    7.0579    1.0000 </r>
       <r>    7.1582    1.0000 </r>
       <r>    7.4261    1.0000 </r>
       <r>    7.5474    1.0000 </r>
       <r>    7.6553    1.0000 </r>
       <r>    7.8262    1.0000 </r>
       <r>    8.0876    1.0051 </r>
       <r>    8.3461    0.9999 </r>
       <r>    8.5309    0.4303 </r>
       <r>    8.7002   -0.0161 </r>
       <r>    8.7645   -0.0354 </r>
       <r>    8.8674   -0.0158 </r>
       <r>    9.1638   -0.0000 </r>
       <r>    9.3320   -0.0000 </r>
       <r>    9.6353   -0.0000 </r>
       <r>    9.7779   -0.0000 </r>
       <r>    9.9194   -0.0000 </r>
       <r>   10.0166   -0.0000 </r>
       <r>   10.1246   -0.0000 </r>
       <r>   10.3889   -0.0000 </r>
       <r>   10.5980   -0.0000 </r>
       <r>   10.7721   -0.0000 </r>
       <r>   10.8878   -0.0000 </r>
       <r>   10.9414   -0.0000 </r>
       <r>   11.2094   -0.0000 </r>
       <r>   11.3609   -0.0000 </r>
       <r>   11.6466   -0.0000 </r>
       <r>   11.7667   -0.0000 </r>
       <r>   11.9196   -0.0000 </r>
       <r>   12.0236   -0.0000 </r>
       <r>   12.1907   -0.0000 </r>
       <r>   12.2630   -0.0000 </r>
       <r>   12.4821   -0.0000 </r>
      </set>
      <set comment="kpoint 56">
       <r>   -2.3769    1.0000 </r>
       <r>   -2.1044    1.0000 </r>
       <r>   -1.5062    1.0000 </r>
       <r>   -1.3414    1.0000 </r>
       <r>   -0.4423    1.0000 </r>
       <r>   -0.0266    1.0000 </r>
       <r>    0.4251    1.0000 </r>
       <r>    0.9932    1.0000 </r>
       <r>    1.3614    1.0000 </r>
       <r>    1.7306    1.0000 </r>
       <r>    1.8742    1.0000 </r>
       <r>    2.0348    1.0000 </r>
       <r>    2.4467    1.0000 </r>
       <r>    2.7107    1.0000 </r>
       <r>    3.0129    1.0000 </r>
       <r>    3.2291    1.0000 </r>
       <r>    3.3542    1.0000 </r>
       <r>    3.5244    1.0000 </r>
       <r>    3.7636    1.0000 </r>
       <r>    3.9150    1.0000 </r>
       <r>    4.1191    1.0000 </r>
       <r>    4.2755    1.0000 </r>
       <r>    4.6440    1.0000 </r>
       <r>    4.7160    1.0000 </r>
       <r>    4.8166    1.0000 </r>
       <r>    4.9357    1.0000 </r>
       <r>    5.1901    1.0000 </r>
       <r>    5.4777    1.0000 </r>
       <r>    5.6625    1.0000 </r>
       <r>    5.7794    1.0000 </r>
       <r>    6.6695    1.0000 </r>
       <r>    6.9389    1.0000 </r>
       <r>    7.2560    1.0000 </r>
       <r>    7.3653    1.0000 </r>
       <r>    7.5955    1.0000 </r>
       <r>    7.7074    1.0000 </r>
       <r>    7.8847    1.0000 </r>
       <r>    8.1395    1.0117 </r>
       <r>    8.4345    0.8099 </r>
       <r>    8.5037    0.5450 </r>
       <r>    8.6435    0.0605 </r>
       <r>    8.7084   -0.0218 </r>
       <r>    9.0506   -0.0005 </r>
       <r>    9.1858   -0.0000 </r>
       <r>    9.3381   -0.0000 </r>
       <r>    9.5139   -0.0000 </r>
       <r>    9.7180   -0.0000 </r>
       <r>    9.7873   -0.0000 </r>
       <r>   10.0165   -0.0000 </r>
       <r>   10.2614   -0.0000 </r>
       <r>   10.3677   -0.0000 </r>
       <r>   10.6116   -0.0000 </r>
       <r>   10.7380   -0.0000 </r>
       <r>   10.8415   -0.0000 </r>
       <r>   10.9817   -0.0000 </r>
       <r>   11.2445   -0.0000 </r>
       <r>   11.2754   -0.0000 </r>
       <r>   11.6636   -0.0000 </r>
       <r>   11.8108   -0.0000 </r>
       <r>   11.8680   -0.0000 </r>
       <r>   12.0838   -0.0000 </r>
       <r>   12.2539   -0.0000 </r>
       <r>   12.3915   -0.0000 </r>
       <r>   12.5514   -0.0000 </r>
      </set>
      <set comment="kpoint 57">
       <r>   -2.4273    1.0000 </r>
       <r>   -1.8711    1.0000 </r>
       <r>   -1.6733    1.0000 </r>
       <r>   -1.4731    1.0000 </r>
       <r>   -0.3403    1.0000 </r>
       <r>    0.1092    1.0000 </r>
       <r>    0.3736    1.0000 </r>
       <r>    0.9640    1.0000 </r>
       <r>    1.2923    1.0000 </r>
       <r>    1.6772    1.0000 </r>
       <r>    1.9470    1.0000 </r>
       <r>    2.1903    1.0000 </r>
       <r>    2.4775    1.0000 </r>
       <r>    2.6206    1.0000 </r>
       <r>    2.8502    1.0000 </r>
       <r>    3.2599    1.0000 </r>
       <r>    3.2938    1.0000 </r>
       <r>    3.5152    1.0000 </r>
       <r>    3.7955    1.0000 </r>
       <r>    3.9250    1.0000 </r>
       <r>    4.0360    1.0000 </r>
       <r>    4.4086    1.0000 </r>
       <r>    4.5950    1.0000 </r>
       <r>    4.6191    1.0000 </r>
       <r>    4.8605    1.0000 </r>
       <r>    4.9466    1.0000 </r>
       <r>    5.3710    1.0000 </r>
       <r>    5.4947    1.0000 </r>
       <r>    5.6376    1.0000 </r>
       <r>    5.7305    1.0000 </r>
       <r>    6.7183    1.0000 </r>
       <r>    7.0683    1.0000 </r>
       <r>    7.2676    1.0000 </r>
       <r>    7.3579    1.0000 </r>
       <r>    7.4619    1.0000 </r>
       <r>    7.6375    1.0000 </r>
       <r>    7.8517    1.0000 </r>
       <r>    8.1519    1.0139 </r>
       <r>    8.3027    1.0302 </r>
       <r>    8.5725    0.2652 </r>
       <r>    8.6842   -0.0016 </r>
       <r>    8.8239   -0.0255 </r>
       <r>    9.0722   -0.0003 </r>
       <r>    9.1532   -0.0000 </r>
       <r>    9.3204   -0.0000 </r>
       <r>    9.4969   -0.0000 </r>
       <r>    9.6592   -0.0000 </r>
       <r>    9.8681   -0.0000 </r>
       <r>   10.0081   -0.0000 </r>
       <r>   10.1473   -0.0000 </r>
       <r>   10.3343   -0.0000 </r>
       <r>   10.7013   -0.0000 </r>
       <r>   10.8071   -0.0000 </r>
       <r>   10.8983   -0.0000 </r>
       <r>   10.9420   -0.0000 </r>
       <r>   11.1712   -0.0000 </r>
       <r>   11.4630   -0.0000 </r>
       <r>   11.6073   -0.0000 </r>
       <r>   11.6767   -0.0000 </r>
       <r>   11.8854   -0.0000 </r>
       <r>   12.0445   -0.0000 </r>
       <r>   12.2178   -0.0000 </r>
       <r>   12.3714   -0.0000 </r>
       <r>   12.6422   -0.0000 </r>
      </set>
      <set comment="kpoint 58">
       <r>   -2.3491    1.0000 </r>
       <r>   -2.0053    1.0000 </r>
       <r>   -1.8296    1.0000 </r>
       <r>   -1.1800    1.0000 </r>
       <r>   -0.4190    1.0000 </r>
       <r>    0.1661    1.0000 </r>
       <r>    0.3510    1.0000 </r>
       <r>    0.8104    1.0000 </r>
       <r>    1.3548    1.0000 </r>
       <r>    1.7083    1.0000 </r>
       <r>    1.9331    1.0000 </r>
       <r>    2.3256    1.0000 </r>
       <r>    2.4612    1.0000 </r>
       <r>    2.6469    1.0000 </r>
       <r>    2.9950    1.0000 </r>
       <r>    3.0842    1.0000 </r>
       <r>    3.2425    1.0000 </r>
       <r>    3.3838    1.0000 </r>
       <r>    3.7971    1.0000 </r>
       <r>    3.9618    1.0000 </r>
       <r>    4.1158    1.0000 </r>
       <r>    4.2422    1.0000 </r>
       <r>    4.4555    1.0000 </r>
       <r>    4.7190    1.0000 </r>
       <r>    4.9920    1.0000 </r>
       <r>    5.0741    1.0000 </r>
       <r>    5.3232    1.0000 </r>
       <r>    5.4176    1.0000 </r>
       <r>    5.5925    1.0000 </r>
       <r>    5.8395    1.0000 </r>
       <r>    6.8153    1.0000 </r>
       <r>    7.0788    1.0000 </r>
       <r>    7.2156    1.0000 </r>
       <r>    7.3777    1.0000 </r>
       <r>    7.4522    1.0000 </r>
       <r>    7.6374    1.0000 </r>
       <r>    7.9239    1.0001 </r>
       <r>    8.0740    1.0039 </r>
       <r>    8.3914    0.9267 </r>
       <r>    8.6367    0.0748 </r>
       <r>    8.6885   -0.0060 </r>
       <r>    8.7527   -0.0353 </r>
       <r>    8.9822   -0.0023 </r>
       <r>    9.0396   -0.0006 </r>
       <r>    9.2430   -0.0000 </r>
       <r>    9.4952   -0.0000 </r>
       <r>    9.7318   -0.0000 </r>
       <r>    9.8403   -0.0000 </r>
       <r>    9.9782   -0.0000 </r>
       <r>   10.1619   -0.0000 </r>
       <r>   10.3996   -0.0000 </r>
       <r>   10.5972   -0.0000 </r>
       <r>   10.8149   -0.0000 </r>
       <r>   10.9146   -0.0000 </r>
       <r>   11.0165   -0.0000 </r>
       <r>   11.1838   -0.0000 </r>
       <r>   11.3716   -0.0000 </r>
       <r>   11.6385   -0.0000 </r>
       <r>   11.8066   -0.0000 </r>
       <r>   11.9210   -0.0000 </r>
       <r>   12.0234   -0.0000 </r>
       <r>   12.2402   -0.0000 </r>
       <r>   12.3526   -0.0000 </r>
       <r>   12.5215   -0.0000 </r>
      </set>
      <set comment="kpoint 59">
       <r>   -2.3691    1.0000 </r>
       <r>   -2.0441    1.0000 </r>
       <r>   -1.7226    1.0000 </r>
       <r>   -1.2118    1.0000 </r>
       <r>   -0.3486    1.0000 </r>
       <r>   -0.0710    1.0000 </r>
       <r>    0.4791    1.0000 </r>
       <r>    0.8307    1.0000 </r>
       <r>    1.2684    1.0000 </r>
       <r>    1.7816    1.0000 </r>
       <r>    1.9732    1.0000 </r>
       <r>    2.2671    1.0000 </r>
       <r>    2.4269    1.0000 </r>
       <r>    2.7469    1.0000 </r>
       <r>    2.9353    1.0000 </r>
       <r>    3.1599    1.0000 </r>
       <r>    3.3400    1.0000 </r>
       <r>    3.4191    1.0000 </r>
       <r>    3.7229    1.0000 </r>
       <r>    3.8213    1.0000 </r>
       <r>    4.1876    1.0000 </r>
       <r>    4.2270    1.0000 </r>
       <r>    4.4912    1.0000 </r>
       <r>    4.7918    1.0000 </r>
       <r>    4.8786    1.0000 </r>
       <r>    4.9535    1.0000 </r>
       <r>    5.3801    1.0000 </r>
       <r>    5.4875    1.0000 </r>
       <r>    5.6505    1.0000 </r>
       <r>    5.7383    1.0000 </r>
       <r>    6.7353    1.0000 </r>
       <r>    6.9901    1.0000 </r>
       <r>    7.2261    1.0000 </r>
       <r>    7.4837    1.0000 </r>
       <r>    7.6128    1.0000 </r>
       <r>    7.6341    1.0000 </r>
       <r>    7.7930    1.0000 </r>
       <r>    8.1559    1.0147 </r>
       <r>    8.3183    1.0230 </r>
       <r>    8.6161    0.1252 </r>
       <r>    8.6552    0.0387 </r>
       <r>    8.8172   -0.0270 </r>
       <r>    8.9569   -0.0038 </r>
       <r>    9.0834   -0.0002 </r>
       <r>    9.3354   -0.0000 </r>
       <r>    9.5512   -0.0000 </r>
       <r>    9.6050   -0.0000 </r>
       <r>    9.8217   -0.0000 </r>
       <r>    9.9617   -0.0000 </r>
       <r>   10.2178   -0.0000 </r>
       <r>   10.4142   -0.0000 </r>
       <r>   10.6030   -0.0000 </r>
       <r>   10.6977   -0.0000 </r>
       <r>   10.8759   -0.0000 </r>
       <r>   11.0528   -0.0000 </r>
       <r>   11.1834   -0.0000 </r>
       <r>   11.3784   -0.0000 </r>
       <r>   11.6165   -0.0000 </r>
       <r>   11.8127   -0.0000 </r>
       <r>   11.9412   -0.0000 </r>
       <r>   12.0972   -0.0000 </r>
       <r>   12.2325   -0.0000 </r>
       <r>   12.4375   -0.0000 </r>
       <r>   12.6087   -0.0000 </r>
      </set>
      <set comment="kpoint 60">
       <r>   -2.3931    1.0000 </r>
       <r>   -1.9938    1.0000 </r>
       <r>   -1.6415    1.0000 </r>
       <r>   -1.3854    1.0000 </r>
       <r>   -0.4176    1.0000 </r>
       <r>    0.0789    1.0000 </r>
       <r>    0.5619    1.0000 </r>
       <r>    0.8882    1.0000 </r>
       <r>    1.3556    1.0000 </r>
       <r>    1.5916    1.0000 </r>
       <r>    1.8921    1.0000 </r>
       <r>    2.1110    1.0000 </r>
       <r>    2.4727    1.0000 </r>
       <r>    2.6826    1.0000 </r>
       <r>    2.9073    1.0000 </r>
       <r>    3.1042    1.0000 </r>
       <r>    3.3493    1.0000 </r>
       <r>    3.7064    1.0000 </r>
       <r>    3.7433    1.0000 </r>
       <r>    3.9718    1.0000 </r>
       <r>    4.0375    1.0000 </r>
       <r>    4.3460    1.0000 </r>
       <r>    4.5750    1.0000 </r>
       <r>    4.6654    1.0000 </r>
       <r>    4.9123    1.0000 </r>
       <r>    4.9590    1.0000 </r>
       <r>    5.2549    1.0000 </r>
       <r>    5.4527    1.0000 </r>
       <r>    5.5945    1.0000 </r>
       <r>    5.8123    1.0000 </r>
       <r>    6.6928    1.0000 </r>
       <r>    7.0764    1.0000 </r>
       <r>    7.2550    1.0000 </r>
       <r>    7.3300    1.0000 </r>
       <r>    7.5182    1.0000 </r>
       <r>    7.6352    1.0000 </r>
       <r>    7.9320    1.0002 </r>
       <r>    8.1983    1.0240 </r>
       <r>    8.3683    0.9701 </r>
       <r>    8.4767    0.6562 </r>
       <r>    8.6988   -0.0151 </r>
       <r>    8.8568   -0.0180 </r>
       <r>    8.9694   -0.0030 </r>
       <r>    9.1760   -0.0000 </r>
       <r>    9.3045   -0.0000 </r>
       <r>    9.4734   -0.0000 </r>
       <r>    9.6372   -0.0000 </r>
       <r>    9.7327   -0.0000 </r>
       <r>   10.0154   -0.0000 </r>
       <r>   10.1677   -0.0000 </r>
       <r>   10.4223   -0.0000 </r>
       <r>   10.6118   -0.0000 </r>
       <r>   10.7777   -0.0000 </r>
       <r>   10.9480   -0.0000 </r>
       <r>   11.0459   -0.0000 </r>
       <r>   11.1608   -0.0000 </r>
       <r>   11.3845   -0.0000 </r>
       <r>   11.5711   -0.0000 </r>
       <r>   11.8056   -0.0000 </r>
       <r>   11.9464   -0.0000 </r>
       <r>   12.0000   -0.0000 </r>
       <r>   12.1484   -0.0000 </r>
       <r>   12.4413   -0.0000 </r>
       <r>   12.5102   -0.0000 </r>
      </set>
      <set comment="kpoint 61">
       <r>   -2.4170    1.0000 </r>
       <r>   -1.9525    1.0000 </r>
       <r>   -1.6844    1.0000 </r>
       <r>   -1.3137    1.0000 </r>
       <r>   -0.4500    1.0000 </r>
       <r>    0.1436    1.0000 </r>
       <r>    0.3247    1.0000 </r>
       <r>    0.9641    1.0000 </r>
       <r>    1.2888    1.0000 </r>
       <r>    1.6204    1.0000 </r>
       <r>    2.1014    1.0000 </r>
       <r>    2.2348    1.0000 </r>
       <r>    2.5253    1.0000 </r>
       <r>    2.5662    1.0000 </r>
       <r>    2.8436    1.0000 </r>
       <r>    3.1172    1.0000 </r>
       <r>    3.3172    1.0000 </r>
       <r>    3.5678    1.0000 </r>
       <r>    3.7895    1.0000 </r>
       <r>    3.9506    1.0000 </r>
       <r>    4.1221    1.0000 </r>
       <r>    4.3364    1.0000 </r>
       <r>    4.4626    1.0000 </r>
       <r>    4.6928    1.0000 </r>
       <r>    4.8385    1.0000 </r>
       <r>    5.0011    1.0000 </r>
       <r>    5.3527    1.0000 </r>
       <r>    5.4523    1.0000 </r>
       <r>    5.5314    1.0000 </r>
       <r>    5.8938    1.0000 </r>
       <r>    6.6838    1.0000 </r>
       <r>    7.0591    1.0000 </r>
       <r>    7.2709    1.0000 </r>
       <r>    7.3526    1.0000 </r>
       <r>    7.4726    1.0000 </r>
       <r>    7.5634    1.0000 </r>
       <r>    8.0206    1.0013 </r>
       <r>    8.0998    1.0063 </r>
       <r>    8.3308    1.0144 </r>
       <r>    8.6024    0.1645 </r>
       <r>    8.6467    0.0542 </r>
       <r>    8.7580   -0.0355 </r>
       <r>    8.9813   -0.0023 </r>
       <r>    9.1482   -0.0000 </r>
       <r>    9.2231   -0.0000 </r>
       <r>    9.5379   -0.0000 </r>
       <r>    9.7760   -0.0000 </r>
       <r>    9.9853   -0.0000 </r>
       <r>   10.0698   -0.0000 </r>
       <r>   10.2251   -0.0000 </r>
       <r>   10.3847   -0.0000 </r>
       <r>   10.5808   -0.0000 </r>
       <r>   10.6969   -0.0000 </r>
       <r>   10.9070   -0.0000 </r>
       <r>   10.9829   -0.0000 </r>
       <r>   11.2359   -0.0000 </r>
       <r>   11.3343   -0.0000 </r>
       <r>   11.6105   -0.0000 </r>
       <r>   11.7038   -0.0000 </r>
       <r>   11.8588   -0.0000 </r>
       <r>   12.1046   -0.0000 </r>
       <r>   12.1633   -0.0000 </r>
       <r>   12.3344   -0.0000 </r>
       <r>   12.5885   -0.0000 </r>
      </set>
      <set comment="kpoint 62">
       <r>   -2.4354    1.0000 </r>
       <r>   -1.9741    1.0000 </r>
       <r>   -1.5799    1.0000 </r>
       <r>   -1.3402    1.0000 </r>
       <r>   -0.4498    1.0000 </r>
       <r>   -0.0638    1.0000 </r>
       <r>    0.5099    1.0000 </r>
       <r>    0.9529    1.0000 </r>
       <r>    1.2219    1.0000 </r>
       <r>    1.6783    1.0000 </r>
       <r>    2.0405    1.0000 </r>
       <r>    2.2628    1.0000 </r>
       <r>    2.4186    1.0000 </r>
       <r>    2.7633    1.0000 </r>
       <r>    2.8448    1.0000 </r>
       <r>    3.1791    1.0000 </r>
       <r>    3.4249    1.0000 </r>
       <r>    3.4512    1.0000 </r>
       <r>    3.7265    1.0000 </r>
       <r>    3.8601    1.0000 </r>
       <r>    4.0773    1.0000 </r>
       <r>    4.3685    1.0000 </r>
       <r>    4.5752    1.0000 </r>
       <r>    4.7356    1.0000 </r>
       <r>    4.8218    1.0000 </r>
       <r>    5.0089    1.0000 </r>
       <r>    5.2798    1.0000 </r>
       <r>    5.4471    1.0000 </r>
       <r>    5.6441    1.0000 </r>
       <r>    5.7683    1.0000 </r>
       <r>    6.5783    1.0000 </r>
       <r>    6.9909    1.0000 </r>
       <r>    7.2822    1.0000 </r>
       <r>    7.3999    1.0000 </r>
       <r>    7.5394    1.0000 </r>
       <r>    7.6140    1.0000 </r>
       <r>    7.8257    1.0000 </r>
       <r>    8.0842    1.0048 </r>
       <r>    8.4778    0.6519 </r>
       <r>    8.5817    0.2324 </r>
       <r>    8.7071   -0.0209 </r>
       <r>    8.8860   -0.0123 </r>
       <r>    9.0733   -0.0003 </r>
       <r>    9.2027   -0.0000 </r>
       <r>    9.2936   -0.0000 </r>
       <r>    9.4535   -0.0000 </r>
       <r>    9.7407   -0.0000 </r>
       <r>    9.8372   -0.0000 </r>
       <r>    9.9672   -0.0000 </r>
       <r>   10.1923   -0.0000 </r>
       <r>   10.3079   -0.0000 </r>
       <r>   10.6341   -0.0000 </r>
       <r>   10.7321   -0.0000 </r>
       <r>   10.8033   -0.0000 </r>
       <r>   10.9982   -0.0000 </r>
       <r>   11.2531   -0.0000 </r>
       <r>   11.3626   -0.0000 </r>
       <r>   11.6161   -0.0000 </r>
       <r>   11.7540   -0.0000 </r>
       <r>   11.9367   -0.0000 </r>
       <r>   12.0236   -0.0000 </r>
       <r>   12.2263   -0.0000 </r>
       <r>   12.5180   -0.0000 </r>
       <r>   12.6056   -0.0000 </r>
      </set>
      <set comment="kpoint 63">
       <r>   -2.3350    1.0000 </r>
       <r>   -2.0549    1.0000 </r>
       <r>   -1.7521    1.0000 </r>
       <r>   -1.2714    1.0000 </r>
       <r>   -0.4074    1.0000 </r>
       <r>    0.1493    1.0000 </r>
       <r>    0.5220    1.0000 </r>
       <r>    0.8721    1.0000 </r>
       <r>    1.1967    1.0000 </r>
       <r>    1.7372    1.0000 </r>
       <r>    1.9596    1.0000 </r>
       <r>    2.1023    1.0000 </r>
       <r>    2.4007    1.0000 </r>
       <r>    2.6863    1.0000 </r>
       <r>    2.9538    1.0000 </r>
       <r>    3.1100    1.0000 </r>
       <r>    3.2707    1.0000 </r>
       <r>    3.4805    1.0000 </r>
       <r>    3.9006    1.0000 </r>
       <r>    4.0302    1.0000 </r>
       <r>    4.1238    1.0000 </r>
       <r>    4.2747    1.0000 </r>
       <r>    4.4727    1.0000 </r>
       <r>    4.7457    1.0000 </r>
       <r>    4.8653    1.0000 </r>
       <r>    5.0477    1.0000 </r>
       <r>    5.2774    1.0000 </r>
       <r>    5.4782    1.0000 </r>
       <r>    5.6048    1.0000 </r>
       <r>    5.7377    1.0000 </r>
       <r>    6.8390    1.0000 </r>
       <r>    7.0121    1.0000 </r>
       <r>    7.2314    1.0000 </r>
       <r>    7.4000    1.0000 </r>
       <r>    7.4952    1.0000 </r>
       <r>    7.6557    1.0000 </r>
       <r>    7.9265    1.0001 </r>
       <r>    8.1681    1.0172 </r>
       <r>    8.3094    1.0275 </r>
       <r>    8.5371    0.4047 </r>
       <r>    8.6549    0.0392 </r>
       <r>    8.7782   -0.0343 </r>
       <r>    8.9839   -0.0022 </r>
       <r>    9.0690   -0.0003 </r>
       <r>    9.3435   -0.0000 </r>
       <r>    9.4925   -0.0000 </r>
       <r>    9.6873   -0.0000 </r>
       <r>    9.7903   -0.0000 </r>
       <r>    9.9190   -0.0000 </r>
       <r>   10.1802   -0.0000 </r>
       <r>   10.3355   -0.0000 </r>
       <r>   10.6902   -0.0000 </r>
       <r>   10.8452   -0.0000 </r>
       <r>   10.8984   -0.0000 </r>
       <r>   11.0385   -0.0000 </r>
       <r>   11.2082   -0.0000 </r>
       <r>   11.3349   -0.0000 </r>
       <r>   11.6727   -0.0000 </r>
       <r>   11.7279   -0.0000 </r>
       <r>   11.9635   -0.0000 </r>
       <r>   12.0286   -0.0000 </r>
       <r>   12.2304   -0.0000 </r>
       <r>   12.3915   -0.0000 </r>
       <r>   12.6485   -0.0000 </r>
      </set>
      <set comment="kpoint 64">
       <r>   -2.3940    1.0000 </r>
       <r>   -2.0042    1.0000 </r>
       <r>   -1.7006    1.0000 </r>
       <r>   -1.2376    1.0000 </r>
       <r>   -0.5127    1.0000 </r>
       <r>    0.1844    1.0000 </r>
       <r>    0.3621    1.0000 </r>
       <r>    0.8704    1.0000 </r>
       <r>    1.4309    1.0000 </r>
       <r>    1.5489    1.0000 </r>
       <r>    2.0066    1.0000 </r>
       <r>    2.2211    1.0000 </r>
       <r>    2.5509    1.0000 </r>
       <r>    2.6464    1.0000 </r>
       <r>    2.9194    1.0000 </r>
       <r>    3.0460    1.0000 </r>
       <r>    3.3409    1.0000 </r>
       <r>    3.4924    1.0000 </r>
       <r>    3.6847    1.0000 </r>
       <r>    4.0164    1.0000 </r>
       <r>    4.1205    1.0000 </r>
       <r>    4.3506    1.0000 </r>
       <r>    4.5409    1.0000 </r>
       <r>    4.6828    1.0000 </r>
       <r>    4.9139    1.0000 </r>
       <r>    5.0278    1.0000 </r>
       <r>    5.2255    1.0000 </r>
       <r>    5.4191    1.0000 </r>
       <r>    5.5901    1.0000 </r>
       <r>    5.8518    1.0000 </r>
       <r>    6.6152    1.0000 </r>
       <r>    7.0472    1.0000 </r>
       <r>    7.2822    1.0000 </r>
       <r>    7.4727    1.0000 </r>
       <r>    7.5400    1.0000 </r>
       <r>    7.6428    1.0000 </r>
       <r>    7.8895    1.0000 </r>
       <r>    8.1373    1.0114 </r>
       <r>    8.3457    1.0003 </r>
       <r>    8.5209    0.4726 </r>
       <r>    8.7275   -0.0307 </r>
       <r>    8.8100   -0.0286 </r>
       <r>    9.0134   -0.0012 </r>
       <r>    9.1258   -0.0001 </r>
       <r>    9.2442   -0.0000 </r>
       <r>    9.4518   -0.0000 </r>
       <r>    9.6582   -0.0000 </r>
       <r>    9.8524   -0.0000 </r>
       <r>    9.9865   -0.0000 </r>
       <r>   10.2131   -0.0000 </r>
       <r>   10.4169   -0.0000 </r>
       <r>   10.6310   -0.0000 </r>
       <r>   10.7117   -0.0000 </r>
       <r>   10.9448   -0.0000 </r>
       <r>   11.0443   -0.0000 </r>
       <r>   11.2402   -0.0000 </r>
       <r>   11.3220   -0.0000 </r>
       <r>   11.6163   -0.0000 </r>
       <r>   11.7552   -0.0000 </r>
       <r>   11.9044   -0.0000 </r>
       <r>   12.0810   -0.0000 </r>
       <r>   12.2303   -0.0000 </r>
       <r>   12.2842   -0.0000 </r>
       <r>   12.5377   -0.0000 </r>
      </set>
      <set comment="kpoint 65">
       <r>   -2.3515    1.0000 </r>
       <r>   -1.9955    1.0000 </r>
       <r>   -1.8023    1.0000 </r>
       <r>   -1.2779    1.0000 </r>
       <r>   -0.3436    1.0000 </r>
       <r>    0.0978    1.0000 </r>
       <r>    0.4861    1.0000 </r>
       <r>    0.8812    1.0000 </r>
       <r>    1.2854    1.0000 </r>
       <r>    1.6010    1.0000 </r>
       <r>    2.0309    1.0000 </r>
       <r>    2.1386    1.0000 </r>
       <r>    2.3422    1.0000 </r>
       <r>    2.7529    1.0000 </r>
       <r>    2.8712    1.0000 </r>
       <r>    3.1957    1.0000 </r>
       <r>    3.3120    1.0000 </r>
       <r>    3.4819    1.0000 </r>
       <r>    3.8368    1.0000 </r>
       <r>    3.8911    1.0000 </r>
       <r>    4.0931    1.0000 </r>
       <r>    4.3751    1.0000 </r>
       <r>    4.4976    1.0000 </r>
       <r>    4.7544    1.0000 </r>
       <r>    4.9437    1.0000 </r>
       <r>    5.0154    1.0000 </r>
       <r>    5.2609    1.0000 </r>
       <r>    5.4415    1.0000 </r>
       <r>    5.6295    1.0000 </r>
       <r>    5.7251    1.0000 </r>
       <r>    6.8507    1.0000 </r>
       <r>    7.0468    1.0000 </r>
       <r>    7.2407    1.0000 </r>
       <r>    7.4326    1.0000 </r>
       <r>    7.5457    1.0000 </r>
       <r>    7.6716    1.0000 </r>
       <r>    7.8391    1.0000 </r>
       <r>    8.0610    1.0031 </r>
       <r>    8.2547    1.0347 </r>
       <r>    8.5116    0.5118 </r>
       <r>    8.7331   -0.0323 </r>
       <r>    8.8641   -0.0165 </r>
       <r>    8.9828   -0.0023 </r>
       <r>    9.0578   -0.0004 </r>
       <r>    9.3054   -0.0000 </r>
       <r>    9.4565   -0.0000 </r>
       <r>    9.6206   -0.0000 </r>
       <r>    9.8051   -0.0000 </r>
       <r>    9.9671   -0.0000 </r>
       <r>   10.2357   -0.0000 </r>
       <r>   10.3787   -0.0000 </r>
       <r>   10.6410   -0.0000 </r>
       <r>   10.8441   -0.0000 </r>
       <r>   10.9634   -0.0000 </r>
       <r>   10.9956   -0.0000 </r>
       <r>   11.1518   -0.0000 </r>
       <r>   11.4068   -0.0000 </r>
       <r>   11.5775   -0.0000 </r>
       <r>   11.7699   -0.0000 </r>
       <r>   11.9531   -0.0000 </r>
       <r>   12.0910   -0.0000 </r>
       <r>   12.1361   -0.0000 </r>
       <r>   12.4380   -0.0000 </r>
       <r>   12.6140   -0.0000 </r>
      </set>
      <set comment="kpoint 66">
       <r>   -2.3476    1.0000 </r>
       <r>   -2.0899    1.0000 </r>
       <r>   -1.6502    1.0000 </r>
       <r>   -1.2862    1.0000 </r>
       <r>   -0.4617    1.0000 </r>
       <r>    0.1464    1.0000 </r>
       <r>    0.4666    1.0000 </r>
       <r>    0.7683    1.0000 </r>
       <r>    1.4449    1.0000 </r>
       <r>    1.7072    1.0000 </r>
       <r>    1.8958    1.0000 </r>
       <r>    2.1381    1.0000 </r>
       <r>    2.5312    1.0000 </r>
       <r>    2.6219    1.0000 </r>
       <r>    3.0081    1.0000 </r>
       <r>    3.0431    1.0000 </r>
       <r>    3.2712    1.0000 </r>
       <r>    3.5596    1.0000 </r>
       <r>    3.9209    1.0000 </r>
       <r>    3.9262    1.0000 </r>
       <r>    4.0243    1.0000 </r>
       <r>    4.2889    1.0000 </r>
       <r>    4.5271    1.0000 </r>
       <r>    4.6077    1.0000 </r>
       <r>    4.8892    1.0000 </r>
       <r>    5.0340    1.0000 </r>
       <r>    5.2107    1.0000 </r>
       <r>    5.4113    1.0000 </r>
       <r>    5.6823    1.0000 </r>
       <r>    5.9357    1.0000 </r>
       <r>    6.7864    1.0000 </r>
       <r>    6.9711    1.0000 </r>
       <r>    7.1916    1.0000 </r>
       <r>    7.4156    1.0000 </r>
       <r>    7.5499    1.0000 </r>
       <r>    7.6854    1.0000 </r>
       <r>    7.8700    1.0000 </r>
       <r>    8.0190    1.0013 </r>
       <r>    8.3982    0.9112 </r>
       <r>    8.5656    0.2910 </r>
       <r>    8.7166   -0.0262 </r>
       <r>    8.8037   -0.0300 </r>
       <r>    8.9474   -0.0045 </r>
       <r>    9.1010   -0.0001 </r>
       <r>    9.3537   -0.0000 </r>
       <r>    9.5910   -0.0000 </r>
       <r>    9.6532   -0.0000 </r>
       <r>    9.8578   -0.0000 </r>
       <r>    9.9589   -0.0000 </r>
       <r>   10.2066   -0.0000 </r>
       <r>   10.3140   -0.0000 </r>
       <r>   10.6773   -0.0000 </r>
       <r>   10.7869   -0.0000 </r>
       <r>   10.9032   -0.0000 </r>
       <r>   10.9959   -0.0000 </r>
       <r>   11.2335   -0.0000 </r>
       <r>   11.3358   -0.0000 </r>
       <r>   11.6417   -0.0000 </r>
       <r>   11.7650   -0.0000 </r>
       <r>   11.8250   -0.0000 </r>
       <r>   12.1229   -0.0000 </r>
       <r>   12.2195   -0.0000 </r>
       <r>   12.3804   -0.0000 </r>
       <r>   12.4987   -0.0000 </r>
      </set>
      <set comment="kpoint 67">
       <r>   -2.4474    1.0000 </r>
       <r>   -1.9469    1.0000 </r>
       <r>   -1.5830    1.0000 </r>
       <r>   -1.3550    1.0000 </r>
       <r>   -0.4530    1.0000 </r>
       <r>    0.0483    1.0000 </r>
       <r>    0.3125    1.0000 </r>
       <r>    0.9668    1.0000 </r>
       <r>    1.3753    1.0000 </r>
       <r>    1.6594    1.0000 </r>
       <r>    1.9200    1.0000 </r>
       <r>    2.2572    1.0000 </r>
       <r>    2.4106    1.0000 </r>
       <r>    2.8061    1.0000 </r>
       <r>    2.9152    1.0000 </r>
       <r>    3.2477    1.0000 </r>
       <r>    3.3246    1.0000 </r>
       <r>    3.5409    1.0000 </r>
       <r>    3.7765    1.0000 </r>
       <r>    3.8533    1.0000 </r>
       <r>    3.9605    1.0000 </r>
       <r>    4.3750    1.0000 </r>
       <r>    4.5360    1.0000 </r>
       <r>    4.6538    1.0000 </r>
       <r>    4.8555    1.0000 </r>
       <r>    4.9516    1.0000 </r>
       <r>    5.2918    1.0000 </r>
       <r>    5.5141    1.0000 </r>
       <r>    5.6295    1.0000 </r>
       <r>    5.8409    1.0000 </r>
       <r>    6.6259    1.0000 </r>
       <r>    7.0510    1.0000 </r>
       <r>    7.2139    1.0000 </r>
       <r>    7.3498    1.0000 </r>
       <r>    7.5059    1.0000 </r>
       <r>    7.5665    1.0000 </r>
       <r>    7.8861    1.0000 </r>
       <r>    8.2041    1.0253 </r>
       <r>    8.4412    0.7880 </r>
       <r>    8.5347    0.4144 </r>
       <r>    8.6546    0.0397 </r>
       <r>    8.8477   -0.0200 </r>
       <r>    9.0859   -0.0002 </r>
       <r>    9.1291   -0.0001 </r>
       <r>    9.3043   -0.0000 </r>
       <r>    9.5075   -0.0000 </r>
       <r>    9.7428   -0.0000 </r>
       <r>    9.8621   -0.0000 </r>
       <r>    9.9902   -0.0000 </r>
       <r>   10.1508   -0.0000 </r>
       <r>   10.3669   -0.0000 </r>
       <r>   10.6264   -0.0000 </r>
       <r>   10.6998   -0.0000 </r>
       <r>   10.8417   -0.0000 </r>
       <r>   11.0208   -0.0000 </r>
       <r>   11.1856   -0.0000 </r>
       <r>   11.3530   -0.0000 </r>
       <r>   11.6844   -0.0000 </r>
       <r>   11.7981   -0.0000 </r>
       <r>   11.9598   -0.0000 </r>
       <r>   11.9881   -0.0000 </r>
       <r>   12.1698   -0.0000 </r>
       <r>   12.3859   -0.0000 </r>
       <r>   12.6055   -0.0000 </r>
      </set>
      <set comment="kpoint 68">
       <r>   -2.4303    1.0000 </r>
       <r>   -1.9251    1.0000 </r>
       <r>   -1.7013    1.0000 </r>
       <r>   -1.2797    1.0000 </r>
       <r>   -0.5253    1.0000 </r>
       <r>    0.1270    1.0000 </r>
       <r>    0.4924    1.0000 </r>
       <r>    0.7823    1.0000 </r>
       <r>    1.4184    1.0000 </r>
       <r>    1.6184    1.0000 </r>
       <r>    1.9493    1.0000 </r>
       <r>    2.1820    1.0000 </r>
       <r>    2.5514    1.0000 </r>
       <r>    2.7352    1.0000 </r>
       <r>    2.8325    1.0000 </r>
       <r>    3.0794    1.0000 </r>
       <r>    3.4447    1.0000 </r>
       <r>    3.5783    1.0000 </r>
       <r>    3.7216    1.0000 </r>
       <r>    3.9576    1.0000 </r>
       <r>    4.0243    1.0000 </r>
       <r>    4.3029    1.0000 </r>
       <r>    4.5305    1.0000 </r>
       <r>    4.6907    1.0000 </r>
       <r>    4.8821    1.0000 </r>
       <r>    4.9480    1.0000 </r>
       <r>    5.3118    1.0000 </r>
       <r>    5.4438    1.0000 </r>
       <r>    5.5911    1.0000 </r>
       <r>    5.8913    1.0000 </r>
       <r>    6.6094    1.0000 </r>
       <r>    7.1217    1.0000 </r>
       <r>    7.2468    1.0000 </r>
       <r>    7.4367    1.0000 </r>
       <r>    7.4593    1.0000 </r>
       <r>    7.6426    1.0000 </r>
       <r>    7.9182    1.0001 </r>
       <r>    8.1606    1.0157 </r>
       <r>    8.3276    1.0168 </r>
       <r>    8.4769    0.6556 </r>
       <r>    8.6307    0.0884 </r>
       <r>    8.7505   -0.0351 </r>
       <r>    9.0396   -0.0006 </r>
       <r>    9.1749   -0.0000 </r>
       <r>    9.2529   -0.0000 </r>
       <r>    9.6228   -0.0000 </r>
       <r>    9.7114   -0.0000 </r>
       <r>    9.8088   -0.0000 </r>
       <r>   10.0346   -0.0000 </r>
       <r>   10.1935   -0.0000 </r>
       <r>   10.4084   -0.0000 </r>
       <r>   10.5965   -0.0000 </r>
       <r>   10.8024   -0.0000 </r>
       <r>   10.9494   -0.0000 </r>
       <r>   11.0423   -0.0000 </r>
       <r>   11.1289   -0.0000 </r>
       <r>   11.3134   -0.0000 </r>
       <r>   11.6247   -0.0000 </r>
       <r>   11.7433   -0.0000 </r>
       <r>   11.8998   -0.0000 </r>
       <r>   12.0539   -0.0000 </r>
       <r>   12.1256   -0.0000 </r>
       <r>   12.5290   -0.0000 </r>
       <r>   12.5898   -0.0000 </r>
      </set>
      <set comment="kpoint 69">
       <r>   -2.4021    1.0000 </r>
       <r>   -1.9757    1.0000 </r>
       <r>   -1.7479    1.0000 </r>
       <r>   -1.2026    1.0000 </r>
       <r>   -0.4021    1.0000 </r>
       <r>   -0.0073    1.0000 </r>
       <r>    0.3740    1.0000 </r>
       <r>    0.9301    1.0000 </r>
       <r>    1.2151    1.0000 </r>
       <r>    1.7562    1.0000 </r>
       <r>    2.0706    1.0000 </r>
       <r>    2.2556    1.0000 </r>
       <r>    2.4791    1.0000 </r>
       <r>    2.6202    1.0000 </r>
       <r>    2.9536    1.0000 </r>
       <r>    3.1506    1.0000 </r>
       <r>    3.2774    1.0000 </r>
       <r>    3.4601    1.0000 </r>
       <r>    3.8083    1.0000 </r>
       <r>    3.8607    1.0000 </r>
       <r>    4.1325    1.0000 </r>
       <r>    4.3698    1.0000 </r>
       <r>    4.4607    1.0000 </r>
       <r>    4.6657    1.0000 </r>
       <r>    4.8592    1.0000 </r>
       <r>    5.1077    1.0000 </r>
       <r>    5.3066    1.0000 </r>
       <r>    5.4263    1.0000 </r>
       <r>    5.6080    1.0000 </r>
       <r>    5.7624    1.0000 </r>
       <r>    6.7007    1.0000 </r>
       <r>    7.0217    1.0000 </r>
       <r>    7.2752    1.0000 </r>
       <r>    7.3685    1.0000 </r>
       <r>    7.4826    1.0000 </r>
       <r>    7.6958    1.0000 </r>
       <r>    7.9561    1.0003 </r>
       <r>    8.1042    1.0068 </r>
       <r>    8.3192    1.0224 </r>
       <r>    8.6021    0.1656 </r>
       <r>    8.7205   -0.0280 </r>
       <r>    8.7836   -0.0335 </r>
       <r>    8.9544   -0.0040 </r>
       <r>    9.0891   -0.0002 </r>
       <r>    9.3348   -0.0000 </r>
       <r>    9.4585   -0.0000 </r>
       <r>    9.7269   -0.0000 </r>
       <r>    9.8319   -0.0000 </r>
       <r>   10.0798   -0.0000 </r>
       <r>   10.1790   -0.0000 </r>
       <r>   10.3453   -0.0000 </r>
       <r>   10.6689   -0.0000 </r>
       <r>   10.7373   -0.0000 </r>
       <r>   10.8396   -0.0000 </r>
       <r>   11.0452   -0.0000 </r>
       <r>   11.1897   -0.0000 </r>
       <r>   11.3594   -0.0000 </r>
       <r>   11.6103   -0.0000 </r>
       <r>   11.7041   -0.0000 </r>
       <r>   11.9165   -0.0000 </r>
       <r>   12.0918   -0.0000 </r>
       <r>   12.2505   -0.0000 </r>
       <r>   12.3531   -0.0000 </r>
       <r>   12.5779   -0.0000 </r>
      </set>
      <set comment="kpoint 70">
       <r>   -2.3375    1.0000 </r>
       <r>   -2.0792    1.0000 </r>
       <r>   -1.6315    1.0000 </r>
       <r>   -1.4006    1.0000 </r>
       <r>   -0.3453    1.0000 </r>
       <r>    0.0885    1.0000 </r>
       <r>    0.5284    1.0000 </r>
       <r>    0.8549    1.0000 </r>
       <r>    1.3819    1.0000 </r>
       <r>    1.5942    1.0000 </r>
       <r>    1.9313    1.0000 </r>
       <r>    2.1433    1.0000 </r>
       <r>    2.4622    1.0000 </r>
       <r>    2.6017    1.0000 </r>
       <r>    2.9944    1.0000 </r>
       <r>    3.1005    1.0000 </r>
       <r>    3.2352    1.0000 </r>
       <r>    3.6039    1.0000 </r>
       <r>    3.7493    1.0000 </r>
       <r>    4.0205    1.0000 </r>
       <r>    4.0967    1.0000 </r>
       <r>    4.2735    1.0000 </r>
       <r>    4.5422    1.0000 </r>
       <r>    4.7756    1.0000 </r>
       <r>    4.8890    1.0000 </r>
       <r>    5.0420    1.0000 </r>
       <r>    5.1913    1.0000 </r>
       <r>    5.4141    1.0000 </r>
       <r>    5.6248    1.0000 </r>
       <r>    5.8433    1.0000 </r>
       <r>    6.8051    1.0000 </r>
       <r>    6.9672    1.0000 </r>
       <r>    7.2224    1.0000 </r>
       <r>    7.4627    1.0000 </r>
       <r>    7.5856    1.0000 </r>
       <r>    7.6654    1.0000 </r>
       <r>    7.8539    1.0000 </r>
       <r>    8.1422    1.0122 </r>
       <r>    8.3002    1.0310 </r>
       <r>    8.5385    0.3986 </r>
       <r>    8.6754    0.0087 </r>
       <r>    8.8457   -0.0205 </r>
       <r>    8.9815   -0.0023 </r>
       <r>    9.0707   -0.0003 </r>
       <r>    9.2522   -0.0000 </r>
       <r>    9.4752   -0.0000 </r>
       <r>    9.6730   -0.0000 </r>
       <r>    9.8074   -0.0000 </r>
       <r>    9.9927   -0.0000 </r>
       <r>   10.1757   -0.0000 </r>
       <r>   10.4242   -0.0000 </r>
       <r>   10.7097   -0.0000 </r>
       <r>   10.8204   -0.0000 </r>
       <r>   10.9216   -0.0000 </r>
       <r>   11.0362   -0.0000 </r>
       <r>   11.1671   -0.0000 </r>
       <r>   11.3053   -0.0000 </r>
       <r>   11.5933   -0.0000 </r>
       <r>   11.7439   -0.0000 </r>
       <r>   11.9562   -0.0000 </r>
       <r>   12.0970   -0.0000 </r>
       <r>   12.1867   -0.0000 </r>
       <r>   12.4432   -0.0000 </r>
       <r>   12.4830   -0.0000 </r>
      </set>
      <set comment="kpoint 71">
       <r>   -2.3746    1.0000 </r>
       <r>   -1.9741    1.0000 </r>
       <r>   -1.8171    1.0000 </r>
       <r>   -1.1641    1.0000 </r>
       <r>   -0.4964    1.0000 </r>
       <r>    0.1030    1.0000 </r>
       <r>    0.5453    1.0000 </r>
       <r>    0.7695    1.0000 </r>
       <r>    1.2493    1.0000 </r>
       <r>    1.7109    1.0000 </r>
       <r>    1.9186    1.0000 </r>
       <r>    2.3861    1.0000 </r>
       <r>    2.5013    1.0000 </r>
       <r>    2.6705    1.0000 </r>
       <r>    2.8670    1.0000 </r>
       <r>    3.0442    1.0000 </r>
       <r>    3.3625    1.0000 </r>
       <r>    3.4898    1.0000 </r>
       <r>    3.8136    1.0000 </r>
       <r>    3.9470    1.0000 </r>
       <r>    4.0036    1.0000 </r>
       <r>    4.2540    1.0000 </r>
       <r>    4.5204    1.0000 </r>
       <r>    4.7688    1.0000 </r>
       <r>    4.9484    1.0000 </r>
       <r>    5.0249    1.0000 </r>
       <r>    5.3066    1.0000 </r>
       <r>    5.3990    1.0000 </r>
       <r>    5.5725    1.0000 </r>
       <r>    5.8206    1.0000 </r>
       <r>    6.7032    1.0000 </r>
       <r>    7.1389    1.0000 </r>
       <r>    7.2476    1.0000 </r>
       <r>    7.4370    1.0000 </r>
       <r>    7.5329    1.0000 </r>
       <r>    7.6111    1.0000 </r>
       <r>    7.8752    1.0000 </r>
       <r>    8.0833    1.0047 </r>
       <r>    8.3164    1.0240 </r>
       <r>    8.4640    0.7059 </r>
       <r>    8.7509   -0.0352 </r>
       <r>    8.8765   -0.0140 </r>
       <r>    8.9626   -0.0034 </r>
       <r>    9.0918   -0.0002 </r>
       <r>    9.2884   -0.0000 </r>
       <r>    9.4652   -0.0000 </r>
       <r>    9.7213   -0.0000 </r>
       <r>    9.8820   -0.0000 </r>
       <r>   10.0054   -0.0000 </r>
       <r>   10.2695   -0.0000 </r>
       <r>   10.3246   -0.0000 </r>
       <r>   10.6675   -0.0000 </r>
       <r>   10.7573   -0.0000 </r>
       <r>   10.8852   -0.0000 </r>
       <r>   10.9641   -0.0000 </r>
       <r>   11.2045   -0.0000 </r>
       <r>   11.3234   -0.0000 </r>
       <r>   11.6195   -0.0000 </r>
       <r>   11.7732   -0.0000 </r>
       <r>   11.9048   -0.0000 </r>
       <r>   12.0204   -0.0000 </r>
       <r>   12.2375   -0.0000 </r>
       <r>   12.4773   -0.0000 </r>
       <r>   12.5970   -0.0000 </r>
      </set>
      <set comment="kpoint 72">
       <r>   -2.3679    1.0000 </r>
       <r>   -2.1088    1.0000 </r>
       <r>   -1.5525    1.0000 </r>
       <r>   -1.3014    1.0000 </r>
       <r>   -0.4790    1.0000 </r>
       <r>    0.0773    1.0000 </r>
       <r>    0.4310    1.0000 </r>
       <r>    0.8779    1.0000 </r>
       <r>    1.3038    1.0000 </r>
       <r>    1.7205    1.0000 </r>
       <r>    1.9732    1.0000 </r>
       <r>    2.1259    1.0000 </r>
       <r>    2.4103    1.0000 </r>
       <r>    2.7386    1.0000 </r>
       <r>    3.0543    1.0000 </r>
       <r>    3.1830    1.0000 </r>
       <r>    3.2813    1.0000 </r>
       <r>    3.5191    1.0000 </r>
       <r>    3.7458    1.0000 </r>
       <r>    3.9048    1.0000 </r>
       <r>    4.1245    1.0000 </r>
       <r>    4.3561    1.0000 </r>
       <r>    4.4378    1.0000 </r>
       <r>    4.7133    1.0000 </r>
       <r>    4.8486    1.0000 </r>
       <r>    5.0435    1.0000 </r>
       <r>    5.1863    1.0000 </r>
       <r>    5.4814    1.0000 </r>
       <r>    5.6249    1.0000 </r>
       <r>    5.8682    1.0000 </r>
       <r>    6.6606    1.0000 </r>
       <r>    6.9845    1.0000 </r>
       <r>    7.2416    1.0000 </r>
       <r>    7.3808    1.0000 </r>
       <r>    7.5890    1.0000 </r>
       <r>    7.7447    1.0000 </r>
       <r>    7.7856    1.0000 </r>
       <r>    8.1735    1.0184 </r>
       <r>    8.4075    0.8884 </r>
       <r>    8.5820    0.2311 </r>
       <r>    8.6443    0.0589 </r>
       <r>    8.7910   -0.0324 </r>
       <r>    8.9661   -0.0032 </r>
       <r>    9.1261   -0.0001 </r>
       <r>    9.2722   -0.0000 </r>
       <r>    9.5623   -0.0000 </r>
       <r>    9.6904   -0.0000 </r>
       <r>    9.7431   -0.0000 </r>
       <r>    9.9812   -0.0000 </r>
       <r>   10.1799   -0.0000 </r>
       <r>   10.3544   -0.0000 </r>
       <r>   10.6392   -0.0000 </r>
       <r>   10.7821   -0.0000 </r>
       <r>   10.8915   -0.0000 </r>
       <r>   11.0220   -0.0000 </r>
       <r>   11.2205   -0.0000 </r>
       <r>   11.3174   -0.0000 </r>
       <r>   11.6902   -0.0000 </r>
       <r>   11.7685   -0.0000 </r>
       <r>   11.8806   -0.0000 </r>
       <r>   12.1033   -0.0000 </r>
       <r>   12.2645   -0.0000 </r>
       <r>   12.3744   -0.0000 </r>
       <r>   12.5703   -0.0000 </r>
      </set>
      <set comment="kpoint 73">
       <r>   -2.4272    1.0000 </r>
       <r>   -1.8875    1.0000 </r>
       <r>   -1.6766    1.0000 </r>
       <r>   -1.4290    1.0000 </r>
       <r>   -0.4298    1.0000 </r>
       <r>    0.1224    1.0000 </r>
       <r>    0.4783    1.0000 </r>
       <r>    0.9624    1.0000 </r>
       <r>    1.2913    1.0000 </r>
       <r>    1.5680    1.0000 </r>
       <r>    1.9776    1.0000 </r>
       <r>    2.1599    1.0000 </r>
       <r>    2.5816    1.0000 </r>
       <r>    2.6690    1.0000 </r>
       <r>    2.8201    1.0000 </r>
       <r>    3.0786    1.0000 </r>
       <r>    3.3060    1.0000 </r>
       <r>    3.6181    1.0000 </r>
       <r>    3.6528    1.0000 </r>
       <r>    4.0250    1.0000 </r>
       <r>    4.0889    1.0000 </r>
       <r>    4.4656    1.0000 </r>
       <r>    4.5393    1.0000 </r>
       <r>    4.7095    1.0000 </r>
       <r>    4.8565    1.0000 </r>
       <r>    4.9748    1.0000 </r>
       <r>    5.3393    1.0000 </r>
       <r>    5.4247    1.0000 </r>
       <r>    5.5475    1.0000 </r>
       <r>    5.8071    1.0000 </r>
       <r>    6.5966    1.0000 </r>
       <r>    7.1177    1.0000 </r>
       <r>    7.2046    1.0000 </r>
       <r>    7.4103    1.0000 </r>
       <r>    7.5085    1.0000 </r>
       <r>    7.5871    1.0000 </r>
       <r>    7.9760    1.0005 </r>
       <r>    8.2113    1.0270 </r>
       <r>    8.3350    1.0108 </r>
       <r>    8.5698    0.2750 </r>
       <r>    8.6580    0.0340 </r>
       <r>    8.7762   -0.0345 </r>
       <r>    9.0900   -0.0002 </r>
       <r>    9.1188   -0.0001 </r>
       <r>    9.2527   -0.0000 </r>
       <r>    9.4057   -0.0000 </r>
       <r>    9.7174   -0.0000 </r>
       <r>    9.8780   -0.0000 </r>
       <r>   10.0455   -0.0000 </r>
       <r>   10.1591   -0.0000 </r>
       <r>   10.3540   -0.0000 </r>
       <r>   10.6412   -0.0000 </r>
       <r>   10.8022   -0.0000 </r>
       <r>   10.9009   -0.0000 </r>
       <r>   11.0206   -0.0000 </r>
       <r>   11.1030   -0.0000 </r>
       <r>   11.3822   -0.0000 </r>
       <r>   11.6051   -0.0000 </r>
       <r>   11.7811   -0.0000 </r>
       <r>   11.9027   -0.0000 </r>
       <r>   12.0879   -0.0000 </r>
       <r>   12.2642   -0.0000 </r>
       <r>   12.4348   -0.0000 </r>
       <r>   12.6632   -0.0000 </r>
      </set>
      <set comment="kpoint 74">
       <r>   -2.3990    1.0000 </r>
       <r>   -1.9204    1.0000 </r>
       <r>   -1.7614    1.0000 </r>
       <r>   -1.3414    1.0000 </r>
       <r>   -0.3748    1.0000 </r>
       <r>    0.1126    1.0000 </r>
       <r>    0.4135    1.0000 </r>
       <r>    0.9381    1.0000 </r>
       <r>    1.4263    1.0000 </r>
       <r>    1.5744    1.0000 </r>
       <r>    1.8193    1.0000 </r>
       <r>    2.1214    1.0000 </r>
       <r>    2.5161    1.0000 </r>
       <r>    2.7453    1.0000 </r>
       <r>    2.8511    1.0000 </r>
       <r>    3.2333    1.0000 </r>
       <r>    3.3720    1.0000 </r>
       <r>    3.5957    1.0000 </r>
       <r>    3.7709    1.0000 </r>
       <r>    3.8920    1.0000 </r>
       <r>    3.9576    1.0000 </r>
       <r>    4.2926    1.0000 </r>
       <r>    4.5824    1.0000 </r>
       <r>    4.6931    1.0000 </r>
       <r>    4.9000    1.0000 </r>
       <r>    4.9991    1.0000 </r>
       <r>    5.3240    1.0000 </r>
       <r>    5.5351    1.0000 </r>
       <r>    5.5991    1.0000 </r>
       <r>    5.7256    1.0000 </r>
       <r>    6.8024    1.0000 </r>
       <r>    7.0604    1.0000 </r>
       <r>    7.1510    1.0000 </r>
       <r>    7.4224    1.0000 </r>
       <r>    7.5179    1.0000 </r>
       <r>    7.5913    1.0000 </r>
       <r>    7.8751    1.0000 </r>
       <r>    8.1391    1.0117 </r>
       <r>    8.3479    0.9978 </r>
       <r>    8.4997    0.5619 </r>
       <r>    8.7346   -0.0327 </r>
       <r>    8.8624   -0.0168 </r>
       <r>    8.9690   -0.0030 </r>
       <r>    9.1327   -0.0001 </r>
       <r>    9.3437   -0.0000 </r>
       <r>    9.4929   -0.0000 </r>
       <r>    9.6292   -0.0000 </r>
       <r>    9.8490   -0.0000 </r>
       <r>    9.9908   -0.0000 </r>
       <r>   10.2091   -0.0000 </r>
       <r>   10.3823   -0.0000 </r>
       <r>   10.6617   -0.0000 </r>
       <r>   10.7520   -0.0000 </r>
       <r>   10.8278   -0.0000 </r>
       <r>   10.9646   -0.0000 </r>
       <r>   11.1609   -0.0000 </r>
       <r>   11.4409   -0.0000 </r>
       <r>   11.7112   -0.0000 </r>
       <r>   11.7811   -0.0000 </r>
       <r>   11.9038   -0.0000 </r>
       <r>   12.0503   -0.0000 </r>
       <r>   12.1010   -0.0000 </r>
       <r>   12.3719   -0.0000 </r>
       <r>   12.5881   -0.0000 </r>
      </set>
      <set comment="kpoint 75">
       <r>   -2.3878    1.0000 </r>
       <r>   -2.0391    1.0000 </r>
       <r>   -1.6493    1.0000 </r>
       <r>   -1.2723    1.0000 </r>
       <r>   -0.4104    1.0000 </r>
       <r>   -0.0026    1.0000 </r>
       <r>    0.4302    1.0000 </r>
       <r>    0.8459    1.0000 </r>
       <r>    1.3993    1.0000 </r>
       <r>    1.7529    1.0000 </r>
       <r>    1.9154    1.0000 </r>
       <r>    2.2064    1.0000 </r>
       <r>    2.4341    1.0000 </r>
       <r>    2.7049    1.0000 </r>
       <r>    2.9491    1.0000 </r>
       <r>    3.1924    1.0000 </r>
       <r>    3.2816    1.0000 </r>
       <r>    3.5219    1.0000 </r>
       <r>    3.7700    1.0000 </r>
       <r>    3.8569    1.0000 </r>
       <r>    4.1496    1.0000 </r>
       <r>    4.2401    1.0000 </r>
       <r>    4.5133    1.0000 </r>
       <r>    4.6644    1.0000 </r>
       <r>    4.9231    1.0000 </r>
       <r>    5.0382    1.0000 </r>
       <r>    5.2124    1.0000 </r>
       <r>    5.4439    1.0000 </r>
       <r>    5.6759    1.0000 </r>
       <r>    5.8644    1.0000 </r>
       <r>    6.7151    1.0000 </r>
       <r>    7.0080    1.0000 </r>
       <r>    7.1641    1.0000 </r>
       <r>    7.3157    1.0000 </r>
       <r>    7.5753    1.0000 </r>
       <r>    7.6952    1.0000 </r>
       <r>    7.8907    1.0000 </r>
       <r>    8.0881    1.0051 </r>
       <r>    8.3683    0.9701 </r>
       <r>    8.6057    0.1546 </r>
       <r>    8.7171   -0.0265 </r>
       <r>    8.8516   -0.0192 </r>
       <r>    9.0147   -0.0011 </r>
       <r>    9.1410   -0.0000 </r>
       <r>    9.2599   -0.0000 </r>
       <r>    9.6148   -0.0000 </r>
       <r>    9.7093   -0.0000 </r>
       <r>    9.8521   -0.0000 </r>
       <r>    9.9338   -0.0000 </r>
       <r>   10.1383   -0.0000 </r>
       <r>   10.2866   -0.0000 </r>
       <r>   10.6409   -0.0000 </r>
       <r>   10.7413   -0.0000 </r>
       <r>   10.9026   -0.0000 </r>
       <r>   10.9359   -0.0000 </r>
       <r>   11.2380   -0.0000 </r>
       <r>   11.4665   -0.0000 </r>
       <r>   11.6860   -0.0000 </r>
       <r>   11.7469   -0.0000 </r>
       <r>   11.8964   -0.0000 </r>
       <r>   12.0253   -0.0000 </r>
       <r>   12.2008   -0.0000 </r>
       <r>   12.4063   -0.0000 </r>
       <r>   12.5710   -0.0000 </r>
      </set>
      <set comment="kpoint 76">
       <r>   -2.3638    1.0000 </r>
       <r>   -2.0390    1.0000 </r>
       <r>   -1.7358    1.0000 </r>
       <r>   -1.2220    1.0000 </r>
       <r>   -0.4485    1.0000 </r>
       <r>    0.1989    1.0000 </r>
       <r>    0.3685    1.0000 </r>
       <r>    0.7873    1.0000 </r>
       <r>    1.3728    1.0000 </r>
       <r>    1.7140    1.0000 </r>
       <r>    1.8923    1.0000 </r>
       <r>    2.2579    1.0000 </r>
       <r>    2.3660    1.0000 </r>
       <r>    2.7592    1.0000 </r>
       <r>    2.9216    1.0000 </r>
       <r>    3.1216    1.0000 </r>
       <r>    3.4071    1.0000 </r>
       <r>    3.4789    1.0000 </r>
       <r>    3.7713    1.0000 </r>
       <r>    3.9330    1.0000 </r>
       <r>    4.0741    1.0000 </r>
       <r>    4.3064    1.0000 </r>
       <r>    4.4668    1.0000 </r>
       <r>    4.6351    1.0000 </r>
       <r>    4.9505    1.0000 </r>
       <r>    5.0064    1.0000 </r>
       <r>    5.2304    1.0000 </r>
       <r>    5.5098    1.0000 </r>
       <r>    5.6343    1.0000 </r>
       <r>    5.8680    1.0000 </r>
       <r>    6.7926    1.0000 </r>
       <r>    7.0431    1.0000 </r>
       <r>    7.2501    1.0000 </r>
       <r>    7.4721    1.0000 </r>
       <r>    7.4818    1.0000 </r>
       <r>    7.6410    1.0000 </r>
       <r>    7.8608    1.0000 </r>
       <r>    8.0019    1.0009 </r>
       <r>    8.3834    0.9432 </r>
       <r>    8.5446    0.3737 </r>
       <r>    8.6788    0.0046 </r>
       <r>    8.7528   -0.0353 </r>
       <r>    8.9762   -0.0026 </r>
       <r>    9.0702   -0.0003 </r>
       <r>    9.2042   -0.0000 </r>
       <r>    9.6027   -0.0000 </r>
       <r>    9.6997   -0.0000 </r>
       <r>    9.8495   -0.0000 </r>
       <r>   10.0003   -0.0000 </r>
       <r>   10.1948   -0.0000 </r>
       <r>   10.4038   -0.0000 </r>
       <r>   10.6571   -0.0000 </r>
       <r>   10.7750   -0.0000 </r>
       <r>   10.9037   -0.0000 </r>
       <r>   10.9891   -0.0000 </r>
       <r>   11.2090   -0.0000 </r>
       <r>   11.3877   -0.0000 </r>
       <r>   11.6640   -0.0000 </r>
       <r>   11.7711   -0.0000 </r>
       <r>   11.9336   -0.0000 </r>
       <r>   12.0273   -0.0000 </r>
       <r>   12.1563   -0.0000 </r>
       <r>   12.3828   -0.0000 </r>
       <r>   12.6660   -0.0000 </r>
      </set>
      <set comment="kpoint 77">
       <r>   -2.6502    1.0000 </r>
       <r>   -1.9157    1.0000 </r>
       <r>   -1.4780    1.0000 </r>
       <r>   -0.8979    1.0000 </r>
       <r>   -0.2888    1.0000 </r>
       <r>    0.0160    1.0000 </r>
       <r>    0.2259    1.0000 </r>
       <r>    0.6480    1.0000 </r>
       <r>    1.1533    1.0000 </r>
       <r>    1.4285    1.0000 </r>
       <r>    1.7115    1.0000 </r>
       <r>    2.0393    1.0000 </r>
       <r>    2.2980    1.0000 </r>
       <r>    2.5872    1.0000 </r>
       <r>    2.7676    1.0000 </r>
       <r>    3.2412    1.0000 </r>
       <r>    3.4250    1.0000 </r>
       <r>    3.6391    1.0000 </r>
       <r>    3.9404    1.0000 </r>
       <r>    4.0715    1.0000 </r>
       <r>    4.2961    1.0000 </r>
       <r>    4.5165    1.0000 </r>
       <r>    4.6679    1.0000 </r>
       <r>    4.7630    1.0000 </r>
       <r>    5.0917    1.0000 </r>
       <r>    5.3837    1.0000 </r>
       <r>    5.5219    1.0000 </r>
       <r>    5.8813    1.0000 </r>
       <r>    6.0326    1.0000 </r>
       <r>    6.1610    1.0000 </r>
       <r>    6.4171    1.0000 </r>
       <r>    6.6180    1.0000 </r>
       <r>    7.0814    1.0000 </r>
       <r>    7.1529    1.0000 </r>
       <r>    7.3077    1.0000 </r>
       <r>    7.6813    1.0000 </r>
       <r>    7.7848    1.0000 </r>
       <r>    7.9170    1.0001 </r>
       <r>    8.0740    1.0039 </r>
       <r>    8.2543    1.0347 </r>
       <r>    8.5138    0.5023 </r>
       <r>    8.7619   -0.0354 </r>
       <r>    8.8881   -0.0119 </r>
       <r>    9.1465   -0.0000 </r>
       <r>    9.3378   -0.0000 </r>
       <r>    9.5247   -0.0000 </r>
       <r>    9.6742   -0.0000 </r>
       <r>    9.7416   -0.0000 </r>
       <r>    9.9294   -0.0000 </r>
       <r>   10.1737   -0.0000 </r>
       <r>   10.2734   -0.0000 </r>
       <r>   10.4871   -0.0000 </r>
       <r>   10.7682   -0.0000 </r>
       <r>   10.9042   -0.0000 </r>
       <r>   11.0176   -0.0000 </r>
       <r>   11.2978   -0.0000 </r>
       <r>   11.3927   -0.0000 </r>
       <r>   11.5718   -0.0000 </r>
       <r>   11.7757   -0.0000 </r>
       <r>   11.9039   -0.0000 </r>
       <r>   12.0533   -0.0000 </r>
       <r>   12.0821   -0.0000 </r>
       <r>   12.1947   -0.0000 </r>
       <r>   12.4039   -0.0000 </r>
      </set>
      <set comment="kpoint 78">
       <r>   -2.6455    1.0000 </r>
       <r>   -1.9310    1.0000 </r>
       <r>   -1.4629    1.0000 </r>
       <r>   -0.9227    1.0000 </r>
       <r>   -0.3762    1.0000 </r>
       <r>    0.1554    1.0000 </r>
       <r>    0.3338    1.0000 </r>
       <r>    0.6989    1.0000 </r>
       <r>    0.9970    1.0000 </r>
       <r>    1.4021    1.0000 </r>
       <r>    1.5369    1.0000 </r>
       <r>    2.1089    1.0000 </r>
       <r>    2.3349    1.0000 </r>
       <r>    2.5757    1.0000 </r>
       <r>    2.8299    1.0000 </r>
       <r>    3.2193    1.0000 </r>
       <r>    3.3876    1.0000 </r>
       <r>    3.6193    1.0000 </r>
       <r>    4.0270    1.0000 </r>
       <r>    4.1020    1.0000 </r>
       <r>    4.2678    1.0000 </r>
       <r>    4.4464    1.0000 </r>
       <r>    4.6832    1.0000 </r>
       <r>    4.9592    1.0000 </r>
       <r>    5.1495    1.0000 </r>
       <r>    5.3537    1.0000 </r>
       <r>    5.6001    1.0000 </r>
       <r>    5.6853    1.0000 </r>
       <r>    5.8891    1.0000 </r>
       <r>    6.2295    1.0000 </r>
       <r>    6.5332    1.0000 </r>
       <r>    6.6015    1.0000 </r>
       <r>    7.0646    1.0000 </r>
       <r>    7.2139    1.0000 </r>
       <r>    7.3666    1.0000 </r>
       <r>    7.5489    1.0000 </r>
       <r>    7.7447    1.0000 </r>
       <r>    7.8759    1.0000 </r>
       <r>    8.0398    1.0020 </r>
       <r>    8.2448    1.0335 </r>
       <r>    8.4578    0.7291 </r>
       <r>    8.6230    0.1072 </r>
       <r>    8.9093   -0.0087 </r>
       <r>    9.1980   -0.0000 </r>
       <r>    9.3535   -0.0000 </r>
       <r>    9.5755   -0.0000 </r>
       <r>    9.6669   -0.0000 </r>
       <r>    9.9227   -0.0000 </r>
       <r>   10.0031   -0.0000 </r>
       <r>   10.1428   -0.0000 </r>
       <r>   10.2799   -0.0000 </r>
       <r>   10.3795   -0.0000 </r>
       <r>   10.6372   -0.0000 </r>
       <r>   10.9312   -0.0000 </r>
       <r>   11.1058   -0.0000 </r>
       <r>   11.2670   -0.0000 </r>
       <r>   11.3789   -0.0000 </r>
       <r>   11.6740   -0.0000 </r>
       <r>   11.8190   -0.0000 </r>
       <r>   11.9195   -0.0000 </r>
       <r>   12.0197   -0.0000 </r>
       <r>   12.0747   -0.0000 </r>
       <r>   12.2500   -0.0000 </r>
       <r>   12.3769   -0.0000 </r>
      </set>
      <set comment="kpoint 79">
       <r>   -2.6761    1.0000 </r>
       <r>   -1.8473    1.0000 </r>
       <r>   -1.4974    1.0000 </r>
       <r>   -0.8540    1.0000 </r>
       <r>   -0.3329    1.0000 </r>
       <r>   -0.0546    1.0000 </r>
       <r>    0.2111    1.0000 </r>
       <r>    0.6943    1.0000 </r>
       <r>    1.1455    1.0000 </r>
       <r>    1.3725    1.0000 </r>
       <r>    1.6070    1.0000 </r>
       <r>    2.1242    1.0000 </r>
       <r>    2.4030    1.0000 </r>
       <r>    2.6292    1.0000 </r>
       <r>    2.8490    1.0000 </r>
       <r>    3.2787    1.0000 </r>
       <r>    3.3646    1.0000 </r>
       <r>    3.5156    1.0000 </r>
       <r>    3.9851    1.0000 </r>
       <r>    4.0606    1.0000 </r>
       <r>    4.2533    1.0000 </r>
       <r>    4.5043    1.0000 </r>
       <r>    4.7678    1.0000 </r>
       <r>    4.8673    1.0000 </r>
       <r>    5.1910    1.0000 </r>
       <r>    5.3622    1.0000 </r>
       <r>    5.5317    1.0000 </r>
       <r>    5.7073    1.0000 </r>
       <r>    5.8390    1.0000 </r>
       <r>    6.2322    1.0000 </r>
       <r>    6.4280    1.0000 </r>
       <r>    6.5423    1.0000 </r>
       <r>    7.0815    1.0000 </r>
       <r>    7.1869    1.0000 </r>
       <r>    7.3683    1.0000 </r>
       <r>    7.6370    1.0000 </r>
       <r>    7.8409    1.0000 </r>
       <r>    7.8895    1.0000 </r>
       <r>    8.0256    1.0015 </r>
       <r>    8.2102    1.0267 </r>
       <r>    8.4657    0.6995 </r>
       <r>    8.7266   -0.0303 </r>
       <r>    8.8880   -0.0120 </r>
       <r>    9.2491   -0.0000 </r>
       <r>    9.3730   -0.0000 </r>
       <r>    9.5056   -0.0000 </r>
       <r>    9.6529   -0.0000 </r>
       <r>    9.8489   -0.0000 </r>
       <r>    9.9614   -0.0000 </r>
       <r>   10.0806   -0.0000 </r>
       <r>   10.2966   -0.0000 </r>
       <r>   10.4373   -0.0000 </r>
       <r>   10.7313   -0.0000 </r>
       <r>   10.9282   -0.0000 </r>
       <r>   11.0942   -0.0000 </r>
       <r>   11.3408   -0.0000 </r>
       <r>   11.3842   -0.0000 </r>
       <r>   11.6427   -0.0000 </r>
       <r>   11.7000   -0.0000 </r>
       <r>   11.9031   -0.0000 </r>
       <r>   12.0421   -0.0000 </r>
       <r>   12.2070   -0.0000 </r>
       <r>   12.2297   -0.0000 </r>
       <r>   12.4552   -0.0000 </r>
      </set>
      <set comment="kpoint 80">
       <r>   -2.6875    1.0000 </r>
       <r>   -1.8499    1.0000 </r>
       <r>   -1.3534    1.0000 </r>
       <r>   -1.0256    1.0000 </r>
       <r>   -0.3528    1.0000 </r>
       <r>   -0.1141    1.0000 </r>
       <r>    0.3874    1.0000 </r>
       <r>    0.6484    1.0000 </r>
       <r>    1.1096    1.0000 </r>
       <r>    1.4611    1.0000 </r>
       <r>    1.5249    1.0000 </r>
       <r>    2.1936    1.0000 </r>
       <r>    2.3427    1.0000 </r>
       <r>    2.6441    1.0000 </r>
       <r>    2.8949    1.0000 </r>
       <r>    3.2685    1.0000 </r>
       <r>    3.3967    1.0000 </r>
       <r>    3.5635    1.0000 </r>
       <r>    3.7535    1.0000 </r>
       <r>    4.1349    1.0000 </r>
       <r>    4.3429    1.0000 </r>
       <r>    4.5236    1.0000 </r>
       <r>    4.6972    1.0000 </r>
       <r>    4.9015    1.0000 </r>
       <r>    5.0136    1.0000 </r>
       <r>    5.4413    1.0000 </r>
       <r>    5.5171    1.0000 </r>
       <r>    5.7417    1.0000 </r>
       <r>    6.0025    1.0000 </r>
       <r>    6.1097    1.0000 </r>
       <r>    6.4082    1.0000 </r>
       <r>    6.4816    1.0000 </r>
       <r>    7.0727    1.0000 </r>
       <r>    7.2850    1.0000 </r>
       <r>    7.3763    1.0000 </r>
       <r>    7.6063    1.0000 </r>
       <r>    7.8116    1.0000 </r>
       <r>    7.9251    1.0001 </r>
       <r>    8.0666    1.0034 </r>
       <r>    8.2502    1.0342 </r>
       <r>    8.4587    0.7258 </r>
       <r>    8.6139    0.1313 </r>
       <r>    8.9431   -0.0049 </r>
       <r>    9.3011   -0.0000 </r>
       <r>    9.3366   -0.0000 </r>
       <r>    9.4645   -0.0000 </r>
       <r>    9.6163   -0.0000 </r>
       <r>    9.8397   -0.0000 </r>
       <r>    9.9379   -0.0000 </r>
       <r>   10.1783   -0.0000 </r>
       <r>   10.2717   -0.0000 </r>
       <r>   10.5592   -0.0000 </r>
       <r>   10.7741   -0.0000 </r>
       <r>   10.9541   -0.0000 </r>
       <r>   11.1412   -0.0000 </r>
       <r>   11.2348   -0.0000 </r>
       <r>   11.3904   -0.0000 </r>
       <r>   11.5799   -0.0000 </r>
       <r>   11.6734   -0.0000 </r>
       <r>   11.8695   -0.0000 </r>
       <r>   12.0451   -0.0000 </r>
       <r>   12.1681   -0.0000 </r>
       <r>   12.2603   -0.0000 </r>
       <r>   12.4275   -0.0000 </r>
      </set>
      <set comment="kpoint 81">
       <r>   -2.6626    1.0000 </r>
       <r>   -1.8764    1.0000 </r>
       <r>   -1.3997    1.0000 </r>
       <r>   -1.1047    1.0000 </r>
       <r>   -0.2445    1.0000 </r>
       <r>    0.0857    1.0000 </r>
       <r>    0.2426    1.0000 </r>
       <r>    0.7862    1.0000 </r>
       <r>    0.9808    1.0000 </r>
       <r>    1.4322    1.0000 </r>
       <r>    1.7161    1.0000 </r>
       <r>    1.9729    1.0000 </r>
       <r>    2.3452    1.0000 </r>
       <r>    2.5503    1.0000 </r>
       <r>    2.8708    1.0000 </r>
       <r>    3.1215    1.0000 </r>
       <r>    3.4028    1.0000 </r>
       <r>    3.6816    1.0000 </r>
       <r>    3.9525    1.0000 </r>
       <r>    4.1460    1.0000 </r>
       <r>    4.2294    1.0000 </r>
       <r>    4.5775    1.0000 </r>
       <r>    4.7109    1.0000 </r>
       <r>    4.8426    1.0000 </r>
       <r>    4.9990    1.0000 </r>
       <r>    5.3738    1.0000 </r>
       <r>    5.5365    1.0000 </r>
       <r>    5.8081    1.0000 </r>
       <r>    5.9415    1.0000 </r>
       <r>    6.2231    1.0000 </r>
       <r>    6.4551    1.0000 </r>
       <r>    6.6724    1.0000 </r>
       <r>    7.0361    1.0000 </r>
       <r>    7.2500    1.0000 </r>
       <r>    7.3747    1.0000 </r>
       <r>    7.5584    1.0000 </r>
       <r>    7.6486    1.0000 </r>
       <r>    7.8425    1.0000 </r>
       <r>    8.0470    1.0023 </r>
       <r>    8.2468    1.0338 </r>
       <r>    8.5432    0.3794 </r>
       <r>    8.7223   -0.0288 </r>
       <r>    8.9156   -0.0078 </r>
       <r>    9.2197   -0.0000 </r>
       <r>    9.3939   -0.0000 </r>
       <r>    9.5474   -0.0000 </r>
       <r>    9.6426   -0.0000 </r>
       <r>    9.9727   -0.0000 </r>
       <r>   10.0844   -0.0000 </r>
       <r>   10.1216   -0.0000 </r>
       <r>   10.2075   -0.0000 </r>
       <r>   10.3782   -0.0000 </r>
       <r>   10.6734   -0.0000 </r>
       <r>   10.8341   -0.0000 </r>
       <r>   11.1823   -0.0000 </r>
       <r>   11.2985   -0.0000 </r>
       <r>   11.3771   -0.0000 </r>
       <r>   11.5786   -0.0000 </r>
       <r>   11.7730   -0.0000 </r>
       <r>   11.8641   -0.0000 </r>
       <r>   11.9649   -0.0000 </r>
       <r>   12.0398   -0.0000 </r>
       <r>   12.2519   -0.0000 </r>
       <r>   12.3636   -0.0000 </r>
      </set>
      <set comment="kpoint 82">
       <r>   -2.6540    1.0000 </r>
       <r>   -1.9462    1.0000 </r>
       <r>   -1.3856    1.0000 </r>
       <r>   -0.9161    1.0000 </r>
       <r>   -0.4333    1.0000 </r>
       <r>    0.1131    1.0000 </r>
       <r>    0.2626    1.0000 </r>
       <r>    0.7181    1.0000 </r>
       <r>    1.1734    1.0000 </r>
       <r>    1.2986    1.0000 </r>
       <r>    1.5405    1.0000 </r>
       <r>    2.0890    1.0000 </r>
       <r>    2.3537    1.0000 </r>
       <r>    2.6094    1.0000 </r>
       <r>    2.8855    1.0000 </r>
       <r>    3.1362    1.0000 </r>
       <r>    3.4291    1.0000 </r>
       <r>    3.5924    1.0000 </r>
       <r>    4.0354    1.0000 </r>
       <r>    4.1763    1.0000 </r>
       <r>    4.2674    1.0000 </r>
       <r>    4.4414    1.0000 </r>
       <r>    4.6972    1.0000 </r>
       <r>    4.9134    1.0000 </r>
       <r>    5.1930    1.0000 </r>
       <r>    5.3286    1.0000 </r>
       <r>    5.4660    1.0000 </r>
       <r>    5.7005    1.0000 </r>
       <r>    5.8730    1.0000 </r>
       <r>    6.3137    1.0000 </r>
       <r>    6.4339    1.0000 </r>
       <r>    6.5787    1.0000 </r>
       <r>    7.0688    1.0000 </r>
       <r>    7.2603    1.0000 </r>
       <r>    7.4339    1.0000 </r>
       <r>    7.5061    1.0000 </r>
       <r>    7.7029    1.0000 </r>
       <r>    7.9078    1.0001 </r>
       <r>    8.0765    1.0041 </r>
       <r>    8.2241    1.0298 </r>
       <r>    8.4738    0.6678 </r>
       <r>    8.7103   -0.0229 </r>
       <r>    8.9136   -0.0081 </r>
       <r>    9.0710   -0.0003 </r>
       <r>    9.4004   -0.0000 </r>
       <r>    9.5155   -0.0000 </r>
       <r>    9.7314   -0.0000 </r>
       <r>    9.9460   -0.0000 </r>
       <r>   10.0119   -0.0000 </r>
       <r>   10.1358   -0.0000 </r>
       <r>   10.1945   -0.0000 </r>
       <r>   10.4590   -0.0000 </r>
       <r>   10.6119   -0.0000 </r>
       <r>   10.8890   -0.0000 </r>
       <r>   11.0694   -0.0000 </r>
       <r>   11.2713   -0.0000 </r>
       <r>   11.3655   -0.0000 </r>
       <r>   11.5821   -0.0000 </r>
       <r>   11.8455   -0.0000 </r>
       <r>   11.9767   -0.0000 </r>
       <r>   12.0823   -0.0000 </r>
       <r>   12.1847   -0.0000 </r>
       <r>   12.2877   -0.0000 </r>
       <r>   12.4513   -0.0000 </r>
      </set>
      <set comment="kpoint 83">
       <r>   -2.6615    1.0000 </r>
       <r>   -1.9176    1.0000 </r>
       <r>   -1.4016    1.0000 </r>
       <r>   -0.9197    1.0000 </r>
       <r>   -0.4012    1.0000 </r>
       <r>    0.0336    1.0000 </r>
       <r>    0.2221    1.0000 </r>
       <r>    0.7636    1.0000 </r>
       <r>    1.1426    1.0000 </r>
       <r>    1.3591    1.0000 </r>
       <r>    1.6271    1.0000 </r>
       <r>    2.0659    1.0000 </r>
       <r>    2.3223    1.0000 </r>
       <r>    2.6323    1.0000 </r>
       <r>    2.8294    1.0000 </r>
       <r>    3.2660    1.0000 </r>
       <r>    3.4887    1.0000 </r>
       <r>    3.5779    1.0000 </r>
       <r>    3.7813    1.0000 </r>
       <r>    4.1700    1.0000 </r>
       <r>    4.2776    1.0000 </r>
       <r>    4.5896    1.0000 </r>
       <r>    4.6489    1.0000 </r>
       <r>    4.8567    1.0000 </r>
       <r>    5.0990    1.0000 </r>
       <r>    5.3643    1.0000 </r>
       <r>    5.4578    1.0000 </r>
       <r>    5.7361    1.0000 </r>
       <r>    5.9883    1.0000 </r>
       <r>    6.1918    1.0000 </r>
       <r>    6.3937    1.0000 </r>
       <r>    6.5929    1.0000 </r>
       <r>    7.0437    1.0000 </r>
       <r>    7.2523    1.0000 </r>
       <r>    7.5058    1.0000 </r>
       <r>    7.6001    1.0000 </r>
       <r>    7.6591    1.0000 </r>
       <r>    7.9983    1.0008 </r>
       <r>    8.1358    1.0111 </r>
       <r>    8.2852    1.0344 </r>
       <r>    8.4549    0.7399 </r>
       <r>    8.6486    0.0506 </r>
       <r>    8.9361   -0.0055 </r>
       <r>    9.1556   -0.0000 </r>
       <r>    9.3803   -0.0000 </r>
       <r>    9.5185   -0.0000 </r>
       <r>    9.7109   -0.0000 </r>
       <r>    9.8166   -0.0000 </r>
       <r>    9.9590   -0.0000 </r>
       <r>   10.0418   -0.0000 </r>
       <r>   10.1637   -0.0000 </r>
       <r>   10.5121   -0.0000 </r>
       <r>   10.6456   -0.0000 </r>
       <r>   10.9087   -0.0000 </r>
       <r>   11.0831   -0.0000 </r>
       <r>   11.3350   -0.0000 </r>
       <r>   11.4337   -0.0000 </r>
       <r>   11.5220   -0.0000 </r>
       <r>   11.6403   -0.0000 </r>
       <r>   12.0083   -0.0000 </r>
       <r>   12.1152   -0.0000 </r>
       <r>   12.1835   -0.0000 </r>
       <r>   12.2462   -0.0000 </r>
       <r>   12.4081   -0.0000 </r>
      </set>
      <set comment="kpoint 84">
       <r>   -2.6963    1.0000 </r>
       <r>   -1.7733    1.0000 </r>
       <r>   -1.3972    1.0000 </r>
       <r>   -1.1279    1.0000 </r>
       <r>   -0.3008    1.0000 </r>
       <r>   -0.0150    1.0000 </r>
       <r>    0.3477    1.0000 </r>
       <r>    0.6961    1.0000 </r>
       <r>    0.9453    1.0000 </r>
       <r>    1.4309    1.0000 </r>
       <r>    1.6399    1.0000 </r>
       <r>    2.2036    1.0000 </r>
       <r>    2.4503    1.0000 </r>
       <r>    2.5768    1.0000 </r>
       <r>    2.8588    1.0000 </r>
       <r>    3.1418    1.0000 </r>
       <r>    3.4167    1.0000 </r>
       <r>    3.6474    1.0000 </r>
       <r>    3.8536    1.0000 </r>
       <r>    4.1040    1.0000 </r>
       <r>    4.3523    1.0000 </r>
       <r>    4.4705    1.0000 </r>
       <r>    4.6047    1.0000 </r>
       <r>    4.8237    1.0000 </r>
       <r>    5.0693    1.0000 </r>
       <r>    5.4699    1.0000 </r>
       <r>    5.6017    1.0000 </r>
       <r>    5.7592    1.0000 </r>
       <r>    5.9087    1.0000 </r>
       <r>    6.1812    1.0000 </r>
       <r>    6.4162    1.0000 </r>
       <r>    6.5394    1.0000 </r>
       <r>    7.1629    1.0000 </r>
       <r>    7.2888    1.0000 </r>
       <r>    7.4308    1.0000 </r>
       <r>    7.5174    1.0000 </r>
       <r>    7.6321    1.0000 </r>
       <r>    7.7974    1.0000 </r>
       <r>    8.0697    1.0036 </r>
       <r>    8.2807    1.0349 </r>
       <r>    8.4545    0.7411 </r>
       <r>    8.6090    0.1450 </r>
       <r>    9.0931   -0.0002 </r>
       <r>    9.1902   -0.0000 </r>
       <r>    9.2881   -0.0000 </r>
       <r>    9.5888   -0.0000 </r>
       <r>    9.6668   -0.0000 </r>
       <r>    9.9439   -0.0000 </r>
       <r>   10.0383   -0.0000 </r>
       <r>   10.1509   -0.0000 </r>
       <r>   10.3182   -0.0000 </r>
       <r>   10.4371   -0.0000 </r>
       <r>   10.6751   -0.0000 </r>
       <r>   10.9323   -0.0000 </r>
       <r>   11.0436   -0.0000 </r>
       <r>   11.1610   -0.0000 </r>
       <r>   11.4598   -0.0000 </r>
       <r>   11.6817   -0.0000 </r>
       <r>   11.7729   -0.0000 </r>
       <r>   11.8597   -0.0000 </r>
       <r>   12.0062   -0.0000 </r>
       <r>   12.1466   -0.0000 </r>
       <r>   12.2364   -0.0000 </r>
       <r>   12.3638   -0.0000 </r>
      </set>
      <set comment="kpoint 85">
       <r>   -2.6698    1.0000 </r>
       <r>   -1.8877    1.0000 </r>
       <r>   -1.3634    1.0000 </r>
       <r>   -1.0419    1.0000 </r>
       <r>   -0.3432    1.0000 </r>
       <r>    0.0266    1.0000 </r>
       <r>    0.2163    1.0000 </r>
       <r>    0.8078    1.0000 </r>
       <r>    1.1649    1.0000 </r>
       <r>    1.3171    1.0000 </r>
       <r>    1.6637    1.0000 </r>
       <r>    2.0281    1.0000 </r>
       <r>    2.3299    1.0000 </r>
       <r>    2.5971    1.0000 </r>
       <r>    2.9128    1.0000 </r>
       <r>    3.0759    1.0000 </r>
       <r>    3.5349    1.0000 </r>
       <r>    3.6423    1.0000 </r>
       <r>    3.8260    1.0000 </r>
       <r>    4.1888    1.0000 </r>
       <r>    4.2050    1.0000 </r>
       <r>    4.5391    1.0000 </r>
       <r>    4.7417    1.0000 </r>
       <r>    4.9035    1.0000 </r>
       <r>    5.1334    1.0000 </r>
       <r>    5.2675    1.0000 </r>
       <r>    5.4773    1.0000 </r>
       <r>    5.7474    1.0000 </r>
       <r>    5.8700    1.0000 </r>
       <r>    6.3353    1.0000 </r>
       <r>    6.4834    1.0000 </r>
       <r>    6.5532    1.0000 </r>
       <r>    7.0430    1.0000 </r>
       <r>    7.2116    1.0000 </r>
       <r>    7.2614    1.0000 </r>
       <r>    7.6631    1.0000 </r>
       <r>    7.7110    1.0000 </r>
       <r>    7.8501    1.0000 </r>
       <r>    8.1646    1.0165 </r>
       <r>    8.2945    1.0326 </r>
       <r>    8.4976    0.5707 </r>
       <r>    8.7503   -0.0351 </r>
       <r>    8.9499   -0.0043 </r>
       <r>    9.1486   -0.0000 </r>
       <r>    9.2819   -0.0000 </r>
       <r>    9.5412   -0.0000 </r>
       <r>    9.6744   -0.0000 </r>
       <r>    9.8688   -0.0000 </r>
       <r>   10.0606   -0.0000 </r>
       <r>   10.1287   -0.0000 </r>
       <r>   10.2381   -0.0000 </r>
       <r>   10.5541   -0.0000 </r>
       <r>   10.7792   -0.0000 </r>
       <r>   10.8273   -0.0000 </r>
       <r>   11.0308   -0.0000 </r>
       <r>   11.2647   -0.0000 </r>
       <r>   11.3652   -0.0000 </r>
       <r>   11.5529   -0.0000 </r>
       <r>   11.7053   -0.0000 </r>
       <r>   11.9386   -0.0000 </r>
       <r>   11.9894   -0.0000 </r>
       <r>   12.0795   -0.0000 </r>
       <r>   12.3178   -0.0000 </r>
       <r>   12.4157   -0.0000 </r>
      </set>
      <set comment="kpoint 86">
       <r>   -2.6608    1.0000 </r>
       <r>   -1.9506    1.0000 </r>
       <r>   -1.2714    1.0000 </r>
       <r>   -1.0366    1.0000 </r>
       <r>   -0.3755    1.0000 </r>
       <r>   -0.0454    1.0000 </r>
       <r>    0.3203    1.0000 </r>
       <r>    0.7899    1.0000 </r>
       <r>    1.1076    1.0000 </r>
       <r>    1.3227    1.0000 </r>
       <r>    1.6799    1.0000 </r>
       <r>    2.0848    1.0000 </r>
       <r>    2.2192    1.0000 </r>
       <r>    2.4735    1.0000 </r>
       <r>    3.0709    1.0000 </r>
       <r>    3.1238    1.0000 </r>
       <r>    3.4851    1.0000 </r>
       <r>    3.7120    1.0000 </r>
       <r>    3.8593    1.0000 </r>
       <r>    4.0573    1.0000 </r>
       <r>    4.3778    1.0000 </r>
       <r>    4.5973    1.0000 </r>
       <r>    4.7309    1.0000 </r>
       <r>    4.7864    1.0000 </r>
       <r>    5.0844    1.0000 </r>
       <r>    5.3159    1.0000 </r>
       <r>    5.3855    1.0000 </r>
       <r>    5.7957    1.0000 </r>
       <r>    5.9744    1.0000 </r>
       <r>    6.2110    1.0000 </r>
       <r>    6.4199    1.0000 </r>
       <r>    6.6783    1.0000 </r>
       <r>    7.0793    1.0000 </r>
       <r>    7.1792    1.0000 </r>
       <r>    7.3554    1.0000 </r>
       <r>    7.5421    1.0000 </r>
       <r>    7.7240    1.0000 </r>
       <r>    7.8527    1.0000 </r>
       <r>    8.0670    1.0035 </r>
       <r>    8.2610    1.0352 </r>
       <r>    8.5015    0.5545 </r>
       <r>    8.7077   -0.0213 </r>
       <r>    8.9895   -0.0020 </r>
       <r>    9.2643   -0.0000 </r>
       <r>    9.3465   -0.0000 </r>
       <r>    9.4828   -0.0000 </r>
       <r>    9.5957   -0.0000 </r>
       <r>    9.9099   -0.0000 </r>
       <r>    9.9789   -0.0000 </r>
       <r>   10.1600   -0.0000 </r>
       <r>   10.2900   -0.0000 </r>
       <r>   10.4748   -0.0000 </r>
       <r>   10.7187   -0.0000 </r>
       <r>   10.9263   -0.0000 </r>
       <r>   11.0887   -0.0000 </r>
       <r>   11.2442   -0.0000 </r>
       <r>   11.3861   -0.0000 </r>
       <r>   11.5019   -0.0000 </r>
       <r>   11.6678   -0.0000 </r>
       <r>   11.8179   -0.0000 </r>
       <r>   12.0024   -0.0000 </r>
       <r>   12.1855   -0.0000 </r>
       <r>   12.2477   -0.0000 </r>
       <r>   12.3877   -0.0000 </r>
      </set>
      <set comment="kpoint 87">
       <r>   -2.6665    1.0000 </r>
       <r>   -1.8833    1.0000 </r>
       <r>   -1.4252    1.0000 </r>
       <r>   -0.9902    1.0000 </r>
       <r>   -0.3358    1.0000 </r>
       <r>   -0.0320    1.0000 </r>
       <r>    0.4327    1.0000 </r>
       <r>    0.8052    1.0000 </r>
       <r>    0.9749    1.0000 </r>
       <r>    1.2500    1.0000 </r>
       <r>    1.6181    1.0000 </r>
       <r>    2.1274    1.0000 </r>
       <r>    2.3256    1.0000 </r>
       <r>    2.6152    1.0000 </r>
       <r>    2.8325    1.0000 </r>
       <r>    3.2890    1.0000 </r>
       <r>    3.4174    1.0000 </r>
       <r>    3.6609    1.0000 </r>
       <r>    3.9340    1.0000 </r>
       <r>    4.1412    1.0000 </r>
       <r>    4.2789    1.0000 </r>
       <r>    4.4557    1.0000 </r>
       <r>    4.6182    1.0000 </r>
       <r>    4.9508    1.0000 </r>
       <r>    5.0446    1.0000 </r>
       <r>    5.2513    1.0000 </r>
       <r>    5.5569    1.0000 </r>
       <r>    5.7552    1.0000 </r>
       <r>    5.9892    1.0000 </r>
       <r>    6.2697    1.0000 </r>
       <r>    6.5478    1.0000 </r>
       <r>    6.5804    1.0000 </r>
       <r>    7.0515    1.0000 </r>
       <r>    7.2612    1.0000 </r>
       <r>    7.3163    1.0000 </r>
       <r>    7.4894    1.0000 </r>
       <r>    7.6196    1.0000 </r>
       <r>    7.9669    1.0004 </r>
       <r>    8.1100    1.0074 </r>
       <r>    8.2217    1.0293 </r>
       <r>    8.4988    0.5657 </r>
       <r>    8.6674    0.0194 </r>
       <r>    9.0570   -0.0004 </r>
       <r>    9.1353   -0.0001 </r>
       <r>    9.2766   -0.0000 </r>
       <r>    9.5157   -0.0000 </r>
       <r>    9.7930   -0.0000 </r>
       <r>    9.9416   -0.0000 </r>
       <r>   10.0063   -0.0000 </r>
       <r>   10.1101   -0.0000 </r>
       <r>   10.1763   -0.0000 </r>
       <r>   10.4703   -0.0000 </r>
       <r>   10.5710   -0.0000 </r>
       <r>   10.8629   -0.0000 </r>
       <r>   11.0584   -0.0000 </r>
       <r>   11.2553   -0.0000 </r>
       <r>   11.4457   -0.0000 </r>
       <r>   11.6254   -0.0000 </r>
       <r>   11.7576   -0.0000 </r>
       <r>   11.9383   -0.0000 </r>
       <r>   12.0431   -0.0000 </r>
       <r>   12.1584   -0.0000 </r>
       <r>   12.2976   -0.0000 </r>
       <r>   12.3561   -0.0000 </r>
      </set>
      <set comment="kpoint 88">
       <r>   -2.7039    1.0000 </r>
       <r>   -1.7847    1.0000 </r>
       <r>   -1.3796    1.0000 </r>
       <r>   -1.0344    1.0000 </r>
       <r>   -0.3619    1.0000 </r>
       <r>   -0.1123    1.0000 </r>
       <r>    0.2443    1.0000 </r>
       <r>    0.8308    1.0000 </r>
       <r>    1.0348    1.0000 </r>
       <r>    1.3264    1.0000 </r>
       <r>    1.7582    1.0000 </r>
       <r>    2.1820    1.0000 </r>
       <r>    2.2866    1.0000 </r>
       <r>    2.6724    1.0000 </r>
       <r>    2.9141    1.0000 </r>
       <r>    3.0943    1.0000 </r>
       <r>    3.5181    1.0000 </r>
       <r>    3.5704    1.0000 </r>
       <r>    3.8970    1.0000 </r>
       <r>    4.1094    1.0000 </r>
       <r>    4.3379    1.0000 </r>
       <r>    4.4570    1.0000 </r>
       <r>    4.6416    1.0000 </r>
       <r>    4.8279    1.0000 </r>
       <r>    5.1018    1.0000 </r>
       <r>    5.3873    1.0000 </r>
       <r>    5.5737    1.0000 </r>
       <r>    5.7150    1.0000 </r>
       <r>    5.9531    1.0000 </r>
       <r>    6.2334    1.0000 </r>
       <r>    6.3397    1.0000 </r>
       <r>    6.4852    1.0000 </r>
       <r>    7.1266    1.0000 </r>
       <r>    7.2549    1.0000 </r>
       <r>    7.3538    1.0000 </r>
       <r>    7.6534    1.0000 </r>
       <r>    7.7367    1.0000 </r>
       <r>    7.7473    1.0000 </r>
       <r>    8.0826    1.0046 </r>
       <r>    8.2688    1.0355 </r>
       <r>    8.4706    0.6805 </r>
       <r>    8.7167   -0.0263 </r>
       <r>    9.0505   -0.0005 </r>
       <r>    9.1602   -0.0000 </r>
       <r>    9.4105   -0.0000 </r>
       <r>    9.5374   -0.0000 </r>
       <r>    9.6534   -0.0000 </r>
       <r>    9.8878   -0.0000 </r>
       <r>    9.9828   -0.0000 </r>
       <r>   10.1302   -0.0000 </r>
       <r>   10.2620   -0.0000 </r>
       <r>   10.4924   -0.0000 </r>
       <r>   10.6788   -0.0000 </r>
       <r>   10.9305   -0.0000 </r>
       <r>   11.0471   -0.0000 </r>
       <r>   11.2666   -0.0000 </r>
       <r>   11.5260   -0.0000 </r>
       <r>   11.5690   -0.0000 </r>
       <r>   11.7135   -0.0000 </r>
       <r>   11.8928   -0.0000 </r>
       <r>   12.0447   -0.0000 </r>
       <r>   12.1256   -0.0000 </r>
       <r>   12.2383   -0.0000 </r>
       <r>   12.4203   -0.0000 </r>
      </set>
      <set comment="kpoint 89">
       <r>   -2.6429    1.0000 </r>
       <r>   -1.9258    1.0000 </r>
       <r>   -1.4619    1.0000 </r>
       <r>   -0.9815    1.0000 </r>
       <r>   -0.2797    1.0000 </r>
       <r>    0.0312    1.0000 </r>
       <r>    0.4058    1.0000 </r>
       <r>    0.6831    1.0000 </r>
       <r>    1.1856    1.0000 </r>
       <r>    1.2920    1.0000 </r>
       <r>    1.5046    1.0000 </r>
       <r>    1.9664    1.0000 </r>
       <r>    2.4837    1.0000 </r>
       <r>    2.5878    1.0000 </r>
       <r>    2.8394    1.0000 </r>
       <r>    3.2260    1.0000 </r>
       <r>    3.3867    1.0000 </r>
       <r>    3.6964    1.0000 </r>
       <r>    3.8480    1.0000 </r>
       <r>    4.0867    1.0000 </r>
       <r>    4.1790    1.0000 </r>
       <r>    4.5351    1.0000 </r>
       <r>    4.7146    1.0000 </r>
       <r>    4.9368    1.0000 </r>
       <r>    5.1136    1.0000 </r>
       <r>    5.3518    1.0000 </r>
       <r>    5.5618    1.0000 </r>
       <r>    5.6998    1.0000 </r>
       <r>    5.9412    1.0000 </r>
       <r>    6.3069    1.0000 </r>
       <r>    6.4871    1.0000 </r>
       <r>    6.6374    1.0000 </r>
       <r>    7.0437    1.0000 </r>
       <r>    7.3530    1.0000 </r>
       <r>    7.3989    1.0000 </r>
       <r>    7.4696    1.0000 </r>
       <r>    7.6676    1.0000 </r>
       <r>    7.8752    1.0000 </r>
       <r>    8.1194    1.0087 </r>
       <r>    8.2579    1.0350 </r>
       <r>    8.3868    0.9363 </r>
       <r>    8.6701    0.0157 </r>
       <r>    8.8829   -0.0128 </r>
       <r>    9.1583   -0.0000 </r>
       <r>    9.2780   -0.0000 </r>
       <r>    9.5611   -0.0000 </r>
       <r>    9.7558   -0.0000 </r>
       <r>    9.9720   -0.0000 </r>
       <r>   10.0511   -0.0000 </r>
       <r>   10.1317   -0.0000 </r>
       <r>   10.2122   -0.0000 </r>
       <r>   10.5314   -0.0000 </r>
       <r>   10.7392   -0.0000 </r>
       <r>   10.7716   -0.0000 </r>
       <r>   10.9248   -0.0000 </r>
       <r>   11.3063   -0.0000 </r>
       <r>   11.4283   -0.0000 </r>
       <r>   11.6958   -0.0000 </r>
       <r>   11.7818   -0.0000 </r>
       <r>   11.8571   -0.0000 </r>
       <r>   11.9253   -0.0000 </r>
       <r>   12.1135   -0.0000 </r>
       <r>   12.3020   -0.0000 </r>
       <r>   12.4094   -0.0000 </r>
      </set>
      <set comment="kpoint 90">
       <r>   -2.6961    1.0000 </r>
       <r>   -1.8051    1.0000 </r>
       <r>   -1.3802    1.0000 </r>
       <r>   -1.0362    1.0000 </r>
       <r>   -0.3646    1.0000 </r>
       <r>   -0.1529    1.0000 </r>
       <r>    0.4267    1.0000 </r>
       <r>    0.6910    1.0000 </r>
       <r>    1.0567    1.0000 </r>
       <r>    1.3866    1.0000 </r>
       <r>    1.7410    1.0000 </r>
       <r>    2.1503    1.0000 </r>
       <r>    2.2205    1.0000 </r>
       <r>    2.6907    1.0000 </r>
       <r>    2.8835    1.0000 </r>
       <r>    3.1809    1.0000 </r>
       <r>    3.4472    1.0000 </r>
       <r>    3.5687    1.0000 </r>
       <r>    3.8168    1.0000 </r>
       <r>    4.1702    1.0000 </r>
       <r>    4.3408    1.0000 </r>
       <r>    4.5224    1.0000 </r>
       <r>    4.6998    1.0000 </r>
       <r>    4.8176    1.0000 </r>
       <r>    5.0791    1.0000 </r>
       <r>    5.3553    1.0000 </r>
       <r>    5.5946    1.0000 </r>
       <r>    5.7795    1.0000 </r>
       <r>    5.9291    1.0000 </r>
       <r>    6.1542    1.0000 </r>
       <r>    6.3557    1.0000 </r>
       <r>    6.4821    1.0000 </r>
       <r>    7.0800    1.0000 </r>
       <r>    7.2669    1.0000 </r>
       <r>    7.3384    1.0000 </r>
       <r>    7.5868    1.0000 </r>
       <r>    7.6998    1.0000 </r>
       <r>    7.8540    1.0000 </r>
       <r>    8.0754    1.0040 </r>
       <r>    8.3879    0.9341 </r>
       <r>    8.6238    0.1051 </r>
       <r>    8.6519    0.0446 </r>
       <r>    8.9947   -0.0018 </r>
       <r>    9.2176   -0.0000 </r>
       <r>    9.3653   -0.0000 </r>
       <r>    9.4895   -0.0000 </r>
       <r>    9.6735   -0.0000 </r>
       <r>    9.8530   -0.0000 </r>
       <r>    9.9964   -0.0000 </r>
       <r>   10.1627   -0.0000 </r>
       <r>   10.2523   -0.0000 </r>
       <r>   10.3478   -0.0000 </r>
       <r>   10.5879   -0.0000 </r>
       <r>   10.9395   -0.0000 </r>
       <r>   11.0972   -0.0000 </r>
       <r>   11.3420   -0.0000 </r>
       <r>   11.4146   -0.0000 </r>
       <r>   11.6874   -0.0000 </r>
       <r>   11.7955   -0.0000 </r>
       <r>   11.8805   -0.0000 </r>
       <r>   11.9945   -0.0000 </r>
       <r>   12.2053   -0.0000 </r>
       <r>   12.2636   -0.0000 </r>
       <r>   12.4140   -0.0000 </r>
      </set>
      <set comment="kpoint 91">
       <r>   -2.6637    1.0000 </r>
       <r>   -1.9324    1.0000 </r>
       <r>   -1.3260    1.0000 </r>
       <r>   -1.0000    1.0000 </r>
       <r>   -0.4123    1.0000 </r>
       <r>    0.0742    1.0000 </r>
       <r>    0.3231    1.0000 </r>
       <r>    0.7044    1.0000 </r>
       <r>    0.9748    1.0000 </r>
       <r>    1.4164    1.0000 </r>
       <r>    1.7506    1.0000 </r>
       <r>    2.0496    1.0000 </r>
       <r>    2.1552    1.0000 </r>
       <r>    2.5936    1.0000 </r>
       <r>    2.9961    1.0000 </r>
       <r>    3.2216    1.0000 </r>
       <r>    3.4632    1.0000 </r>
       <r>    3.6989    1.0000 </r>
       <r>    3.8178    1.0000 </r>
       <r>    4.0920    1.0000 </r>
       <r>    4.4608    1.0000 </r>
       <r>    4.5164    1.0000 </r>
       <r>    4.6486    1.0000 </r>
       <r>    4.7492    1.0000 </r>
       <r>    5.0183    1.0000 </r>
       <r>    5.3708    1.0000 </r>
       <r>    5.4443    1.0000 </r>
       <r>    5.7681    1.0000 </r>
       <r>    5.9745    1.0000 </r>
       <r>    6.3180    1.0000 </r>
       <r>    6.4552    1.0000 </r>
       <r>    6.6105    1.0000 </r>
       <r>    7.0806    1.0000 </r>
       <r>    7.1908    1.0000 </r>
       <r>    7.4919    1.0000 </r>
       <r>    7.5647    1.0000 </r>
       <r>    7.7133    1.0000 </r>
       <r>    7.8708    1.0000 </r>
       <r>    8.0529    1.0026 </r>
       <r>    8.1879    1.0216 </r>
       <r>    8.4390    0.7952 </r>
       <r>    8.6647    0.0233 </r>
       <r>    8.8781   -0.0137 </r>
       <r>    9.1663   -0.0000 </r>
       <r>    9.4215   -0.0000 </r>
       <r>    9.4458   -0.0000 </r>
       <r>    9.6109   -0.0000 </r>
       <r>    9.9509   -0.0000 </r>
       <r>    9.9979   -0.0000 </r>
       <r>   10.1624   -0.0000 </r>
       <r>   10.2844   -0.0000 </r>
       <r>   10.5566   -0.0000 </r>
       <r>   10.7175   -0.0000 </r>
       <r>   10.9438   -0.0000 </r>
       <r>   11.0670   -0.0000 </r>
       <r>   11.2405   -0.0000 </r>
       <r>   11.3447   -0.0000 </r>
       <r>   11.5765   -0.0000 </r>
       <r>   11.7323   -0.0000 </r>
       <r>   11.8900   -0.0000 </r>
       <r>   12.0628   -0.0000 </r>
       <r>   12.1144   -0.0000 </r>
       <r>   12.2539   -0.0000 </r>
       <r>   12.4403   -0.0000 </r>
      </set>
      <set comment="kpoint 92">
       <r>   -2.6909    1.0000 </r>
       <r>   -1.8285    1.0000 </r>
       <r>   -1.4010    1.0000 </r>
       <r>   -0.9933    1.0000 </r>
       <r>   -0.2771    1.0000 </r>
       <r>   -0.1141    1.0000 </r>
       <r>    0.1945    1.0000 </r>
       <r>    0.7618    1.0000 </r>
       <r>    1.0145    1.0000 </r>
       <r>    1.5146    1.0000 </r>
       <r>    1.6770    1.0000 </r>
       <r>    2.0598    1.0000 </r>
       <r>    2.3924    1.0000 </r>
       <r>    2.6380    1.0000 </r>
       <r>    2.8547    1.0000 </r>
       <r>    3.1783    1.0000 </r>
       <r>    3.4292    1.0000 </r>
       <r>    3.5797    1.0000 </r>
       <r>    3.8954    1.0000 </r>
       <r>    4.1161    1.0000 </r>
       <r>    4.4073    1.0000 </r>
       <r>    4.5374    1.0000 </r>
       <r>    4.6588    1.0000 </r>
       <r>    4.7600    1.0000 </r>
       <r>    4.9951    1.0000 </r>
       <r>    5.4159    1.0000 </r>
       <r>    5.6556    1.0000 </r>
       <r>    5.7227    1.0000 </r>
       <r>    5.9039    1.0000 </r>
       <r>    6.1630    1.0000 </r>
       <r>    6.3482    1.0000 </r>
       <r>    6.5765    1.0000 </r>
       <r>    7.1168    1.0000 </r>
       <r>    7.2710    1.0000 </r>
       <r>    7.4856    1.0000 </r>
       <r>    7.5449    1.0000 </r>
       <r>    7.6851    1.0000 </r>
       <r>    7.8157    1.0000 </r>
       <r>    8.0286    1.0016 </r>
       <r>    8.2370    1.0322 </r>
       <r>    8.5190    0.4804 </r>
       <r>    8.7221   -0.0287 </r>
       <r>    8.9463   -0.0046 </r>
       <r>    9.2259   -0.0000 </r>
       <r>    9.4627   -0.0000 </r>
       <r>    9.4925   -0.0000 </r>
       <r>    9.6189   -0.0000 </r>
       <r>    9.8944   -0.0000 </r>
       <r>   10.0236   -0.0000 </r>
       <r>   10.0776   -0.0000 </r>
       <r>   10.2631   -0.0000 </r>
       <r>   10.4964   -0.0000 </r>
       <r>   10.7062   -0.0000 </r>
       <r>   10.8479   -0.0000 </r>
       <r>   11.1082   -0.0000 </r>
       <r>   11.2733   -0.0000 </r>
       <r>   11.4439   -0.0000 </r>
       <r>   11.5706   -0.0000 </r>
       <r>   11.7865   -0.0000 </r>
       <r>   11.9095   -0.0000 </r>
       <r>   11.9531   -0.0000 </r>
       <r>   12.0966   -0.0000 </r>
       <r>   12.2719   -0.0000 </r>
       <r>   12.4100   -0.0000 </r>
      </set>
      <set comment="kpoint 93">
       <r>   -2.6471    1.0000 </r>
       <r>   -1.9454    1.0000 </r>
       <r>   -1.4042    1.0000 </r>
       <r>   -0.9497    1.0000 </r>
       <r>   -0.3791    1.0000 </r>
       <r>    0.0886    1.0000 </r>
       <r>    0.2849    1.0000 </r>
       <r>    0.6724    1.0000 </r>
       <r>    1.1767    1.0000 </r>
       <r>    1.3308    1.0000 </r>
       <r>    1.6578    1.0000 </r>
       <r>    2.0870    1.0000 </r>
       <r>    2.2935    1.0000 </r>
       <r>    2.5204    1.0000 </r>
       <r>    2.8473    1.0000 </r>
       <r>    3.2399    1.0000 </r>
       <r>    3.5121    1.0000 </r>
       <r>    3.6692    1.0000 </r>
       <r>    3.8704    1.0000 </r>
       <r>    4.1449    1.0000 </r>
       <r>    4.2111    1.0000 </r>
       <r>    4.5403    1.0000 </r>
       <r>    4.6064    1.0000 </r>
       <r>    4.7980    1.0000 </r>
       <r>    5.1296    1.0000 </r>
       <r>    5.3037    1.0000 </r>
       <r>    5.4312    1.0000 </r>
       <r>    5.8433    1.0000 </r>
       <r>    5.9626    1.0000 </r>
       <r>    6.3417    1.0000 </r>
       <r>    6.5098    1.0000 </r>
       <r>    6.6598    1.0000 </r>
       <r>    7.0147    1.0000 </r>
       <r>    7.2168    1.0000 </r>
       <r>    7.3588    1.0000 </r>
       <r>    7.6140    1.0000 </r>
       <r>    7.6332    1.0000 </r>
       <r>    7.8960    1.0001 </r>
       <r>    8.1163    1.0082 </r>
       <r>    8.2853    1.0344 </r>
       <r>    8.5653    0.2919 </r>
       <r>    8.7051   -0.0196 </r>
       <r>    8.9521   -0.0041 </r>
       <r>    9.1534   -0.0000 </r>
       <r>    9.2348   -0.0000 </r>
       <r>    9.3847   -0.0000 </r>
       <r>    9.7436   -0.0000 </r>
       <r>    9.8622   -0.0000 </r>
       <r>   10.0382   -0.0000 </r>
       <r>   10.1855   -0.0000 </r>
       <r>   10.3312   -0.0000 </r>
       <r>   10.5258   -0.0000 </r>
       <r>   10.6180   -0.0000 </r>
       <r>   10.9454   -0.0000 </r>
       <r>   11.0109   -0.0000 </r>
       <r>   11.1634   -0.0000 </r>
       <r>   11.4224   -0.0000 </r>
       <r>   11.4944   -0.0000 </r>
       <r>   11.6945   -0.0000 </r>
       <r>   11.8668   -0.0000 </r>
       <r>   12.0591   -0.0000 </r>
       <r>   12.2043   -0.0000 </r>
       <r>   12.2740   -0.0000 </r>
       <r>   12.3901   -0.0000 </r>
      </set>
      <set comment="kpoint 94">
       <r>   -2.6888    1.0000 </r>
       <r>   -1.8050    1.0000 </r>
       <r>   -1.3637    1.0000 </r>
       <r>   -1.1405    1.0000 </r>
       <r>   -0.3678    1.0000 </r>
       <r>    0.0434    1.0000 </r>
       <r>    0.3683    1.0000 </r>
       <r>    0.6962    1.0000 </r>
       <r>    1.1007    1.0000 </r>
       <r>    1.3713    1.0000 </r>
       <r>    1.5635    1.0000 </r>
       <r>    2.2148    1.0000 </r>
       <r>    2.2743    1.0000 </r>
       <r>    2.5660    1.0000 </r>
       <r>    2.9233    1.0000 </r>
       <r>    3.2218    1.0000 </r>
       <r>    3.4421    1.0000 </r>
       <r>    3.6681    1.0000 </r>
       <r>    3.7772    1.0000 </r>
       <r>    4.0971    1.0000 </r>
       <r>    4.2392    1.0000 </r>
       <r>    4.5597    1.0000 </r>
       <r>    4.7122    1.0000 </r>
       <r>    4.8293    1.0000 </r>
       <r>    5.1737    1.0000 </r>
       <r>    5.4161    1.0000 </r>
       <r>    5.5158    1.0000 </r>
       <r>    5.7474    1.0000 </r>
       <r>    5.8785    1.0000 </r>
       <r>    6.2276    1.0000 </r>
       <r>    6.3502    1.0000 </r>
       <r>    6.5506    1.0000 </r>
       <r>    7.0789    1.0000 </r>
       <r>    7.2519    1.0000 </r>
       <r>    7.4408    1.0000 </r>
       <r>    7.6270    1.0000 </r>
       <r>    7.6976    1.0000 </r>
       <r>    7.8497    1.0000 </r>
       <r>    8.0899    1.0053 </r>
       <r>    8.2690    1.0355 </r>
       <r>    8.4768    0.6560 </r>
       <r>    8.6134    0.1326 </r>
       <r>    8.9692   -0.0030 </r>
       <r>    9.2095   -0.0000 </r>
       <r>    9.4227   -0.0000 </r>
       <r>    9.4855   -0.0000 </r>
       <r>    9.6887   -0.0000 </r>
       <r>    9.9381   -0.0000 </r>
       <r>   10.0139   -0.0000 </r>
       <r>   10.0828   -0.0000 </r>
       <r>   10.2018   -0.0000 </r>
       <r>   10.4836   -0.0000 </r>
       <r>   10.6493   -0.0000 </r>
       <r>   10.9759   -0.0000 </r>
       <r>   11.1204   -0.0000 </r>
       <r>   11.2753   -0.0000 </r>
       <r>   11.3850   -0.0000 </r>
       <r>   11.6285   -0.0000 </r>
       <r>   11.7039   -0.0000 </r>
       <r>   11.8686   -0.0000 </r>
       <r>   12.0614   -0.0000 </r>
       <r>   12.1887   -0.0000 </r>
       <r>   12.2541   -0.0000 </r>
       <r>   12.4407   -0.0000 </r>
      </set>
      <set comment="kpoint 95">
       <r>   -2.6631    1.0000 </r>
       <r>   -1.9315    1.0000 </r>
       <r>   -1.3620    1.0000 </r>
       <r>   -0.9463    1.0000 </r>
       <r>   -0.3428    1.0000 </r>
       <r>   -0.0786    1.0000 </r>
       <r>    0.2637    1.0000 </r>
       <r>    0.9231    1.0000 </r>
       <r>    1.0860    1.0000 </r>
       <r>    1.2165    1.0000 </r>
       <r>    1.6768    1.0000 </r>
       <r>    2.0127    1.0000 </r>
       <r>    2.2774    1.0000 </r>
       <r>    2.6275    1.0000 </r>
       <r>    2.9079    1.0000 </r>
       <r>    3.1500    1.0000 </r>
       <r>    3.5406    1.0000 </r>
       <r>    3.7211    1.0000 </r>
       <r>    3.7630    1.0000 </r>
       <r>    4.1738    1.0000 </r>
       <r>    4.3325    1.0000 </r>
       <r>    4.5303    1.0000 </r>
       <r>    4.7539    1.0000 </r>
       <r>    4.8840    1.0000 </r>
       <r>    5.1478    1.0000 </r>
       <r>    5.2124    1.0000 </r>
       <r>    5.4294    1.0000 </r>
       <r>    5.7924    1.0000 </r>
       <r>    5.9181    1.0000 </r>
       <r>    6.2145    1.0000 </r>
       <r>    6.4798    1.0000 </r>
       <r>    6.5941    1.0000 </r>
       <r>    6.9972    1.0000 </r>
       <r>    7.2715    1.0000 </r>
       <r>    7.4165    1.0000 </r>
       <r>    7.5243    1.0000 </r>
       <r>    7.6118    1.0000 </r>
       <r>    7.8316    1.0000 </r>
       <r>    8.1211    1.0089 </r>
       <r>    8.2787    1.0351 </r>
       <r>    8.5594    0.3149 </r>
       <r>    8.7495   -0.0351 </r>
       <r>    8.9561   -0.0038 </r>
       <r>    9.1345   -0.0001 </r>
       <r>    9.3320   -0.0000 </r>
       <r>    9.4949   -0.0000 </r>
       <r>    9.7010   -0.0000 </r>
       <r>    9.9603   -0.0000 </r>
       <r>   10.0280   -0.0000 </r>
       <r>   10.0622   -0.0000 </r>
       <r>   10.2383   -0.0000 </r>
       <r>   10.4971   -0.0000 </r>
       <r>   10.6217   -0.0000 </r>
       <r>   10.8623   -0.0000 </r>
       <r>   10.9908   -0.0000 </r>
       <r>   11.3720   -0.0000 </r>
       <r>   11.5098   -0.0000 </r>
       <r>   11.5861   -0.0000 </r>
       <r>   11.6913   -0.0000 </r>
       <r>   11.8542   -0.0000 </r>
       <r>   12.0091   -0.0000 </r>
       <r>   12.1803   -0.0000 </r>
       <r>   12.3230   -0.0000 </r>
       <r>   12.4469   -0.0000 </r>
      </set>
      <set comment="kpoint 96">
       <r>   -2.6882    1.0000 </r>
       <r>   -1.8555    1.0000 </r>
       <r>   -1.3302    1.0000 </r>
       <r>   -1.0188    1.0000 </r>
       <r>   -0.4554    1.0000 </r>
       <r>   -0.0657    1.0000 </r>
       <r>    0.4473    1.0000 </r>
       <r>    0.6954    1.0000 </r>
       <r>    1.0876    1.0000 </r>
       <r>    1.3345    1.0000 </r>
       <r>    1.5865    1.0000 </r>
       <r>    2.2094    1.0000 </r>
       <r>    2.3056    1.0000 </r>
       <r>    2.5661    1.0000 </r>
       <r>    2.9285    1.0000 </r>
       <r>    3.2666    1.0000 </r>
       <r>    3.5204    1.0000 </r>
       <r>    3.6278    1.0000 </r>
       <r>    3.7779    1.0000 </r>
       <r>    4.1763    1.0000 </r>
       <r>    4.3157    1.0000 </r>
       <r>    4.4789    1.0000 </r>
       <r>    4.6377    1.0000 </r>
       <r>    4.6971    1.0000 </r>
       <r>    5.1389    1.0000 </r>
       <r>    5.3306    1.0000 </r>
       <r>    5.4863    1.0000 </r>
       <r>    5.8071    1.0000 </r>
       <r>    5.9668    1.0000 </r>
       <r>    6.2726    1.0000 </r>
       <r>    6.4616    1.0000 </r>
       <r>    6.5392    1.0000 </r>
       <r>    7.0536    1.0000 </r>
       <r>    7.2581    1.0000 </r>
       <r>    7.4372    1.0000 </r>
       <r>    7.5810    1.0000 </r>
       <r>    7.6628    1.0000 </r>
       <r>    7.8493    1.0000 </r>
       <r>    8.0792    1.0043 </r>
       <r>    8.2479    1.0339 </r>
       <r>    8.5567    0.3253 </r>
       <r>    8.6838   -0.0012 </r>
       <r>    8.9133   -0.0081 </r>
       <r>    9.1451   -0.0000 </r>
       <r>    9.3505   -0.0000 </r>
       <r>    9.5106   -0.0000 </r>
       <r>    9.6990   -0.0000 </r>
       <r>    9.9252   -0.0000 </r>
       <r>    9.9525   -0.0000 </r>
       <r>   10.0875   -0.0000 </r>
       <r>   10.2183   -0.0000 </r>
       <r>   10.5256   -0.0000 </r>
       <r>   10.7006   -0.0000 </r>
       <r>   10.9893   -0.0000 </r>
       <r>   11.0509   -0.0000 </r>
       <r>   11.2905   -0.0000 </r>
       <r>   11.4193   -0.0000 </r>
       <r>   11.5594   -0.0000 </r>
       <r>   11.7550   -0.0000 </r>
       <r>   11.9249   -0.0000 </r>
       <r>   12.0427   -0.0000 </r>
       <r>   12.2255   -0.0000 </r>
       <r>   12.3123   -0.0000 </r>
       <r>   12.3798   -0.0000 </r>
      </set>
      <set comment="kpoint 97">
       <r>   -2.6820    1.0000 </r>
       <r>   -1.8403    1.0000 </r>
       <r>   -1.3719    1.0000 </r>
       <r>   -1.0941    1.0000 </r>
       <r>   -0.2956    1.0000 </r>
       <r>   -0.0240    1.0000 </r>
       <r>    0.3335    1.0000 </r>
       <r>    0.7336    1.0000 </r>
       <r>    1.0262    1.0000 </r>
       <r>    1.3334    1.0000 </r>
       <r>    1.7029    1.0000 </r>
       <r>    2.0663    1.0000 </r>
       <r>    2.3084    1.0000 </r>
       <r>    2.6297    1.0000 </r>
       <r>    2.9996    1.0000 </r>
       <r>    3.1496    1.0000 </r>
       <r>    3.5297    1.0000 </r>
       <r>    3.6370    1.0000 </r>
       <r>    3.7824    1.0000 </r>
       <r>    4.0749    1.0000 </r>
       <r>    4.3079    1.0000 </r>
       <r>    4.4762    1.0000 </r>
       <r>    4.6397    1.0000 </r>
       <r>    4.9113    1.0000 </r>
       <r>    5.0104    1.0000 </r>
       <r>    5.3638    1.0000 </r>
       <r>    5.5938    1.0000 </r>
       <r>    5.7610    1.0000 </r>
       <r>    5.9591    1.0000 </r>
       <r>    6.2348    1.0000 </r>
       <r>    6.3897    1.0000 </r>
       <r>    6.5876    1.0000 </r>
       <r>    7.1459    1.0000 </r>
       <r>    7.2990    1.0000 </r>
       <r>    7.4075    1.0000 </r>
       <r>    7.5993    1.0000 </r>
       <r>    7.6885    1.0000 </r>
       <r>    7.7994    1.0000 </r>
       <r>    7.9940    1.0007 </r>
       <r>    8.1961    1.0235 </r>
       <r>    8.4174    0.8617 </r>
       <r>    8.6806    0.0025 </r>
       <r>    8.9856   -0.0022 </r>
       <r>    9.1812   -0.0000 </r>
       <r>    9.3520   -0.0000 </r>
       <r>    9.6131   -0.0000 </r>
       <r>    9.7360   -0.0000 </r>
       <r>    9.8978   -0.0000 </r>
       <r>   10.0607   -0.0000 </r>
       <r>   10.2045   -0.0000 </r>
       <r>   10.2808   -0.0000 </r>
       <r>   10.5387   -0.0000 </r>
       <r>   10.6389   -0.0000 </r>
       <r>   10.8589   -0.0000 </r>
       <r>   10.9135   -0.0000 </r>
       <r>   11.1899   -0.0000 </r>
       <r>   11.5121   -0.0000 </r>
       <r>   11.5809   -0.0000 </r>
       <r>   11.7561   -0.0000 </r>
       <r>   11.8426   -0.0000 </r>
       <r>   12.0203   -0.0000 </r>
       <r>   12.1101   -0.0000 </r>
       <r>   12.2495   -0.0000 </r>
       <r>   12.3822   -0.0000 </r>
      </set>
      <set comment="kpoint 98">
       <r>   -2.6577    1.0000 </r>
       <r>   -1.8937    1.0000 </r>
       <r>   -1.4786    1.0000 </r>
       <r>   -0.9388    1.0000 </r>
       <r>   -0.3232    1.0000 </r>
       <r>    0.0938    1.0000 </r>
       <r>    0.3482    1.0000 </r>
       <r>    0.6183    1.0000 </r>
       <r>    1.1142    1.0000 </r>
       <r>    1.2664    1.0000 </r>
       <r>    1.6984    1.0000 </r>
       <r>    1.9798    1.0000 </r>
       <r>    2.2998    1.0000 </r>
       <r>    2.6389    1.0000 </r>
       <r>    2.8609    1.0000 </r>
       <r>    3.3136    1.0000 </r>
       <r>    3.5037    1.0000 </r>
       <r>    3.5660    1.0000 </r>
       <r>    3.8570    1.0000 </r>
       <r>    4.0799    1.0000 </r>
       <r>    4.2939    1.0000 </r>
       <r>    4.6330    1.0000 </r>
       <r>    4.6491    1.0000 </r>
       <r>    4.7672    1.0000 </r>
       <r>    5.1398    1.0000 </r>
       <r>    5.4200    1.0000 </r>
       <r>    5.5871    1.0000 </r>
       <r>    5.6810    1.0000 </r>
       <r>    5.8657    1.0000 </r>
       <r>    6.2710    1.0000 </r>
       <r>    6.4947    1.0000 </r>
       <r>    6.6212    1.0000 </r>
       <r>    7.1231    1.0000 </r>
       <r>    7.1753    1.0000 </r>
       <r>    7.4836    1.0000 </r>
       <r>    7.5482    1.0000 </r>
       <r>    7.6824    1.0000 </r>
       <r>    7.8593    1.0000 </r>
       <r>    8.0328    1.0017 </r>
       <r>    8.2080    1.0262 </r>
       <r>    8.3841    0.9419 </r>
       <r>    8.6916   -0.0089 </r>
       <r>    8.7771   -0.0344 </r>
       <r>    9.2992   -0.0000 </r>
       <r>    9.3691   -0.0000 </r>
       <r>    9.4840   -0.0000 </r>
       <r>    9.7046   -0.0000 </r>
       <r>    9.9487   -0.0000 </r>
       <r>   10.0138   -0.0000 </r>
       <r>   10.1442   -0.0000 </r>
       <r>   10.2705   -0.0000 </r>
       <r>   10.4608   -0.0000 </r>
       <r>   10.7297   -0.0000 </r>
       <r>   10.8297   -0.0000 </r>
       <r>   10.9945   -0.0000 </r>
       <r>   11.3523   -0.0000 </r>
       <r>   11.4553   -0.0000 </r>
       <r>   11.6878   -0.0000 </r>
       <r>   11.7308   -0.0000 </r>
       <r>   11.8856   -0.0000 </r>
       <r>   11.9615   -0.0000 </r>
       <r>   12.1657   -0.0000 </r>
       <r>   12.2674   -0.0000 </r>
       <r>   12.3932   -0.0000 </r>
      </set>
      <set comment="kpoint 99">
       <r>   -2.6619    1.0000 </r>
       <r>   -1.8967    1.0000 </r>
       <r>   -1.4635    1.0000 </r>
       <r>   -0.8562    1.0000 </r>
       <r>   -0.4172    1.0000 </r>
       <r>   -0.0113    1.0000 </r>
       <r>    0.4109    1.0000 </r>
       <r>    0.5550    1.0000 </r>
       <r>    1.0899    1.0000 </r>
       <r>    1.4177    1.0000 </r>
       <r>    1.7268    1.0000 </r>
       <r>    2.0396    1.0000 </r>
       <r>    2.3288    1.0000 </r>
       <r>    2.5721    1.0000 </r>
       <r>    2.8568    1.0000 </r>
       <r>    3.3338    1.0000 </r>
       <r>    3.5064    1.0000 </r>
       <r>    3.5908    1.0000 </r>
       <r>    3.7472    1.0000 </r>
       <r>    4.1442    1.0000 </r>
       <r>    4.2987    1.0000 </r>
       <r>    4.5224    1.0000 </r>
       <r>    4.6218    1.0000 </r>
       <r>    4.7310    1.0000 </r>
       <r>    5.1153    1.0000 </r>
       <r>    5.4106    1.0000 </r>
       <r>    5.5202    1.0000 </r>
       <r>    5.8055    1.0000 </r>
       <r>    5.9447    1.0000 </r>
       <r>    6.2366    1.0000 </r>
       <r>    6.4589    1.0000 </r>
       <r>    6.5624    1.0000 </r>
       <r>    7.0613    1.0000 </r>
       <r>    7.2408    1.0000 </r>
       <r>    7.4811    1.0000 </r>
       <r>    7.5245    1.0000 </r>
       <r>    7.7553    1.0000 </r>
       <r>    7.9761    1.0005 </r>
       <r>    8.0779    1.0042 </r>
       <r>    8.2343    1.0318 </r>
       <r>    8.5274    0.4450 </r>
       <r>    8.6479    0.0519 </r>
       <r>    8.8209   -0.0262 </r>
       <r>    9.2120   -0.0000 </r>
       <r>    9.3652   -0.0000 </r>
       <r>    9.4185   -0.0000 </r>
       <r>    9.6825   -0.0000 </r>
       <r>    9.9269   -0.0000 </r>
       <r>    9.9601   -0.0000 </r>
       <r>   10.1765   -0.0000 </r>
       <r>   10.3067   -0.0000 </r>
       <r>   10.4806   -0.0000 </r>
       <r>   10.5823   -0.0000 </r>
       <r>   10.9102   -0.0000 </r>
       <r>   11.0044   -0.0000 </r>
       <r>   11.2707   -0.0000 </r>
       <r>   11.4673   -0.0000 </r>
       <r>   11.6611   -0.0000 </r>
       <r>   11.7646   -0.0000 </r>
       <r>   11.8491   -0.0000 </r>
       <r>   11.9796   -0.0000 </r>
       <r>   12.1872   -0.0000 </r>
       <r>   12.3496   -0.0000 </r>
       <r>   12.4034   -0.0000 </r>
      </set>
      <set comment="kpoint 100">
       <r>   -2.6539    1.0000 </r>
       <r>   -1.9033    1.0000 </r>
       <r>   -1.4932    1.0000 </r>
       <r>   -0.8752    1.0000 </r>
       <r>   -0.2523    1.0000 </r>
       <r>   -0.1246    1.0000 </r>
       <r>    0.2851    1.0000 </r>
       <r>    0.7929    1.0000 </r>
       <r>    1.1789    1.0000 </r>
       <r>    1.2721    1.0000 </r>
       <r>    1.6060    1.0000 </r>
       <r>    1.9618    1.0000 </r>
       <r>    2.5218    1.0000 </r>
       <r>    2.6342    1.0000 </r>
       <r>    2.7856    1.0000 </r>
       <r>    3.1781    1.0000 </r>
       <r>    3.4525    1.0000 </r>
       <r>    3.5809    1.0000 </r>
       <r>    3.8339    1.0000 </r>
       <r>    4.2128    1.0000 </r>
       <r>    4.2750    1.0000 </r>
       <r>    4.5026    1.0000 </r>
       <r>    4.6335    1.0000 </r>
       <r>    4.8100    1.0000 </r>
       <r>    5.1382    1.0000 </r>
       <r>    5.4070    1.0000 </r>
       <r>    5.5685    1.0000 </r>
       <r>    5.7649    1.0000 </r>
       <r>    5.9527    1.0000 </r>
       <r>    6.2048    1.0000 </r>
       <r>    6.4925    1.0000 </r>
       <r>    6.6011    1.0000 </r>
       <r>    7.0605    1.0000 </r>
       <r>    7.1969    1.0000 </r>
       <r>    7.4335    1.0000 </r>
       <r>    7.5366    1.0000 </r>
       <r>    7.7119    1.0000 </r>
       <r>    7.8391    1.0000 </r>
       <r>    8.1792    1.0196 </r>
       <r>    8.2753    1.0353 </r>
       <r>    8.4145    0.8699 </r>
       <r>    8.7276   -0.0307 </r>
       <r>    8.8005   -0.0306 </r>
       <r>    9.1635   -0.0000 </r>
       <r>    9.3544   -0.0000 </r>
       <r>    9.5147   -0.0000 </r>
       <r>    9.8222   -0.0000 </r>
       <r>    9.9461   -0.0000 </r>
       <r>    9.9815   -0.0000 </r>
       <r>   10.0770   -0.0000 </r>
       <r>   10.1652   -0.0000 </r>
       <r>   10.5687   -0.0000 </r>
       <r>   10.6312   -0.0000 </r>
       <r>   10.8045   -0.0000 </r>
       <r>   10.9577   -0.0000 </r>
       <r>   11.3445   -0.0000 </r>
       <r>   11.5127   -0.0000 </r>
       <r>   11.6231   -0.0000 </r>
       <r>   11.7936   -0.0000 </r>
       <r>   11.9348   -0.0000 </r>
       <r>   12.0173   -0.0000 </r>
       <r>   12.1446   -0.0000 </r>
       <r>   12.2727   -0.0000 </r>
       <r>   12.5479   -0.0000 </r>
      </set>
      <set comment="kpoint 101">
       <r>   -2.4703    1.0000 </r>
       <r>   -1.9957    1.0000 </r>
       <r>   -1.3515    1.0000 </r>
       <r>   -1.1372    1.0000 </r>
       <r>   -0.9320    1.0000 </r>
       <r>   -0.4720    1.0000 </r>
       <r>    1.0301    1.0000 </r>
       <r>    1.2559    1.0000 </r>
       <r>    1.6704    1.0000 </r>
       <r>    1.7301    1.0000 </r>
       <r>    1.8831    1.0000 </r>
       <r>    2.2227    1.0000 </r>
       <r>    2.3564    1.0000 </r>
       <r>    2.5492    1.0000 </r>
       <r>    2.7558    1.0000 </r>
       <r>    3.0011    1.0000 </r>
       <r>    3.0869    1.0000 </r>
       <r>    3.2746    1.0000 </r>
       <r>    3.3869    1.0000 </r>
       <r>    3.6259    1.0000 </r>
       <r>    3.8203    1.0000 </r>
       <r>    4.2096    1.0000 </r>
       <r>    4.7197    1.0000 </r>
       <r>    5.1987    1.0000 </r>
       <r>    5.3910    1.0000 </r>
       <r>    5.5127    1.0000 </r>
       <r>    5.7089    1.0000 </r>
       <r>    5.9534    1.0000 </r>
       <r>    6.0257    1.0000 </r>
       <r>    6.1494    1.0000 </r>
       <r>    6.3132    1.0000 </r>
       <r>    6.5996    1.0000 </r>
       <r>    6.7825    1.0000 </r>
       <r>    6.8496    1.0000 </r>
       <r>    7.1874    1.0000 </r>
       <r>    7.3977    1.0000 </r>
       <r>    7.8227    1.0000 </r>
       <r>    7.9633    1.0003 </r>
       <r>    8.2013    1.0247 </r>
       <r>    8.4110    0.8793 </r>
       <r>    8.5219    0.4682 </r>
       <r>    8.7678   -0.0352 </r>
       <r>    9.0976   -0.0001 </r>
       <r>    9.2886   -0.0000 </r>
       <r>    9.4278   -0.0000 </r>
       <r>    9.5848   -0.0000 </r>
       <r>    9.8857   -0.0000 </r>
       <r>    9.9780   -0.0000 </r>
       <r>   10.1086   -0.0000 </r>
       <r>   10.3002   -0.0000 </r>
       <r>   10.6173   -0.0000 </r>
       <r>   10.6647   -0.0000 </r>
       <r>   10.8456   -0.0000 </r>
       <r>   11.0175   -0.0000 </r>
       <r>   11.1999   -0.0000 </r>
       <r>   11.2827   -0.0000 </r>
       <r>   11.4837   -0.0000 </r>
       <r>   11.6252   -0.0000 </r>
       <r>   11.8579   -0.0000 </r>
       <r>   11.9025   -0.0000 </r>
       <r>   11.9877   -0.0000 </r>
       <r>   12.2203   -0.0000 </r>
       <r>   12.3649   -0.0000 </r>
       <r>   12.5457   -0.0000 </r>
      </set>
      <set comment="kpoint 102">
       <r>   -2.4441    1.0000 </r>
       <r>   -1.9588    1.0000 </r>
       <r>   -1.5634    1.0000 </r>
       <r>   -1.1205    1.0000 </r>
       <r>   -0.8956    1.0000 </r>
       <r>   -0.3161    1.0000 </r>
       <r>    1.0252    1.0000 </r>
       <r>    1.3894    1.0000 </r>
       <r>    1.5530    1.0000 </r>
       <r>    1.6559    1.0000 </r>
       <r>    2.0060    1.0000 </r>
       <r>    2.1932    1.0000 </r>
       <r>    2.3594    1.0000 </r>
       <r>    2.4871    1.0000 </r>
       <r>    2.7499    1.0000 </r>
       <r>    2.8802    1.0000 </r>
       <r>    3.0339    1.0000 </r>
       <r>    3.1173    1.0000 </r>
       <r>    3.4708    1.0000 </r>
       <r>    3.6039    1.0000 </r>
       <r>    3.8703    1.0000 </r>
       <r>    4.3401    1.0000 </r>
       <r>    4.8730    1.0000 </r>
       <r>    5.1457    1.0000 </r>
       <r>    5.4077    1.0000 </r>
       <r>    5.5378    1.0000 </r>
       <r>    5.6744    1.0000 </r>
       <r>    5.8746    1.0000 </r>
       <r>    6.0730    1.0000 </r>
       <r>    6.1488    1.0000 </r>
       <r>    6.3481    1.0000 </r>
       <r>    6.6117    1.0000 </r>
       <r>    6.7983    1.0000 </r>
       <r>    6.9248    1.0000 </r>
       <r>    7.1123    1.0000 </r>
       <r>    7.4349    1.0000 </r>
       <r>    7.7466    1.0000 </r>
       <r>    7.9802    1.0005 </r>
       <r>    8.1282    1.0099 </r>
       <r>    8.4423    0.7843 </r>
       <r>    8.5274    0.4450 </r>
       <r>    8.8195   -0.0265 </r>
       <r>    9.0463   -0.0006 </r>
       <r>    9.3415   -0.0000 </r>
       <r>    9.4557   -0.0000 </r>
       <r>    9.6068   -0.0000 </r>
       <r>    9.8250   -0.0000 </r>
       <r>    9.9381   -0.0000 </r>
       <r>   10.1315   -0.0000 </r>
       <r>   10.2727   -0.0000 </r>
       <r>   10.5436   -0.0000 </r>
       <r>   10.7373   -0.0000 </r>
       <r>   10.7858   -0.0000 </r>
       <r>   11.0342   -0.0000 </r>
       <r>   11.1832   -0.0000 </r>
       <r>   11.3467   -0.0000 </r>
       <r>   11.5253   -0.0000 </r>
       <r>   11.6469   -0.0000 </r>
       <r>   11.7091   -0.0000 </r>
       <r>   11.9278   -0.0000 </r>
       <r>   11.9523   -0.0000 </r>
       <r>   12.1280   -0.0000 </r>
       <r>   12.2337   -0.0000 </r>
       <r>   12.5619   -0.0000 </r>
      </set>
      <set comment="kpoint 103">
       <r>   -2.4234    1.0000 </r>
       <r>   -1.9985    1.0000 </r>
       <r>   -1.5263    1.0000 </r>
       <r>   -1.2354    1.0000 </r>
       <r>   -0.7644    1.0000 </r>
       <r>   -0.3406    1.0000 </r>
       <r>    1.0308    1.0000 </r>
       <r>    1.3648    1.0000 </r>
       <r>    1.4936    1.0000 </r>
       <r>    1.7258    1.0000 </r>
       <r>    1.9874    1.0000 </r>
       <r>    2.2272    1.0000 </r>
       <r>    2.3290    1.0000 </r>
       <r>    2.5529    1.0000 </r>
       <r>    2.6307    1.0000 </r>
       <r>    2.9992    1.0000 </r>
       <r>    3.0883    1.0000 </r>
       <r>    3.1892    1.0000 </r>
       <r>    3.3920    1.0000 </r>
       <r>    3.4559    1.0000 </r>
       <r>    3.9233    1.0000 </r>
       <r>    4.2984    1.0000 </r>
       <r>    4.8364    1.0000 </r>
       <r>    5.1178    1.0000 </r>
       <r>    5.3511    1.0000 </r>
       <r>    5.5734    1.0000 </r>
       <r>    5.7754    1.0000 </r>
       <r>    5.9385    1.0000 </r>
       <r>    6.0020    1.0000 </r>
       <r>    6.1277    1.0000 </r>
       <r>    6.3988    1.0000 </r>
       <r>    6.6861    1.0000 </r>
       <r>    6.8060    1.0000 </r>
       <r>    6.9476    1.0000 </r>
       <r>    7.1933    1.0000 </r>
       <r>    7.2957    1.0000 </r>
       <r>    7.6690    1.0000 </r>
       <r>    8.0016    1.0009 </r>
       <r>    8.1867    1.0213 </r>
       <r>    8.3568    0.9870 </r>
       <r>    8.6387    0.0705 </r>
       <r>    8.7829   -0.0336 </r>
       <r>    9.0322   -0.0008 </r>
       <r>    9.1987   -0.0000 </r>
       <r>    9.4702   -0.0000 </r>
       <r>    9.6239   -0.0000 </r>
       <r>    9.8581   -0.0000 </r>
       <r>   10.0084   -0.0000 </r>
       <r>   10.1293   -0.0000 </r>
       <r>   10.3525   -0.0000 </r>
       <r>   10.4792   -0.0000 </r>
       <r>   10.7145   -0.0000 </r>
       <r>   10.8261   -0.0000 </r>
       <r>   10.9865   -0.0000 </r>
       <r>   11.2249   -0.0000 </r>
       <r>   11.2878   -0.0000 </r>
       <r>   11.4256   -0.0000 </r>
       <r>   11.6684   -0.0000 </r>
       <r>   11.7880   -0.0000 </r>
       <r>   11.9129   -0.0000 </r>
       <r>   12.0494   -0.0000 </r>
       <r>   12.1568   -0.0000 </r>
       <r>   12.3749   -0.0000 </r>
       <r>   12.5276   -0.0000 </r>
      </set>
      <set comment="kpoint 104">
       <r>   -2.4739    1.0000 </r>
       <r>   -1.9559    1.0000 </r>
       <r>   -1.4866    1.0000 </r>
       <r>   -1.0883    1.0000 </r>
       <r>   -0.8067    1.0000 </r>
       <r>   -0.5494    1.0000 </r>
       <r>    1.0514    1.0000 </r>
       <r>    1.2592    1.0000 </r>
       <r>    1.4403    1.0000 </r>
       <r>    1.8331    1.0000 </r>
       <r>    2.0481    1.0000 </r>
       <r>    2.2821    1.0000 </r>
       <r>    2.4161    1.0000 </r>
       <r>    2.5382    1.0000 </r>
       <r>    2.7585    1.0000 </r>
       <r>    2.8055    1.0000 </r>
       <r>    3.0886    1.0000 </r>
       <r>    3.2001    1.0000 </r>
       <r>    3.4427    1.0000 </r>
       <r>    3.6104    1.0000 </r>
       <r>    3.8615    1.0000 </r>
       <r>    4.2164    1.0000 </r>
       <r>    4.7217    1.0000 </r>
       <r>    5.1580    1.0000 </r>
       <r>    5.2733    1.0000 </r>
       <r>    5.5464    1.0000 </r>
       <r>    5.7666    1.0000 </r>
       <r>    5.9769    1.0000 </r>
       <r>    6.0544    1.0000 </r>
       <r>    6.2468    1.0000 </r>
       <r>    6.4285    1.0000 </r>
       <r>    6.5072    1.0000 </r>
       <r>    6.7451    1.0000 </r>
       <r>    6.8448    1.0000 </r>
       <r>    7.2124    1.0000 </r>
       <r>    7.3057    1.0000 </r>
       <r>    7.7847    1.0000 </r>
       <r>    7.9533    1.0003 </r>
       <r>    8.2707    1.0355 </r>
       <r>    8.4206    0.8526 </r>
       <r>    8.4567    0.7332 </r>
       <r>    8.8495   -0.0196 </r>
       <r>    9.0740   -0.0003 </r>
       <r>    9.2821   -0.0000 </r>
       <r>    9.4731   -0.0000 </r>
       <r>    9.5805   -0.0000 </r>
       <r>    9.8481   -0.0000 </r>
       <r>    9.9324   -0.0000 </r>
       <r>   10.0536   -0.0000 </r>
       <r>   10.4774   -0.0000 </r>
       <r>   10.5889   -0.0000 </r>
       <r>   10.6832   -0.0000 </r>
       <r>   10.8124   -0.0000 </r>
       <r>   11.0134   -0.0000 </r>
       <r>   11.2711   -0.0000 </r>
       <r>   11.2965   -0.0000 </r>
       <r>   11.4095   -0.0000 </r>
       <r>   11.6129   -0.0000 </r>
       <r>   11.7186   -0.0000 </r>
       <r>   11.9387   -0.0000 </r>
       <r>   12.0506   -0.0000 </r>
       <r>   12.2008   -0.0000 </r>
       <r>   12.3891   -0.0000 </r>
       <r>   12.5202   -0.0000 </r>
      </set>
      <set comment="kpoint 105">
       <r>   -2.4292    1.0000 </r>
       <r>   -1.9712    1.0000 </r>
       <r>   -1.6129    1.0000 </r>
       <r>   -1.0673    1.0000 </r>
       <r>   -0.8909    1.0000 </r>
       <r>   -0.3061    1.0000 </r>
       <r>    0.9920    1.0000 </r>
       <r>    1.2595    1.0000 </r>
       <r>    1.6349    1.0000 </r>
       <r>    1.8238    1.0000 </r>
       <r>    1.9462    1.0000 </r>
       <r>    2.1320    1.0000 </r>
       <r>    2.3665    1.0000 </r>
       <r>    2.5057    1.0000 </r>
       <r>    2.7232    1.0000 </r>
       <r>    2.8402    1.0000 </r>
       <r>    3.0398    1.0000 </r>
       <r>    3.2772    1.0000 </r>
       <r>    3.4211    1.0000 </r>
       <r>    3.5563    1.0000 </r>
       <r>    3.8815    1.0000 </r>
       <r>    4.2957    1.0000 </r>
       <r>    4.8661    1.0000 </r>
       <r>    5.0783    1.0000 </r>
       <r>    5.2955    1.0000 </r>
       <r>    5.6237    1.0000 </r>
       <r>    5.7806    1.0000 </r>
       <r>    5.8755    1.0000 </r>
       <r>    6.0933    1.0000 </r>
       <r>    6.2734    1.0000 </r>
       <r>    6.3253    1.0000 </r>
       <r>    6.6029    1.0000 </r>
       <r>    6.7939    1.0000 </r>
       <r>    6.8667    1.0000 </r>
       <r>    7.1736    1.0000 </r>
       <r>    7.3575    1.0000 </r>
       <r>    7.7259    1.0000 </r>
       <r>    7.9271    1.0001 </r>
       <r>    8.1742    1.0185 </r>
       <r>    8.4009    0.9049 </r>
       <r>    8.6136    0.1322 </r>
       <r>    8.7290   -0.0312 </r>
       <r>    9.0423   -0.0006 </r>
       <r>    9.2795   -0.0000 </r>
       <r>    9.4253   -0.0000 </r>
       <r>    9.7914   -0.0000 </r>
       <r>    9.8567   -0.0000 </r>
       <r>    9.9261   -0.0000 </r>
       <r>   10.1392   -0.0000 </r>
       <r>   10.2927   -0.0000 </r>
       <r>   10.4920   -0.0000 </r>
       <r>   10.7124   -0.0000 </r>
       <r>   10.8614   -0.0000 </r>
       <r>   10.9360   -0.0000 </r>
       <r>   11.1458   -0.0000 </r>
       <r>   11.2890   -0.0000 </r>
       <r>   11.4759   -0.0000 </r>
       <r>   11.7031   -0.0000 </r>
       <r>   11.7886   -0.0000 </r>
       <r>   11.8777   -0.0000 </r>
       <r>   12.0153   -0.0000 </r>
       <r>   12.2107   -0.0000 </r>
       <r>   12.3246   -0.0000 </r>
       <r>   12.5441   -0.0000 </r>
      </set>
      <set comment="kpoint 106">
       <r>   -2.4609    1.0000 </r>
       <r>   -1.9099    1.0000 </r>
       <r>   -1.5816    1.0000 </r>
       <r>   -1.1346    1.0000 </r>
       <r>   -0.9095    1.0000 </r>
       <r>   -0.2999    1.0000 </r>
       <r>    1.0185    1.0000 </r>
       <r>    1.3236    1.0000 </r>
       <r>    1.5344    1.0000 </r>
       <r>    1.7607    1.0000 </r>
       <r>    2.0017    1.0000 </r>
       <r>    2.1068    1.0000 </r>
       <r>    2.5171    1.0000 </r>
       <r>    2.6101    1.0000 </r>
       <r>    2.6829    1.0000 </r>
       <r>    2.7662    1.0000 </r>
       <r>    2.9929    1.0000 </r>
       <r>    3.1138    1.0000 </r>
       <r>    3.4653    1.0000 </r>
       <r>    3.5740    1.0000 </r>
       <r>    3.9765    1.0000 </r>
       <r>    4.2976    1.0000 </r>
       <r>    4.8154    1.0000 </r>
       <r>    5.1855    1.0000 </r>
       <r>    5.4099    1.0000 </r>
       <r>    5.6100    1.0000 </r>
       <r>    5.6792    1.0000 </r>
       <r>    5.8191    1.0000 </r>
       <r>    5.9737    1.0000 </r>
       <r>    6.2418    1.0000 </r>
       <r>    6.3767    1.0000 </r>
       <r>    6.6031    1.0000 </r>
       <r>    6.7119    1.0000 </r>
       <r>    6.9854    1.0000 </r>
       <r>    7.1276    1.0000 </r>
       <r>    7.4343    1.0000 </r>
       <r>    7.7042    1.0000 </r>
       <r>    7.9649    1.0004 </r>
       <r>    8.1939    1.0230 </r>
       <r>    8.4070    0.8897 </r>
       <r>    8.5135    0.5036 </r>
       <r>    8.7630   -0.0354 </r>
       <r>    9.0816   -0.0002 </r>
       <r>    9.3323   -0.0000 </r>
       <r>    9.4497   -0.0000 </r>
       <r>    9.6160   -0.0000 </r>
       <r>    9.8740   -0.0000 </r>
       <r>    9.9928   -0.0000 </r>
       <r>   10.0486   -0.0000 </r>
       <r>   10.2655   -0.0000 </r>
       <r>   10.6065   -0.0000 </r>
       <r>   10.7846   -0.0000 </r>
       <r>   10.8932   -0.0000 </r>
       <r>   10.9751   -0.0000 </r>
       <r>   11.1960   -0.0000 </r>
       <r>   11.3423   -0.0000 </r>
       <r>   11.4407   -0.0000 </r>
       <r>   11.6622   -0.0000 </r>
       <r>   11.7049   -0.0000 </r>
       <r>   11.9087   -0.0000 </r>
       <r>   11.9879   -0.0000 </r>
       <r>   12.0421   -0.0000 </r>
       <r>   12.2176   -0.0000 </r>
       <r>   12.5741   -0.0000 </r>
      </set>
      <set comment="kpoint 107">
       <r>   -2.4953    1.0000 </r>
       <r>   -1.9274    1.0000 </r>
       <r>   -1.4015    1.0000 </r>
       <r>   -1.1334    1.0000 </r>
       <r>   -0.9352    1.0000 </r>
       <r>   -0.4660    1.0000 </r>
       <r>    0.9373    1.0000 </r>
       <r>    1.3185    1.0000 </r>
       <r>    1.5874    1.0000 </r>
       <r>    1.7431    1.0000 </r>
       <r>    2.0639    1.0000 </r>
       <r>    2.1546    1.0000 </r>
       <r>    2.5019    1.0000 </r>
       <r>    2.5557    1.0000 </r>
       <r>    2.7697    1.0000 </r>
       <r>    2.9175    1.0000 </r>
       <r>    3.0147    1.0000 </r>
       <r>    3.1920    1.0000 </r>
       <r>    3.3487    1.0000 </r>
       <r>    3.7122    1.0000 </r>
       <r>    3.8404    1.0000 </r>
       <r>    4.1921    1.0000 </r>
       <r>    4.7099    1.0000 </r>
       <r>    5.2342    1.0000 </r>
       <r>    5.4051    1.0000 </r>
       <r>    5.5503    1.0000 </r>
       <r>    5.6568    1.0000 </r>
       <r>    5.8564    1.0000 </r>
       <r>    6.0320    1.0000 </r>
       <r>    6.2602    1.0000 </r>
       <r>    6.3708    1.0000 </r>
       <r>    6.5524    1.0000 </r>
       <r>    6.7347    1.0000 </r>
       <r>    6.8192    1.0000 </r>
       <r>    7.1307    1.0000 </r>
       <r>    7.5279    1.0000 </r>
       <r>    7.7662    1.0000 </r>
       <r>    7.9498    1.0002 </r>
       <r>    8.0992    1.0062 </r>
       <r>    8.3751    0.9586 </r>
       <r>    8.5619    0.3049 </r>
       <r>    8.7719   -0.0349 </r>
       <r>    9.2503   -0.0000 </r>
       <r>    9.4005   -0.0000 </r>
       <r>    9.5393   -0.0000 </r>
       <r>    9.5820   -0.0000 </r>
       <r>    9.7379   -0.0000 </r>
       <r>    9.8638   -0.0000 </r>
       <r>   10.1410   -0.0000 </r>
       <r>   10.3298   -0.0000 </r>
       <r>   10.5827   -0.0000 </r>
       <r>   10.7254   -0.0000 </r>
       <r>   10.8213   -0.0000 </r>
       <r>   10.9370   -0.0000 </r>
       <r>   11.2347   -0.0000 </r>
       <r>   11.3984   -0.0000 </r>
       <r>   11.5809   -0.0000 </r>
       <r>   11.6588   -0.0000 </r>
       <r>   11.6972   -0.0000 </r>
       <r>   11.8701   -0.0000 </r>
       <r>   11.9415   -0.0000 </r>
       <r>   12.0980   -0.0000 </r>
       <r>   12.2017   -0.0000 </r>
       <r>   12.6359   -0.0000 </r>
      </set>
      <set comment="kpoint 108">
       <r>   -2.4386    1.0000 </r>
       <r>   -1.9169    1.0000 </r>
       <r>   -1.6690    1.0000 </r>
       <r>   -1.1327    1.0000 </r>
       <r>   -0.7621    1.0000 </r>
       <r>   -0.3704    1.0000 </r>
       <r>    0.9821    1.0000 </r>
       <r>    1.3203    1.0000 </r>
       <r>    1.5874    1.0000 </r>
       <r>    1.8364    1.0000 </r>
       <r>    1.9799    1.0000 </r>
       <r>    2.1125    1.0000 </r>
       <r>    2.4432    1.0000 </r>
       <r>    2.5449    1.0000 </r>
       <r>    2.6288    1.0000 </r>
       <r>    2.8038    1.0000 </r>
       <r>    3.0417    1.0000 </r>
       <r>    3.1683    1.0000 </r>
       <r>    3.4574    1.0000 </r>
       <r>    3.5423    1.0000 </r>
       <r>    3.9149    1.0000 </r>
       <r>    4.3606    1.0000 </r>
       <r>    4.8405    1.0000 </r>
       <r>    5.0900    1.0000 </r>
       <r>    5.2781    1.0000 </r>
       <r>    5.5903    1.0000 </r>
       <r>    5.8115    1.0000 </r>
       <r>    5.9412    1.0000 </r>
       <r>    6.1156    1.0000 </r>
       <r>    6.3196    1.0000 </r>
       <r>    6.3706    1.0000 </r>
       <r>    6.5231    1.0000 </r>
       <r>    6.6727    1.0000 </r>
       <r>    6.8351    1.0000 </r>
       <r>    7.2206    1.0000 </r>
       <r>    7.3709    1.0000 </r>
       <r>    7.6725    1.0000 </r>
       <r>    8.0148    1.0012 </r>
       <r>    8.1618    1.0159 </r>
       <r>    8.3747    0.9593 </r>
       <r>    8.5437    0.3776 </r>
       <r>    8.8381   -0.0222 </r>
       <r>    9.1114   -0.0001 </r>
       <r>    9.2663   -0.0000 </r>
       <r>    9.3782   -0.0000 </r>
       <r>    9.7294   -0.0000 </r>
       <r>    9.8619   -0.0000 </r>
       <r>    9.9717   -0.0000 </r>
       <r>   10.0751   -0.0000 </r>
       <r>   10.3720   -0.0000 </r>
       <r>   10.4770   -0.0000 </r>
       <r>   10.6905   -0.0000 </r>
       <r>   10.8509   -0.0000 </r>
       <r>   11.0493   -0.0000 </r>
       <r>   11.1124   -0.0000 </r>
       <r>   11.2978   -0.0000 </r>
       <r>   11.5056   -0.0000 </r>
       <r>   11.5786   -0.0000 </r>
       <r>   11.7560   -0.0000 </r>
       <r>   11.8495   -0.0000 </r>
       <r>   12.0028   -0.0000 </r>
       <r>   12.1294   -0.0000 </r>
       <r>   12.4090   -0.0000 </r>
       <r>   12.5624   -0.0000 </r>
      </set>
      <set comment="kpoint 109">
       <r>   -2.4437    1.0000 </r>
       <r>   -1.9164    1.0000 </r>
       <r>   -1.6551    1.0000 </r>
       <r>   -1.0870    1.0000 </r>
       <r>   -0.8615    1.0000 </r>
       <r>   -0.3175    1.0000 </r>
       <r>    1.0203    1.0000 </r>
       <r>    1.2208    1.0000 </r>
       <r>    1.5944    1.0000 </r>
       <r>    1.8063    1.0000 </r>
       <r>    1.9250    1.0000 </r>
       <r>    2.1457    1.0000 </r>
       <r>    2.4447    1.0000 </r>
       <r>    2.6484    1.0000 </r>
       <r>    2.6833    1.0000 </r>
       <r>    2.9542    1.0000 </r>
       <r>    3.0501    1.0000 </r>
       <r>    3.0906    1.0000 </r>
       <r>    3.3480    1.0000 </r>
       <r>    3.6102    1.0000 </r>
       <r>    3.8172    1.0000 </r>
       <r>    4.3125    1.0000 </r>
       <r>    4.8000    1.0000 </r>
       <r>    5.1728    1.0000 </r>
       <r>    5.3086    1.0000 </r>
       <r>    5.6830    1.0000 </r>
       <r>    5.7557    1.0000 </r>
       <r>    5.8378    1.0000 </r>
       <r>    6.0037    1.0000 </r>
       <r>    6.2851    1.0000 </r>
       <r>    6.4517    1.0000 </r>
       <r>    6.6139    1.0000 </r>
       <r>    6.6882    1.0000 </r>
       <r>    6.9351    1.0000 </r>
       <r>    7.1004    1.0000 </r>
       <r>    7.3566    1.0000 </r>
       <r>    7.7316    1.0000 </r>
       <r>    7.9384    1.0002 </r>
       <r>    8.2827    1.0347 </r>
       <r>    8.3983    0.9111 </r>
       <r>    8.5366    0.4066 </r>
       <r>    8.6600    0.0307 </r>
       <r>    9.1759   -0.0000 </r>
       <r>    9.3360   -0.0000 </r>
       <r>    9.4496   -0.0000 </r>
       <r>    9.5828   -0.0000 </r>
       <r>    9.8399   -0.0000 </r>
       <r>    9.9651   -0.0000 </r>
       <r>   10.1006   -0.0000 </r>
       <r>   10.3089   -0.0000 </r>
       <r>   10.5202   -0.0000 </r>
       <r>   10.6931   -0.0000 </r>
       <r>   10.7770   -0.0000 </r>
       <r>   11.0920   -0.0000 </r>
       <r>   11.2534   -0.0000 </r>
       <r>   11.3671   -0.0000 </r>
       <r>   11.5139   -0.0000 </r>
       <r>   11.5994   -0.0000 </r>
       <r>   11.7209   -0.0000 </r>
       <r>   11.8457   -0.0000 </r>
       <r>   11.9433   -0.0000 </r>
       <r>   12.1695   -0.0000 </r>
       <r>   12.3110   -0.0000 </r>
       <r>   12.4988   -0.0000 </r>
      </set>
      <set comment="kpoint 110">
       <r>   -2.4867    1.0000 </r>
       <r>   -1.9191    1.0000 </r>
       <r>   -1.5154    1.0000 </r>
       <r>   -1.0825    1.0000 </r>
       <r>   -0.8069    1.0000 </r>
       <r>   -0.5354    1.0000 </r>
       <r>    0.9153    1.0000 </r>
       <r>    1.2345    1.0000 </r>
       <r>    1.5560    1.0000 </r>
       <r>    2.0147    1.0000 </r>
       <r>    2.0812    1.0000 </r>
       <r>    2.1996    1.0000 </r>
       <r>    2.3726    1.0000 </r>
       <r>    2.4651    1.0000 </r>
       <r>    2.6426    1.0000 </r>
       <r>    2.8932    1.0000 </r>
       <r>    3.1266    1.0000 </r>
       <r>    3.1878    1.0000 </r>
       <r>    3.4389    1.0000 </r>
       <r>    3.6963    1.0000 </r>
       <r>    3.8763    1.0000 </r>
       <r>    4.1496    1.0000 </r>
       <r>    4.6851    1.0000 </r>
       <r>    5.1797    1.0000 </r>
       <r>    5.2902    1.0000 </r>
       <r>    5.5653    1.0000 </r>
       <r>    5.7320    1.0000 </r>
       <r>    5.9271    1.0000 </r>
       <r>    6.0525    1.0000 </r>
       <r>    6.3080    1.0000 </r>
       <r>    6.4600    1.0000 </r>
       <r>    6.5541    1.0000 </r>
       <r>    6.6955    1.0000 </r>
       <r>    6.7977    1.0000 </r>
       <r>    7.1851    1.0000 </r>
       <r>    7.3610    1.0000 </r>
       <r>    7.8106    1.0000 </r>
       <r>    7.9494    1.0002 </r>
       <r>    8.0854    1.0049 </r>
       <r>    8.4002    0.9064 </r>
       <r>    8.5487    0.3571 </r>
       <r>    8.8430   -0.0211 </r>
       <r>    9.1549   -0.0000 </r>
       <r>    9.3275   -0.0000 </r>
       <r>    9.4488   -0.0000 </r>
       <r>    9.6159   -0.0000 </r>
       <r>    9.7784   -0.0000 </r>
       <r>    9.9498   -0.0000 </r>
       <r>   10.0752   -0.0000 </r>
       <r>   10.4620   -0.0000 </r>
       <r>   10.5739   -0.0000 </r>
       <r>   10.6798   -0.0000 </r>
       <r>   10.7705   -0.0000 </r>
       <r>   11.0273   -0.0000 </r>
       <r>   11.2801   -0.0000 </r>
       <r>   11.3524   -0.0000 </r>
       <r>   11.4197   -0.0000 </r>
       <r>   11.6735   -0.0000 </r>
       <r>   11.6983   -0.0000 </r>
       <r>   11.8547   -0.0000 </r>
       <r>   12.0310   -0.0000 </r>
       <r>   12.2032   -0.0000 </r>
       <r>   12.3943   -0.0000 </r>
       <r>   12.5634   -0.0000 </r>
      </set>
      <set comment="kpoint 111">
       <r>   -2.4568    1.0000 </r>
       <r>   -1.9129    1.0000 </r>
       <r>   -1.5559    1.0000 </r>
       <r>   -1.2658    1.0000 </r>
       <r>   -0.7614    1.0000 </r>
       <r>   -0.3190    1.0000 </r>
       <r>    0.8695    1.0000 </r>
       <r>    1.3915    1.0000 </r>
       <r>    1.5580    1.0000 </r>
       <r>    1.8042    1.0000 </r>
       <r>    2.0091    1.0000 </r>
       <r>    2.2535    1.0000 </r>
       <r>    2.3907    1.0000 </r>
       <r>    2.4968    1.0000 </r>
       <r>    2.6833    1.0000 </r>
       <r>    2.8513    1.0000 </r>
       <r>    3.0345    1.0000 </r>
       <r>    3.1560    1.0000 </r>
       <r>    3.4034    1.0000 </r>
       <r>    3.5650    1.0000 </r>
       <r>    3.9702    1.0000 </r>
       <r>    4.2491    1.0000 </r>
       <r>    4.7833    1.0000 </r>
       <r>    5.1809    1.0000 </r>
       <r>    5.3882    1.0000 </r>
       <r>    5.5511    1.0000 </r>
       <r>    5.7433    1.0000 </r>
       <r>    5.8463    1.0000 </r>
       <r>    6.0534    1.0000 </r>
       <r>    6.2488    1.0000 </r>
       <r>    6.3595    1.0000 </r>
       <r>    6.6629    1.0000 </r>
       <r>    6.7936    1.0000 </r>
       <r>    6.9299    1.0000 </r>
       <r>    7.0905    1.0000 </r>
       <r>    7.4307    1.0000 </r>
       <r>    7.6754    1.0000 </r>
       <r>    7.9109    1.0001 </r>
       <r>    8.0870    1.0050 </r>
       <r>    8.3956    0.9174 </r>
       <r>    8.5758    0.2531 </r>
       <r>    8.8854   -0.0124 </r>
       <r>    9.0144   -0.0012 </r>
       <r>    9.3522   -0.0000 </r>
       <r>    9.4379   -0.0000 </r>
       <r>    9.6922   -0.0000 </r>
       <r>    9.8816   -0.0000 </r>
       <r>    9.9207   -0.0000 </r>
       <r>   10.0596   -0.0000 </r>
       <r>   10.4066   -0.0000 </r>
       <r>   10.5966   -0.0000 </r>
       <r>   10.6745   -0.0000 </r>
       <r>   10.8272   -0.0000 </r>
       <r>   11.0176   -0.0000 </r>
       <r>   11.1722   -0.0000 </r>
       <r>   11.3142   -0.0000 </r>
       <r>   11.4293   -0.0000 </r>
       <r>   11.5736   -0.0000 </r>
       <r>   11.7570   -0.0000 </r>
       <r>   11.9070   -0.0000 </r>
       <r>   12.0359   -0.0000 </r>
       <r>   12.1208   -0.0000 </r>
       <r>   12.3341   -0.0000 </r>
       <r>   12.4892   -0.0000 </r>
      </set>
      <set comment="kpoint 112">
       <r>   -2.4413    1.0000 </r>
       <r>   -1.9193    1.0000 </r>
       <r>   -1.6601    1.0000 </r>
       <r>   -1.1272    1.0000 </r>
       <r>   -0.7792    1.0000 </r>
       <r>   -0.3550    1.0000 </r>
       <r>    0.9684    1.0000 </r>
       <r>    1.3946    1.0000 </r>
       <r>    1.5266    1.0000 </r>
       <r>    1.7411    1.0000 </r>
       <r>    2.0091    1.0000 </r>
       <r>    2.1735    1.0000 </r>
       <r>    2.3185    1.0000 </r>
       <r>    2.5180    1.0000 </r>
       <r>    2.7601    1.0000 </r>
       <r>    2.8290    1.0000 </r>
       <r>    3.0525    1.0000 </r>
       <r>    3.1707    1.0000 </r>
       <r>    3.4533    1.0000 </r>
       <r>    3.6124    1.0000 </r>
       <r>    3.9446    1.0000 </r>
       <r>    4.2531    1.0000 </r>
       <r>    4.7374    1.0000 </r>
       <r>    5.1066    1.0000 </r>
       <r>    5.3468    1.0000 </r>
       <r>    5.6320    1.0000 </r>
       <r>    5.7965    1.0000 </r>
       <r>    5.9562    1.0000 </r>
       <r>    6.0468    1.0000 </r>
       <r>    6.2878    1.0000 </r>
       <r>    6.3951    1.0000 </r>
       <r>    6.5470    1.0000 </r>
       <r>    6.7031    1.0000 </r>
       <r>    6.9662    1.0000 </r>
       <r>    7.1652    1.0000 </r>
       <r>    7.2603    1.0000 </r>
       <r>    7.7089    1.0000 </r>
       <r>    8.0102    1.0011 </r>
       <r>    8.1813    1.0201 </r>
       <r>    8.3934    0.9223 </r>
       <r>    8.5889    0.2075 </r>
       <r>    8.7638   -0.0354 </r>
       <r>    8.9565   -0.0038 </r>
       <r>    9.3488   -0.0000 </r>
       <r>    9.4781   -0.0000 </r>
       <r>    9.6186   -0.0000 </r>
       <r>    9.7824   -0.0000 </r>
       <r>    9.9673   -0.0000 </r>
       <r>   10.0563   -0.0000 </r>
       <r>   10.3677   -0.0000 </r>
       <r>   10.5070   -0.0000 </r>
       <r>   10.7083   -0.0000 </r>
       <r>   10.9274   -0.0000 </r>
       <r>   11.0434   -0.0000 </r>
       <r>   11.2317   -0.0000 </r>
       <r>   11.3440   -0.0000 </r>
       <r>   11.5237   -0.0000 </r>
       <r>   11.6161   -0.0000 </r>
       <r>   11.7534   -0.0000 </r>
       <r>   11.9156   -0.0000 </r>
       <r>   12.0053   -0.0000 </r>
       <r>   12.1343   -0.0000 </r>
       <r>   12.1945   -0.0000 </r>
       <r>   12.5497   -0.0000 </r>
      </set>
      <set comment="kpoint 113">
       <r>   -2.8122    1.0000 </r>
       <r>   -1.8938    1.0000 </r>
       <r>   -0.8102    1.0000 </r>
       <r>   -0.6270    1.0000 </r>
       <r>   -0.4112    1.0000 </r>
       <r>   -0.3569    1.0000 </r>
       <r>    0.1100    1.0000 </r>
       <r>    0.3328    1.0000 </r>
       <r>    0.9564    1.0000 </r>
       <r>    1.2511    1.0000 </r>
       <r>    1.5833    1.0000 </r>
       <r>    2.1855    1.0000 </r>
       <r>    2.3960    1.0000 </r>
       <r>    2.6908    1.0000 </r>
       <r>    2.7817    1.0000 </r>
       <r>    2.9118    1.0000 </r>
       <r>    3.0553    1.0000 </r>
       <r>    3.4966    1.0000 </r>
       <r>    4.3906    1.0000 </r>
       <r>    4.4203    1.0000 </r>
       <r>    4.7344    1.0000 </r>
       <r>    4.9089    1.0000 </r>
       <r>    4.9984    1.0000 </r>
       <r>    5.1440    1.0000 </r>
       <r>    5.2639    1.0000 </r>
       <r>    5.4621    1.0000 </r>
       <r>    5.5650    1.0000 </r>
       <r>    5.7401    1.0000 </r>
       <r>    6.0591    1.0000 </r>
       <r>    6.1472    1.0000 </r>
       <r>    6.3945    1.0000 </r>
       <r>    6.4989    1.0000 </r>
       <r>    6.6216    1.0000 </r>
       <r>    6.7619    1.0000 </r>
       <r>    7.4591    1.0000 </r>
       <r>    7.4983    1.0000 </r>
       <r>    7.6389    1.0000 </r>
       <r>    7.8536    1.0000 </r>
       <r>    7.9565    1.0003 </r>
       <r>    8.0953    1.0058 </r>
       <r>    8.1777    1.0193 </r>
       <r>    8.3026    1.0302 </r>
       <r>    8.7744   -0.0347 </r>
       <r>    9.3833   -0.0000 </r>
       <r>    9.4818   -0.0000 </r>
       <r>    9.5368   -0.0000 </r>
       <r>    9.9879   -0.0000 </r>
       <r>   10.0869   -0.0000 </r>
       <r>   10.2555   -0.0000 </r>
       <r>   10.5038   -0.0000 </r>
       <r>   10.5614   -0.0000 </r>
       <r>   10.6205   -0.0000 </r>
       <r>   10.7108   -0.0000 </r>
       <r>   10.8353   -0.0000 </r>
       <r>   10.8844   -0.0000 </r>
       <r>   11.0152   -0.0000 </r>
       <r>   11.1524   -0.0000 </r>
       <r>   11.1964   -0.0000 </r>
       <r>   11.3245   -0.0000 </r>
       <r>   11.4233   -0.0000 </r>
       <r>   11.5919   -0.0000 </r>
       <r>   12.0023   -0.0000 </r>
       <r>   12.1873   -0.0000 </r>
       <r>   12.3471   -0.0000 </r>
      </set>
      <set comment="kpoint 114">
       <r>   -2.7883    1.0000 </r>
       <r>   -1.9634    1.0000 </r>
       <r>   -0.9045    1.0000 </r>
       <r>   -0.5132    1.0000 </r>
       <r>   -0.3977    1.0000 </r>
       <r>   -0.1575    1.0000 </r>
       <r>   -0.0133    1.0000 </r>
       <r>    0.3331    1.0000 </r>
       <r>    0.9366    1.0000 </r>
       <r>    1.2545    1.0000 </r>
       <r>    1.5386    1.0000 </r>
       <r>    2.1185    1.0000 </r>
       <r>    2.4597    1.0000 </r>
       <r>    2.5989    1.0000 </r>
       <r>    2.7140    1.0000 </r>
       <r>    3.0112    1.0000 </r>
       <r>    3.1629    1.0000 </r>
       <r>    3.3648    1.0000 </r>
       <r>    4.2704    1.0000 </r>
       <r>    4.6272    1.0000 </r>
       <r>    4.6882    1.0000 </r>
       <r>    4.9281    1.0000 </r>
       <r>    5.0315    1.0000 </r>
       <r>    5.1503    1.0000 </r>
       <r>    5.3062    1.0000 </r>
       <r>    5.5004    1.0000 </r>
       <r>    5.6561    1.0000 </r>
       <r>    5.7205    1.0000 </r>
       <r>    6.0956    1.0000 </r>
       <r>    6.1690    1.0000 </r>
       <r>    6.2638    1.0000 </r>
       <r>    6.3368    1.0000 </r>
       <r>    6.5916    1.0000 </r>
       <r>    6.7385    1.0000 </r>
       <r>    7.4614    1.0000 </r>
       <r>    7.6169    1.0000 </r>
       <r>    7.7013    1.0000 </r>
       <r>    7.8224    1.0000 </r>
       <r>    7.9687    1.0004 </r>
       <r>    8.1070    1.0071 </r>
       <r>    8.2358    1.0320 </r>
       <r>    8.4112    0.8786 </r>
       <r>    8.6558    0.0376 </r>
       <r>    9.3458   -0.0000 </r>
       <r>    9.4394   -0.0000 </r>
       <r>    9.5532   -0.0000 </r>
       <r>    9.9941   -0.0000 </r>
       <r>   10.1691   -0.0000 </r>
       <r>   10.2451   -0.0000 </r>
       <r>   10.4384   -0.0000 </r>
       <r>   10.5094   -0.0000 </r>
       <r>   10.6100   -0.0000 </r>
       <r>   10.7174   -0.0000 </r>
       <r>   10.8221   -0.0000 </r>
       <r>   10.8813   -0.0000 </r>
       <r>   10.9555   -0.0000 </r>
       <r>   11.1136   -0.0000 </r>
       <r>   11.2367   -0.0000 </r>
       <r>   11.3180   -0.0000 </r>
       <r>   11.3656   -0.0000 </r>
       <r>   11.5368   -0.0000 </r>
       <r>   11.9951   -0.0000 </r>
       <r>   12.1492   -0.0000 </r>
       <r>   12.3391   -0.0000 </r>
      </set>
      <set comment="kpoint 115">
       <r>   -2.7705    1.0000 </r>
       <r>   -2.0151    1.0000 </r>
       <r>   -0.8576    1.0000 </r>
       <r>   -0.6125    1.0000 </r>
       <r>   -0.3709    1.0000 </r>
       <r>   -0.1276    1.0000 </r>
       <r>    0.1097    1.0000 </r>
       <r>    0.3545    1.0000 </r>
       <r>    0.9883    1.0000 </r>
       <r>    1.1361    1.0000 </r>
       <r>    1.4432    1.0000 </r>
       <r>    2.2023    1.0000 </r>
       <r>    2.3210    1.0000 </r>
       <r>    2.6487    1.0000 </r>
       <r>    2.7564    1.0000 </r>
       <r>    2.9181    1.0000 </r>
       <r>    3.0670    1.0000 </r>
       <r>    3.4316    1.0000 </r>
       <r>    4.3768    1.0000 </r>
       <r>    4.4750    1.0000 </r>
       <r>    4.7760    1.0000 </r>
       <r>    5.0752    1.0000 </r>
       <r>    5.1647    1.0000 </r>
       <r>    5.2568    1.0000 </r>
       <r>    5.3710    1.0000 </r>
       <r>    5.4478    1.0000 </r>
       <r>    5.6319    1.0000 </r>
       <r>    5.7569    1.0000 </r>
       <r>    5.9332    1.0000 </r>
       <r>    6.1465    1.0000 </r>
       <r>    6.2873    1.0000 </r>
       <r>    6.4031    1.0000 </r>
       <r>    6.4948    1.0000 </r>
       <r>    6.5731    1.0000 </r>
       <r>    7.3842    1.0000 </r>
       <r>    7.4532    1.0000 </r>
       <r>    7.7219    1.0000 </r>
       <r>    7.9856    1.0006 </r>
       <r>    8.0380    1.0019 </r>
       <r>    8.1332    1.0107 </r>
       <r>    8.2533    1.0346 </r>
       <r>    8.4173    0.8619 </r>
       <r>    8.6417    0.0643 </r>
       <r>    9.2914   -0.0000 </r>
       <r>    9.4266   -0.0000 </r>
       <r>    9.5203   -0.0000 </r>
       <r>   10.0402   -0.0000 </r>
       <r>   10.1140   -0.0000 </r>
       <r>   10.2736   -0.0000 </r>
       <r>   10.4258   -0.0000 </r>
       <r>   10.5880   -0.0000 </r>
       <r>   10.6529   -0.0000 </r>
       <r>   10.7299   -0.0000 </r>
       <r>   10.8208   -0.0000 </r>
       <r>   10.8953   -0.0000 </r>
       <r>   11.0659   -0.0000 </r>
       <r>   11.1181   -0.0000 </r>
       <r>   11.1536   -0.0000 </r>
       <r>   11.2831   -0.0000 </r>
       <r>   11.3266   -0.0000 </r>
       <r>   11.4750   -0.0000 </r>
       <r>   12.0286   -0.0000 </r>
       <r>   12.1965   -0.0000 </r>
       <r>   12.2893   -0.0000 </r>
      </set>
      <set comment="kpoint 116">
       <r>   -2.7668    1.0000 </r>
       <r>   -1.9961    1.0000 </r>
       <r>   -1.0319    1.0000 </r>
       <r>   -0.5152    1.0000 </r>
       <r>   -0.2624    1.0000 </r>
       <r>   -0.1677    1.0000 </r>
       <r>    0.0559    1.0000 </r>
       <r>    0.4603    1.0000 </r>
       <r>    0.7979    1.0000 </r>
       <r>    1.3353    1.0000 </r>
       <r>    1.5176    1.0000 </r>
       <r>    2.0204    1.0000 </r>
       <r>    2.4539    1.0000 </r>
       <r>    2.5357    1.0000 </r>
       <r>    2.7650    1.0000 </r>
       <r>    2.8657    1.0000 </r>
       <r>    3.1687    1.0000 </r>
       <r>    3.4642    1.0000 </r>
       <r>    4.1822    1.0000 </r>
       <r>    4.5966    1.0000 </r>
       <r>    4.6938    1.0000 </r>
       <r>    4.9559    1.0000 </r>
       <r>    5.0571    1.0000 </r>
       <r>    5.1996    1.0000 </r>
       <r>    5.3285    1.0000 </r>
       <r>    5.5175    1.0000 </r>
       <r>    5.7602    1.0000 </r>
       <r>    5.8460    1.0000 </r>
       <r>    5.9738    1.0000 </r>
       <r>    6.1249    1.0000 </r>
       <r>    6.1912    1.0000 </r>
       <r>    6.4762    1.0000 </r>
       <r>    6.6420    1.0000 </r>
       <r>    6.7011    1.0000 </r>
       <r>    7.3522    1.0000 </r>
       <r>    7.5347    1.0000 </r>
       <r>    7.5702    1.0000 </r>
       <r>    7.9017    1.0001 </r>
       <r>    8.0174    1.0012 </r>
       <r>    8.1373    1.0114 </r>
       <r>    8.2873    1.0341 </r>
       <r>    8.5055    0.5375 </r>
       <r>    8.6927   -0.0099 </r>
       <r>    9.3212   -0.0000 </r>
       <r>    9.4111   -0.0000 </r>
       <r>    9.5365   -0.0000 </r>
       <r>    9.9865   -0.0000 </r>
       <r>   10.2486   -0.0000 </r>
       <r>   10.3099   -0.0000 </r>
       <r>   10.3766   -0.0000 </r>
       <r>   10.5044   -0.0000 </r>
       <r>   10.6160   -0.0000 </r>
       <r>   10.6614   -0.0000 </r>
       <r>   10.7759   -0.0000 </r>
       <r>   10.9140   -0.0000 </r>
       <r>   10.9883   -0.0000 </r>
       <r>   11.1104   -0.0000 </r>
       <r>   11.1695   -0.0000 </r>
       <r>   11.3175   -0.0000 </r>
       <r>   11.4333   -0.0000 </r>
       <r>   11.4984   -0.0000 </r>
       <r>   11.8701   -0.0000 </r>
       <r>   12.1507   -0.0000 </r>
       <r>   12.3246   -0.0000 </r>
      </set>
      <set comment="kpoint 117">
       <r>   -2.5478    1.0000 </r>
       <r>   -1.9333    1.0000 </r>
       <r>   -1.5946    1.0000 </r>
       <r>   -0.9432    1.0000 </r>
       <r>   -0.7052    1.0000 </r>
       <r>    0.2466    1.0000 </r>
       <r>    0.6438    1.0000 </r>
       <r>    0.7998    1.0000 </r>
       <r>    0.8929    1.0000 </r>
       <r>    1.2203    1.0000 </r>
       <r>    1.5608    1.0000 </r>
       <r>    2.3679    1.0000 </r>
       <r>    2.6095    1.0000 </r>
       <r>    2.8973    1.0000 </r>
       <r>    3.1638    1.0000 </r>
       <r>    3.3286    1.0000 </r>
       <r>    3.5174    1.0000 </r>
       <r>    3.6796    1.0000 </r>
       <r>    3.7654    1.0000 </r>
       <r>    3.8162    1.0000 </r>
       <r>    4.0675    1.0000 </r>
       <r>    4.2314    1.0000 </r>
       <r>    4.3874    1.0000 </r>
       <r>    4.6741    1.0000 </r>
       <r>    4.7523    1.0000 </r>
       <r>    5.3628    1.0000 </r>
       <r>    5.4749    1.0000 </r>
       <r>    5.5355    1.0000 </r>
       <r>    5.7510    1.0000 </r>
       <r>    6.2110    1.0000 </r>
       <r>    6.3866    1.0000 </r>
       <r>    6.6043    1.0000 </r>
       <r>    6.7171    1.0000 </r>
       <r>    7.3165    1.0000 </r>
       <r>    7.3756    1.0000 </r>
       <r>    7.6835    1.0000 </r>
       <r>    7.9240    1.0001 </r>
       <r>    8.2615    1.0352 </r>
       <r>    8.4831    0.6306 </r>
       <r>    8.6145    0.1296 </r>
       <r>    8.7612   -0.0354 </r>
       <r>    8.9316   -0.0060 </r>
       <r>    9.0816   -0.0002 </r>
       <r>    9.1372   -0.0000 </r>
       <r>    9.3088   -0.0000 </r>
       <r>    9.5089   -0.0000 </r>
       <r>    9.6824   -0.0000 </r>
       <r>    9.9297   -0.0000 </r>
       <r>   10.0832   -0.0000 </r>
       <r>   10.1956   -0.0000 </r>
       <r>   10.3751   -0.0000 </r>
       <r>   10.5929   -0.0000 </r>
       <r>   10.6853   -0.0000 </r>
       <r>   10.8029   -0.0000 </r>
       <r>   10.8682   -0.0000 </r>
       <r>   10.9866   -0.0000 </r>
       <r>   11.2028   -0.0000 </r>
       <r>   11.2942   -0.0000 </r>
       <r>   11.5877   -0.0000 </r>
       <r>   11.6968   -0.0000 </r>
       <r>   12.2049   -0.0000 </r>
       <r>   12.3425   -0.0000 </r>
       <r>   12.5398   -0.0000 </r>
       <r>   12.5996   -0.0000 </r>
      </set>
      <set comment="kpoint 118">
       <r>   -2.5340    1.0000 </r>
       <r>   -1.9541    1.0000 </r>
       <r>   -1.5860    1.0000 </r>
       <r>   -1.0805    1.0000 </r>
       <r>   -0.4917    1.0000 </r>
       <r>    0.1588    1.0000 </r>
       <r>    0.5750    1.0000 </r>
       <r>    0.7684    1.0000 </r>
       <r>    1.0654    1.0000 </r>
       <r>    1.2095    1.0000 </r>
       <r>    1.5503    1.0000 </r>
       <r>    2.3681    1.0000 </r>
       <r>    2.5238    1.0000 </r>
       <r>    2.9886    1.0000 </r>
       <r>    3.1775    1.0000 </r>
       <r>    3.2555    1.0000 </r>
       <r>    3.4401    1.0000 </r>
       <r>    3.6021    1.0000 </r>
       <r>    3.7993    1.0000 </r>
       <r>    3.9246    1.0000 </r>
       <r>    4.0733    1.0000 </r>
       <r>    4.1844    1.0000 </r>
       <r>    4.4954    1.0000 </r>
       <r>    4.6116    1.0000 </r>
       <r>    4.7329    1.0000 </r>
       <r>    5.2811    1.0000 </r>
       <r>    5.5131    1.0000 </r>
       <r>    5.6073    1.0000 </r>
       <r>    5.8175    1.0000 </r>
       <r>    6.2690    1.0000 </r>
       <r>    6.3714    1.0000 </r>
       <r>    6.6094    1.0000 </r>
       <r>    6.7011    1.0000 </r>
       <r>    7.0967    1.0000 </r>
       <r>    7.4155    1.0000 </r>
       <r>    7.7122    1.0000 </r>
       <r>    7.9558    1.0003 </r>
       <r>    8.3193    1.0224 </r>
       <r>    8.4160    0.8656 </r>
       <r>    8.6103    0.1413 </r>
       <r>    8.8747   -0.0144 </r>
       <r>    8.9317   -0.0060 </r>
       <r>    9.1490   -0.0000 </r>
       <r>    9.2376   -0.0000 </r>
       <r>    9.3285   -0.0000 </r>
       <r>    9.3974   -0.0000 </r>
       <r>    9.5728   -0.0000 </r>
       <r>    9.8552   -0.0000 </r>
       <r>   10.0498   -0.0000 </r>
       <r>   10.2720   -0.0000 </r>
       <r>   10.4153   -0.0000 </r>
       <r>   10.5155   -0.0000 </r>
       <r>   10.5996   -0.0000 </r>
       <r>   10.7413   -0.0000 </r>
       <r>   10.9941   -0.0000 </r>
       <r>   11.1085   -0.0000 </r>
       <r>   11.1696   -0.0000 </r>
       <r>   11.2762   -0.0000 </r>
       <r>   11.5930   -0.0000 </r>
       <r>   11.6246   -0.0000 </r>
       <r>   12.2832   -0.0000 </r>
       <r>   12.3960   -0.0000 </r>
       <r>   12.4999   -0.0000 </r>
       <r>   12.6538   -0.0000 </r>
      </set>
      <set comment="kpoint 119">
       <r>   -2.5336    1.0000 </r>
       <r>   -2.0206    1.0000 </r>
       <r>   -1.4988    1.0000 </r>
       <r>   -0.9075    1.0000 </r>
       <r>   -0.7116    1.0000 </r>
       <r>    0.1227    1.0000 </r>
       <r>    0.5515    1.0000 </r>
       <r>    0.8595    1.0000 </r>
       <r>    1.0610    1.0000 </r>
       <r>    1.2151    1.0000 </r>
       <r>    1.4507    1.0000 </r>
       <r>    2.4232    1.0000 </r>
       <r>    2.7546    1.0000 </r>
       <r>    2.9008    1.0000 </r>
       <r>    3.0728    1.0000 </r>
       <r>    3.1977    1.0000 </r>
       <r>    3.4699    1.0000 </r>
       <r>    3.6680    1.0000 </r>
       <r>    3.7829    1.0000 </r>
       <r>    3.8939    1.0000 </r>
       <r>    4.1793    1.0000 </r>
       <r>    4.2933    1.0000 </r>
       <r>    4.4324    1.0000 </r>
       <r>    4.5973    1.0000 </r>
       <r>    4.6545    1.0000 </r>
       <r>    5.3058    1.0000 </r>
       <r>    5.4453    1.0000 </r>
       <r>    5.6646    1.0000 </r>
       <r>    5.7527    1.0000 </r>
       <r>    6.1493    1.0000 </r>
       <r>    6.2533    1.0000 </r>
       <r>    6.6530    1.0000 </r>
       <r>    6.7538    1.0000 </r>
       <r>    7.2819    1.0000 </r>
       <r>    7.4111    1.0000 </r>
       <r>    7.6833    1.0000 </r>
       <r>    8.1039    1.0067 </r>
       <r>    8.1625    1.0160 </r>
       <r>    8.4683    0.6894 </r>
       <r>    8.6240    0.1046 </r>
       <r>    8.8368   -0.0225 </r>
       <r>    8.8841   -0.0126 </r>
       <r>    9.1125   -0.0001 </r>
       <r>    9.1954   -0.0000 </r>
       <r>    9.2627   -0.0000 </r>
       <r>    9.5112   -0.0000 </r>
       <r>    9.7030   -0.0000 </r>
       <r>    9.8319   -0.0000 </r>
       <r>   10.0475   -0.0000 </r>
       <r>   10.2411   -0.0000 </r>
       <r>   10.3265   -0.0000 </r>
       <r>   10.5728   -0.0000 </r>
       <r>   10.6264   -0.0000 </r>
       <r>   10.7954   -0.0000 </r>
       <r>   10.8578   -0.0000 </r>
       <r>   10.9793   -0.0000 </r>
       <r>   11.1756   -0.0000 </r>
       <r>   11.2581   -0.0000 </r>
       <r>   11.6541   -0.0000 </r>
       <r>   11.7649   -0.0000 </r>
       <r>   12.2525   -0.0000 </r>
       <r>   12.4047   -0.0000 </r>
       <r>   12.5312   -0.0000 </r>
       <r>   12.6563   -0.0000 </r>
      </set>
      <set comment="kpoint 120">
       <r>   -2.4892    1.0000 </r>
       <r>   -2.0353    1.0000 </r>
       <r>   -1.6585    1.0000 </r>
       <r>   -0.8219    1.0000 </r>
       <r>   -0.6494    1.0000 </r>
       <r>    0.2554    1.0000 </r>
       <r>    0.5337    1.0000 </r>
       <r>    0.8193    1.0000 </r>
       <r>    1.0010    1.0000 </r>
       <r>    1.2487    1.0000 </r>
       <r>    1.3870    1.0000 </r>
       <r>    2.3240    1.0000 </r>
       <r>    2.7539    1.0000 </r>
       <r>    2.9113    1.0000 </r>
       <r>    3.0915    1.0000 </r>
       <r>    3.2467    1.0000 </r>
       <r>    3.4532    1.0000 </r>
       <r>    3.6649    1.0000 </r>
       <r>    3.7561    1.0000 </r>
       <r>    4.0049    1.0000 </r>
       <r>    4.0805    1.0000 </r>
       <r>    4.3251    1.0000 </r>
       <r>    4.3879    1.0000 </r>
       <r>    4.4957    1.0000 </r>
       <r>    4.6988    1.0000 </r>
       <r>    5.3160    1.0000 </r>
       <r>    5.5106    1.0000 </r>
       <r>    5.6957    1.0000 </r>
       <r>    5.8549    1.0000 </r>
       <r>    6.2069    1.0000 </r>
       <r>    6.3516    1.0000 </r>
       <r>    6.5235    1.0000 </r>
       <r>    6.7408    1.0000 </r>
       <r>    7.2716    1.0000 </r>
       <r>    7.4303    1.0000 </r>
       <r>    7.7616    1.0000 </r>
       <r>    7.9278    1.0001 </r>
       <r>    8.1180    1.0085 </r>
       <r>    8.5437    0.3773 </r>
       <r>    8.6934   -0.0105 </r>
       <r>    8.8206   -0.0262 </r>
       <r>    8.8598   -0.0174 </r>
       <r>    8.9944   -0.0018 </r>
       <r>    9.2424   -0.0000 </r>
       <r>    9.2760   -0.0000 </r>
       <r>    9.4611   -0.0000 </r>
       <r>    9.6029   -0.0000 </r>
       <r>    9.8554   -0.0000 </r>
       <r>   10.0348   -0.0000 </r>
       <r>   10.2058   -0.0000 </r>
       <r>   10.3234   -0.0000 </r>
       <r>   10.6062   -0.0000 </r>
       <r>   10.6844   -0.0000 </r>
       <r>   10.8215   -0.0000 </r>
       <r>   10.9192   -0.0000 </r>
       <r>   11.0296   -0.0000 </r>
       <r>   11.1602   -0.0000 </r>
       <r>   11.2803   -0.0000 </r>
       <r>   11.5919   -0.0000 </r>
       <r>   11.7038   -0.0000 </r>
       <r>   12.2753   -0.0000 </r>
       <r>   12.3770   -0.0000 </r>
       <r>   12.4738   -0.0000 </r>
       <r>   12.7326   -0.0000 </r>
      </set>
      <set comment="kpoint 121">
       <r>   -2.5177    1.0000 </r>
       <r>   -2.0218    1.0000 </r>
       <r>   -1.5487    1.0000 </r>
       <r>   -0.9319    1.0000 </r>
       <r>   -0.6986    1.0000 </r>
       <r>    0.3046    1.0000 </r>
       <r>    0.5283    1.0000 </r>
       <r>    0.8402    1.0000 </r>
       <r>    0.9940    1.0000 </r>
       <r>    1.1307    1.0000 </r>
       <r>    1.6205    1.0000 </r>
       <r>    2.2773    1.0000 </r>
       <r>    2.5118    1.0000 </r>
       <r>    2.9128    1.0000 </r>
       <r>    3.2126    1.0000 </r>
       <r>    3.3988    1.0000 </r>
       <r>    3.4644    1.0000 </r>
       <r>    3.6743    1.0000 </r>
       <r>    3.8330    1.0000 </r>
       <r>    3.8736    1.0000 </r>
       <r>    4.0743    1.0000 </r>
       <r>    4.2103    1.0000 </r>
       <r>    4.3522    1.0000 </r>
       <r>    4.6365    1.0000 </r>
       <r>    4.7414    1.0000 </r>
       <r>    5.3937    1.0000 </r>
       <r>    5.4319    1.0000 </r>
       <r>    5.6271    1.0000 </r>
       <r>    5.7411    1.0000 </r>
       <r>    6.1556    1.0000 </r>
       <r>    6.2878    1.0000 </r>
       <r>    6.6279    1.0000 </r>
       <r>    6.7702    1.0000 </r>
       <r>    7.3559    1.0000 </r>
       <r>    7.4915    1.0000 </r>
       <r>    7.7852    1.0000 </r>
       <r>    7.8317    1.0000 </r>
       <r>    8.1738    1.0184 </r>
       <r>    8.4054    0.8937 </r>
       <r>    8.6248    0.1027 </r>
       <r>    8.7839   -0.0335 </r>
       <r>    8.8627   -0.0168 </r>
       <r>    9.0016   -0.0015 </r>
       <r>    9.2706   -0.0000 </r>
       <r>    9.3870   -0.0000 </r>
       <r>    9.5820   -0.0000 </r>
       <r>    9.6725   -0.0000 </r>
       <r>    9.8282   -0.0000 </r>
       <r>   10.0682   -0.0000 </r>
       <r>   10.2553   -0.0000 </r>
       <r>   10.3415   -0.0000 </r>
       <r>   10.5248   -0.0000 </r>
       <r>   10.6767   -0.0000 </r>
       <r>   10.8009   -0.0000 </r>
       <r>   10.8472   -0.0000 </r>
       <r>   10.9802   -0.0000 </r>
       <r>   11.2103   -0.0000 </r>
       <r>   11.3054   -0.0000 </r>
       <r>   11.6174   -0.0000 </r>
       <r>   11.6696   -0.0000 </r>
       <r>   12.1121   -0.0000 </r>
       <r>   12.3722   -0.0000 </r>
       <r>   12.4308   -0.0000 </r>
       <r>   12.7049   -0.0000 </r>
      </set>
      <set comment="kpoint 122">
       <r>   -2.4840    1.0000 </r>
       <r>   -2.0770    1.0000 </r>
       <r>   -1.6023    1.0000 </r>
       <r>   -0.8587    1.0000 </r>
       <r>   -0.5614    1.0000 </r>
       <r>    0.1995    1.0000 </r>
       <r>    0.3840    1.0000 </r>
       <r>    0.7564    1.0000 </r>
       <r>    0.9395    1.0000 </r>
       <r>    1.3889    1.0000 </r>
       <r>    1.6415    1.0000 </r>
       <r>    2.3452    1.0000 </r>
       <r>    2.6434    1.0000 </r>
       <r>    2.8796    1.0000 </r>
       <r>    3.1170    1.0000 </r>
       <r>    3.2942    1.0000 </r>
       <r>    3.4812    1.0000 </r>
       <r>    3.5707    1.0000 </r>
       <r>    3.6061    1.0000 </r>
       <r>    3.9688    1.0000 </r>
       <r>    4.1178    1.0000 </r>
       <r>    4.3720    1.0000 </r>
       <r>    4.4991    1.0000 </r>
       <r>    4.5956    1.0000 </r>
       <r>    4.6434    1.0000 </r>
       <r>    5.1863    1.0000 </r>
       <r>    5.5463    1.0000 </r>
       <r>    5.7257    1.0000 </r>
       <r>    5.8011    1.0000 </r>
       <r>    6.1600    1.0000 </r>
       <r>    6.1996    1.0000 </r>
       <r>    6.6461    1.0000 </r>
       <r>    6.8182    1.0000 </r>
       <r>    7.2404    1.0000 </r>
       <r>    7.4712    1.0000 </r>
       <r>    7.8224    1.0000 </r>
       <r>    8.0256    1.0015 </r>
       <r>    8.1706    1.0177 </r>
       <r>    8.4763    0.6581 </r>
       <r>    8.5393    0.3953 </r>
       <r>    8.8506   -0.0194 </r>
       <r>    8.9327   -0.0059 </r>
       <r>    9.1050   -0.0001 </r>
       <r>    9.1395   -0.0000 </r>
       <r>    9.3141   -0.0000 </r>
       <r>    9.4570   -0.0000 </r>
       <r>    9.6155   -0.0000 </r>
       <r>    9.8625   -0.0000 </r>
       <r>    9.9169   -0.0000 </r>
       <r>   10.2042   -0.0000 </r>
       <r>   10.3273   -0.0000 </r>
       <r>   10.5467   -0.0000 </r>
       <r>   10.6726   -0.0000 </r>
       <r>   10.7727   -0.0000 </r>
       <r>   10.9054   -0.0000 </r>
       <r>   11.0421   -0.0000 </r>
       <r>   11.1541   -0.0000 </r>
       <r>   11.3333   -0.0000 </r>
       <r>   11.6201   -0.0000 </r>
       <r>   11.7307   -0.0000 </r>
       <r>   12.2766   -0.0000 </r>
       <r>   12.3892   -0.0000 </r>
       <r>   12.4947   -0.0000 </r>
       <r>   12.6546   -0.0000 </r>
      </set>
      <set comment="kpoint 123">
       <r>   -2.4362    1.0000 </r>
       <r>   -2.1314    1.0000 </r>
       <r>   -1.6354    1.0000 </r>
       <r>   -0.9066    1.0000 </r>
       <r>   -0.5120    1.0000 </r>
       <r>    0.2764    1.0000 </r>
       <r>    0.6083    1.0000 </r>
       <r>    0.7698    1.0000 </r>
       <r>    0.9202    1.0000 </r>
       <r>    1.1541    1.0000 </r>
       <r>    1.5172    1.0000 </r>
       <r>    2.3548    1.0000 </r>
       <r>    2.6522    1.0000 </r>
       <r>    2.8839    1.0000 </r>
       <r>    3.0149    1.0000 </r>
       <r>    3.3046    1.0000 </r>
       <r>    3.4891    1.0000 </r>
       <r>    3.6396    1.0000 </r>
       <r>    3.8176    1.0000 </r>
       <r>    3.9450    1.0000 </r>
       <r>    4.0456    1.0000 </r>
       <r>    4.2397    1.0000 </r>
       <r>    4.3971    1.0000 </r>
       <r>    4.6527    1.0000 </r>
       <r>    4.7688    1.0000 </r>
       <r>    5.3160    1.0000 </r>
       <r>    5.4412    1.0000 </r>
       <r>    5.7281    1.0000 </r>
       <r>    5.9087    1.0000 </r>
       <r>    6.1488    1.0000 </r>
       <r>    6.2940    1.0000 </r>
       <r>    6.6628    1.0000 </r>
       <r>    6.7333    1.0000 </r>
       <r>    7.3824    1.0000 </r>
       <r>    7.4457    1.0000 </r>
       <r>    7.7031    1.0000 </r>
       <r>    7.8369    1.0000 </r>
       <r>    8.1440    1.0125 </r>
       <r>    8.4865    0.6167 </r>
       <r>    8.6116    0.1377 </r>
       <r>    8.7768   -0.0344 </r>
       <r>    8.9164   -0.0077 </r>
       <r>    9.0252   -0.0009 </r>
       <r>    9.1465   -0.0000 </r>
       <r>    9.3160   -0.0000 </r>
       <r>    9.4922   -0.0000 </r>
       <r>    9.5690   -0.0000 </r>
       <r>    9.8191   -0.0000 </r>
       <r>    9.9834   -0.0000 </r>
       <r>   10.2547   -0.0000 </r>
       <r>   10.3639   -0.0000 </r>
       <r>   10.5641   -0.0000 </r>
       <r>   10.7143   -0.0000 </r>
       <r>   10.8113   -0.0000 </r>
       <r>   10.9794   -0.0000 </r>
       <r>   11.0599   -0.0000 </r>
       <r>   11.1673   -0.0000 </r>
       <r>   11.2670   -0.0000 </r>
       <r>   11.5363   -0.0000 </r>
       <r>   11.7402   -0.0000 </r>
       <r>   12.2930   -0.0000 </r>
       <r>   12.5031   -0.0000 </r>
       <r>   12.5409   -0.0000 </r>
       <r>   12.6057   -0.0000 </r>
      </set>
      <set comment="kpoint 124">
       <r>   -2.4561    1.0000 </r>
       <r>   -2.1150    1.0000 </r>
       <r>   -1.6109    1.0000 </r>
       <r>   -0.8196    1.0000 </r>
       <r>   -0.6644    1.0000 </r>
       <r>    0.3465    1.0000 </r>
       <r>    0.4728    1.0000 </r>
       <r>    0.7933    1.0000 </r>
       <r>    1.0077    1.0000 </r>
       <r>    1.2797    1.0000 </r>
       <r>    1.4488    1.0000 </r>
       <r>    2.2296    1.0000 </r>
       <r>    2.5055    1.0000 </r>
       <r>    2.8464    1.0000 </r>
       <r>    3.2316    1.0000 </r>
       <r>    3.4529    1.0000 </r>
       <r>    3.5736    1.0000 </r>
       <r>    3.6434    1.0000 </r>
       <r>    3.6905    1.0000 </r>
       <r>    3.8625    1.0000 </r>
       <r>    4.1848    1.0000 </r>
       <r>    4.3257    1.0000 </r>
       <r>    4.4187    1.0000 </r>
       <r>    4.5282    1.0000 </r>
       <r>    4.6406    1.0000 </r>
       <r>    5.3663    1.0000 </r>
       <r>    5.4629    1.0000 </r>
       <r>    5.6891    1.0000 </r>
       <r>    5.8756    1.0000 </r>
       <r>    6.1852    1.0000 </r>
       <r>    6.2724    1.0000 </r>
       <r>    6.5674    1.0000 </r>
       <r>    6.7633    1.0000 </r>
       <r>    7.2607    1.0000 </r>
       <r>    7.5404    1.0000 </r>
       <r>    7.7632    1.0000 </r>
       <r>    7.8440    1.0000 </r>
       <r>    8.0907    1.0053 </r>
       <r>    8.4327    0.8156 </r>
       <r>    8.6609    0.0293 </r>
       <r>    8.7771   -0.0344 </r>
       <r>    8.8676   -0.0158 </r>
       <r>    9.0985   -0.0001 </r>
       <r>    9.2561   -0.0000 </r>
       <r>    9.3620   -0.0000 </r>
       <r>    9.4369   -0.0000 </r>
       <r>    9.6767   -0.0000 </r>
       <r>    9.8114   -0.0000 </r>
       <r>   10.0757   -0.0000 </r>
       <r>   10.1873   -0.0000 </r>
       <r>   10.3316   -0.0000 </r>
       <r>   10.4977   -0.0000 </r>
       <r>   10.6217   -0.0000 </r>
       <r>   10.8159   -0.0000 </r>
       <r>   10.8836   -0.0000 </r>
       <r>   11.1015   -0.0000 </r>
       <r>   11.2607   -0.0000 </r>
       <r>   11.3439   -0.0000 </r>
       <r>   11.5830   -0.0000 </r>
       <r>   11.6381   -0.0000 </r>
       <r>   12.2457   -0.0000 </r>
       <r>   12.4101   -0.0000 </r>
       <r>   12.4650   -0.0000 </r>
       <r>   12.5817   -0.0000 </r>
      </set>
      <set comment="kpoint 125">
       <r>   -2.4664    1.0000 </r>
       <r>   -2.1597    1.0000 </r>
       <r>   -1.4259    1.0000 </r>
       <r>   -0.9241    1.0000 </r>
       <r>   -0.7144    1.0000 </r>
       <r>    0.2417    1.0000 </r>
       <r>    0.5826    1.0000 </r>
       <r>    0.7315    1.0000 </r>
       <r>    1.0395    1.0000 </r>
       <r>    1.2172    1.0000 </r>
       <r>    1.5872    1.0000 </r>
       <r>    2.3336    1.0000 </r>
       <r>    2.4408    1.0000 </r>
       <r>    2.7966    1.0000 </r>
       <r>    3.0798    1.0000 </r>
       <r>    3.4228    1.0000 </r>
       <r>    3.6919    1.0000 </r>
       <r>    3.7120    1.0000 </r>
       <r>    3.8236    1.0000 </r>
       <r>    3.9328    1.0000 </r>
       <r>    4.1869    1.0000 </r>
       <r>    4.2483    1.0000 </r>
       <r>    4.3396    1.0000 </r>
       <r>    4.4530    1.0000 </r>
       <r>    4.7344    1.0000 </r>
       <r>    5.3338    1.0000 </r>
       <r>    5.4874    1.0000 </r>
       <r>    5.6796    1.0000 </r>
       <r>    5.7439    1.0000 </r>
       <r>    6.0271    1.0000 </r>
       <r>    6.2041    1.0000 </r>
       <r>    6.7124    1.0000 </r>
       <r>    6.7821    1.0000 </r>
       <r>    7.3751    1.0000 </r>
       <r>    7.6274    1.0000 </r>
       <r>    7.7139    1.0000 </r>
       <r>    7.8601    1.0000 </r>
       <r>    8.0776    1.0042 </r>
       <r>    8.5367    0.4063 </r>
       <r>    8.5916    0.1987 </r>
       <r>    8.7467   -0.0348 </r>
       <r>    8.7887   -0.0328 </r>
       <r>    9.0289   -0.0008 </r>
       <r>    9.1949   -0.0000 </r>
       <r>    9.3896   -0.0000 </r>
       <r>    9.5762   -0.0000 </r>
       <r>    9.7602   -0.0000 </r>
       <r>    9.8697   -0.0000 </r>
       <r>   10.1423   -0.0000 </r>
       <r>   10.2279   -0.0000 </r>
       <r>   10.2766   -0.0000 </r>
       <r>   10.4711   -0.0000 </r>
       <r>   10.6422   -0.0000 </r>
       <r>   10.7540   -0.0000 </r>
       <r>   10.8853   -0.0000 </r>
       <r>   10.9632   -0.0000 </r>
       <r>   11.1340   -0.0000 </r>
       <r>   11.2585   -0.0000 </r>
       <r>   11.6891   -0.0000 </r>
       <r>   11.7653   -0.0000 </r>
       <r>   12.2074   -0.0000 </r>
       <r>   12.2637   -0.0000 </r>
       <r>   12.4772   -0.0000 </r>
       <r>   12.6055   -0.0000 </r>
      </set>
      <set comment="kpoint 126">
       <r>   -2.4700    1.0000 </r>
       <r>   -2.0964    1.0000 </r>
       <r>   -1.5294    1.0000 </r>
       <r>   -1.0835    1.0000 </r>
       <r>   -0.4952    1.0000 </r>
       <r>    0.3001    1.0000 </r>
       <r>    0.5557    1.0000 </r>
       <r>    0.7603    1.0000 </r>
       <r>    0.9708    1.0000 </r>
       <r>    1.2612    1.0000 </r>
       <r>    1.6090    1.0000 </r>
       <r>    2.1936    1.0000 </r>
       <r>    2.5156    1.0000 </r>
       <r>    2.9048    1.0000 </r>
       <r>    3.1215    1.0000 </r>
       <r>    3.3337    1.0000 </r>
       <r>    3.5196    1.0000 </r>
       <r>    3.6523    1.0000 </r>
       <r>    3.8223    1.0000 </r>
       <r>    3.9745    1.0000 </r>
       <r>    4.1135    1.0000 </r>
       <r>    4.2031    1.0000 </r>
       <r>    4.2802    1.0000 </r>
       <r>    4.6184    1.0000 </r>
       <r>    4.7440    1.0000 </r>
       <r>    5.4116    1.0000 </r>
       <r>    5.4434    1.0000 </r>
       <r>    5.6913    1.0000 </r>
       <r>    5.8170    1.0000 </r>
       <r>    6.0866    1.0000 </r>
       <r>    6.2848    1.0000 </r>
       <r>    6.7344    1.0000 </r>
       <r>    6.7799    1.0000 </r>
       <r>    7.3009    1.0000 </r>
       <r>    7.4607    1.0000 </r>
       <r>    7.6989    1.0000 </r>
       <r>    7.9301    1.0001 </r>
       <r>    8.1927    1.0227 </r>
       <r>    8.3778    0.9538 </r>
       <r>    8.5724    0.2657 </r>
       <r>    8.7755   -0.0346 </r>
       <r>    8.9692   -0.0030 </r>
       <r>    9.0119   -0.0012 </r>
       <r>    9.2009   -0.0000 </r>
       <r>    9.2950   -0.0000 </r>
       <r>    9.5470   -0.0000 </r>
       <r>    9.7440   -0.0000 </r>
       <r>    9.9784   -0.0000 </r>
       <r>   10.1018   -0.0000 </r>
       <r>   10.1917   -0.0000 </r>
       <r>   10.3333   -0.0000 </r>
       <r>   10.4966   -0.0000 </r>
       <r>   10.6273   -0.0000 </r>
       <r>   10.7015   -0.0000 </r>
       <r>   11.0138   -0.0000 </r>
       <r>   11.0831   -0.0000 </r>
       <r>   11.1499   -0.0000 </r>
       <r>   11.2224   -0.0000 </r>
       <r>   11.5753   -0.0000 </r>
       <r>   11.7111   -0.0000 </r>
       <r>   12.1971   -0.0000 </r>
       <r>   12.3055   -0.0000 </r>
       <r>   12.5118   -0.0000 </r>
       <r>   12.5404   -0.0000 </r>
      </set>
      <set comment="kpoint 127">
       <r>   -2.4357    1.0000 </r>
       <r>   -2.1108    1.0000 </r>
       <r>   -1.6728    1.0000 </r>
       <r>   -0.9122    1.0000 </r>
       <r>   -0.4860    1.0000 </r>
       <r>    0.3111    1.0000 </r>
       <r>    0.4972    1.0000 </r>
       <r>    0.7725    1.0000 </r>
       <r>    0.9558    1.0000 </r>
       <r>    1.2395    1.0000 </r>
       <r>    1.5264    1.0000 </r>
       <r>    2.2434    1.0000 </r>
       <r>    2.6895    1.0000 </r>
       <r>    2.9415    1.0000 </r>
       <r>    3.1395    1.0000 </r>
       <r>    3.2682    1.0000 </r>
       <r>    3.4760    1.0000 </r>
       <r>    3.5843    1.0000 </r>
       <r>    3.7186    1.0000 </r>
       <r>    3.8103    1.0000 </r>
       <r>    4.1396    1.0000 </r>
       <r>    4.2517    1.0000 </r>
       <r>    4.3627    1.0000 </r>
       <r>    4.6628    1.0000 </r>
       <r>    4.7287    1.0000 </r>
       <r>    5.3933    1.0000 </r>
       <r>    5.5198    1.0000 </r>
       <r>    5.7156    1.0000 </r>
       <r>    5.9174    1.0000 </r>
       <r>    6.1717    1.0000 </r>
       <r>    6.3303    1.0000 </r>
       <r>    6.5827    1.0000 </r>
       <r>    6.6955    1.0000 </r>
       <r>    7.3813    1.0000 </r>
       <r>    7.5419    1.0000 </r>
       <r>    7.6198    1.0000 </r>
       <r>    7.9262    1.0001 </r>
       <r>    8.1842    1.0207 </r>
       <r>    8.3266    1.0175 </r>
       <r>    8.4896    0.6042 </r>
       <r>    8.8159   -0.0273 </r>
       <r>    8.9746   -0.0027 </r>
       <r>    9.1374   -0.0000 </r>
       <r>    9.2513   -0.0000 </r>
       <r>    9.3593   -0.0000 </r>
       <r>    9.5085   -0.0000 </r>
       <r>    9.5705   -0.0000 </r>
       <r>    9.7874   -0.0000 </r>
       <r>    9.9920   -0.0000 </r>
       <r>   10.1971   -0.0000 </r>
       <r>   10.2765   -0.0000 </r>
       <r>   10.5442   -0.0000 </r>
       <r>   10.6516   -0.0000 </r>
       <r>   10.8062   -0.0000 </r>
       <r>   10.8573   -0.0000 </r>
       <r>   11.0880   -0.0000 </r>
       <r>   11.2609   -0.0000 </r>
       <r>   11.4504   -0.0000 </r>
       <r>   11.5766   -0.0000 </r>
       <r>   11.6485   -0.0000 </r>
       <r>   12.2553   -0.0000 </r>
       <r>   12.4675   -0.0000 </r>
       <r>   12.4942   -0.0000 </r>
       <r>   12.6121   -0.0000 </r>
      </set>
      <set comment="kpoint 128">
       <r>   -2.4470    1.0000 </r>
       <r>   -2.1363    1.0000 </r>
       <r>   -1.5902    1.0000 </r>
       <r>   -0.8773    1.0000 </r>
       <r>   -0.5643    1.0000 </r>
       <r>    0.2815    1.0000 </r>
       <r>    0.4366    1.0000 </r>
       <r>    0.6951    1.0000 </r>
       <r>    0.9137    1.0000 </r>
       <r>    1.4246    1.0000 </r>
       <r>    1.6255    1.0000 </r>
       <r>    2.3339    1.0000 </r>
       <r>    2.5545    1.0000 </r>
       <r>    2.9040    1.0000 </r>
       <r>    3.0862    1.0000 </r>
       <r>    3.2580    1.0000 </r>
       <r>    3.4942    1.0000 </r>
       <r>    3.6458    1.0000 </r>
       <r>    3.7218    1.0000 </r>
       <r>    3.9087    1.0000 </r>
       <r>    4.0785    1.0000 </r>
       <r>    4.3312    1.0000 </r>
       <r>    4.4057    1.0000 </r>
       <r>    4.5649    1.0000 </r>
       <r>    4.7119    1.0000 </r>
       <r>    5.3612    1.0000 </r>
       <r>    5.5078    1.0000 </r>
       <r>    5.7094    1.0000 </r>
       <r>    5.7955    1.0000 </r>
       <r>    6.1186    1.0000 </r>
       <r>    6.1819    1.0000 </r>
       <r>    6.6801    1.0000 </r>
       <r>    6.8689    1.0000 </r>
       <r>    7.3002    1.0000 </r>
       <r>    7.5796    1.0000 </r>
       <r>    7.6864    1.0000 </r>
       <r>    7.9911    1.0007 </r>
       <r>    8.1587    1.0153 </r>
       <r>    8.3961    0.9162 </r>
       <r>    8.5819    0.2315 </r>
       <r>    8.7574   -0.0354 </r>
       <r>    8.9577   -0.0037 </r>
       <r>    9.0603   -0.0004 </r>
       <r>    9.1483   -0.0000 </r>
       <r>    9.3651   -0.0000 </r>
       <r>    9.4545   -0.0000 </r>
       <r>    9.7355   -0.0000 </r>
       <r>    9.8473   -0.0000 </r>
       <r>   10.0534   -0.0000 </r>
       <r>   10.1692   -0.0000 </r>
       <r>   10.3602   -0.0000 </r>
       <r>   10.5250   -0.0000 </r>
       <r>   10.5972   -0.0000 </r>
       <r>   10.7489   -0.0000 </r>
       <r>   10.8688   -0.0000 </r>
       <r>   11.0251   -0.0000 </r>
       <r>   11.1800   -0.0000 </r>
       <r>   11.2755   -0.0000 </r>
       <r>   11.6653   -0.0000 </r>
       <r>   11.8190   -0.0000 </r>
       <r>   12.1703   -0.0000 </r>
       <r>   12.3945   -0.0000 </r>
       <r>   12.4900   -0.0000 </r>
       <r>   12.5654   -0.0000 </r>
      </set>
     </set>
    </set>
   </array>
  </eigenvalues>
  <separator name="orbital magnetization" >
   <v name="MAGDIPOLOUT">      0.00000000      0.00000000      0.00000000</v>
  </separator>
  <dos>
   <i name="efermi">      8.51438581 </i>
   <total>
    <array>
     <dimension dim="1">gridpoints</dimension>
     <dimension dim="2">spin</dimension>
     <field>energy</field>
     <field>total</field>
     <field>integrated</field>
     <set>
      <set comment="spin 1">
       <r>    -5.1346     0.0000     0.0000 </r>
       <r>    -5.0657     0.0000     0.0000 </r>
       <r>    -4.9967     0.0000     0.0000 </r>
       <r>    -4.9278     0.0000     0.0000 </r>
       <r>    -4.8588     0.0000     0.0000 </r>
       <r>    -4.7899    -0.0000    -0.0000 </r>
       <r>    -4.7210    -0.0000    -0.0000 </r>
       <r>    -4.6520    -0.0000    -0.0000 </r>
       <r>    -4.5831    -0.0000    -0.0000 </r>
       <r>    -4.5142    -0.0000    -0.0000 </r>
       <r>    -4.4452    -0.0000    -0.0000 </r>
       <r>    -4.3763    -0.0000    -0.0000 </r>
       <r>    -4.3073    -0.0000    -0.0000 </r>
       <r>    -4.2384    -0.0000    -0.0000 </r>
       <r>    -4.1695    -0.0000    -0.0000 </r>
       <r>    -4.1005    -0.0000    -0.0000 </r>
       <r>    -4.0316    -0.0000    -0.0000 </r>
       <r>    -3.9627    -0.0000    -0.0000 </r>
       <r>    -3.8937    -0.0000    -0.0000 </r>
       <r>    -3.8248    -0.0000    -0.0000 </r>
       <r>    -3.7558    -0.0000    -0.0000 </r>
       <r>    -3.6869    -0.0003    -0.0000 </r>
       <r>    -3.6180    -0.0014    -0.0001 </r>
       <r>    -3.5490    -0.0053    -0.0005 </r>
       <r>    -3.4801    -0.0152    -0.0015 </r>
       <r>    -3.4112    -0.0316    -0.0037 </r>
       <r>    -3.3422    -0.0402    -0.0065 </r>
       <r>    -3.2733    -0.0004    -0.0065 </r>
       <r>    -3.2043     0.1452     0.0035 </r>
       <r>    -3.1354     0.4282     0.0330 </r>
       <r>    -3.0665     0.8088     0.0888 </r>
       <r>    -2.9975     1.1905     0.1709 </r>
       <r>    -2.9286     1.5139     0.2752 </r>
       <r>    -2.8597     1.8246     0.4010 </r>
       <r>    -2.7907     2.1978     0.5525 </r>
       <r>    -2.7218     2.5944     0.7314 </r>
       <r>    -2.6528     2.8832     0.9301 </r>
       <r>    -2.5839     3.0311     1.1391 </r>
       <r>    -2.5150     3.1289     1.3548 </r>
       <r>    -2.4460     3.1465     1.5717 </r>
       <r>    -2.3771     2.8677     1.7694 </r>
       <r>    -2.3082     2.2420     1.9239 </r>
       <r>    -2.2392     1.6307     2.0364 </r>
       <r>    -2.1703     1.5205     2.1412 </r>
       <r>    -2.1013     2.0709     2.2839 </r>
       <r>    -2.0324     2.9864     2.4898 </r>
       <r>    -1.9635     3.7261     2.7467 </r>
       <r>    -1.8945     3.8932     3.0151 </r>
       <r>    -1.8256     3.5842     3.2622 </r>
       <r>    -1.7567     3.2995     3.4896 </r>
       <r>    -1.6877     3.3754     3.7223 </r>
       <r>    -1.6188     3.6358     3.9730 </r>
       <r>    -1.5498     3.7568     4.2319 </r>
       <r>    -1.4809     3.7627     4.4913 </r>
       <r>    -1.4120     3.8999     4.7602 </r>
       <r>    -1.3430     4.1775     5.0482 </r>
       <r>    -1.2741     4.3593     5.3487 </r>
       <r>    -1.2052     4.3578     5.6491 </r>
       <r>    -1.1362     4.3481     5.9489 </r>
       <r>    -1.0673     4.4756     6.2574 </r>
       <r>    -0.9983     4.6484     6.5778 </r>
       <r>    -0.9294     4.6645     6.8994 </r>
       <r>    -0.8605     4.4509     7.2062 </r>
       <r>    -0.7915     4.1200     7.4903 </r>
       <r>    -0.7226     3.8284     7.7542 </r>
       <r>    -0.6537     3.6936     8.0088 </r>
       <r>    -0.5847     3.8673     8.2754 </r>
       <r>    -0.5158     4.4915     8.5850 </r>
       <r>    -0.4468     5.4210     8.9588 </r>
       <r>    -0.3779     6.1097     9.3799 </r>
       <r>    -0.3090     6.0177     9.7948 </r>
       <r>    -0.2400     5.1936    10.1528 </r>
       <r>    -0.1711     4.2903    10.4486 </r>
       <r>    -0.1022     3.9276    10.7193 </r>
       <r>    -0.0332     4.1715    11.0069 </r>
       <r>     0.0357     4.6766    11.3293 </r>
       <r>     0.1047     5.1365    11.6834 </r>
       <r>     0.1736     5.4482    12.0590 </r>
       <r>     0.2425     5.5648    12.4426 </r>
       <r>     0.3115     5.4347    12.8173 </r>
       <r>     0.3804     5.1340    13.1712 </r>
       <r>     0.4493     4.8828    13.5078 </r>
       <r>     0.5183     4.8399    13.8415 </r>
       <r>     0.5872     4.9744    14.1844 </r>
       <r>     0.6562     5.1768    14.5413 </r>
       <r>     0.7251     5.4191    14.9148 </r>
       <r>     0.7940     5.7796    15.3133 </r>
       <r>     0.8630     6.3073    15.7481 </r>
       <r>     0.9319     6.8202    16.2182 </r>
       <r>     1.0008     6.9387    16.6966 </r>
       <r>     1.0698     6.4978    17.1445 </r>
       <r>     1.1387     5.8286    17.5463 </r>
       <r>     1.2077     5.4231    17.9202 </r>
       <r>     1.2766     5.4311    18.2946 </r>
       <r>     1.3455     5.6738    18.6857 </r>
       <r>     1.4145     5.9939    19.0989 </r>
       <r>     1.4834     6.3759    19.5385 </r>
       <r>     1.5523     6.8029    20.0074 </r>
       <r>     1.6213     7.1598    20.5010 </r>
       <r>     1.6902     7.2724    21.0024 </r>
       <r>     1.7592     7.0173    21.4861 </r>
       <r>     1.8281     6.4836    21.9331 </r>
       <r>     1.8970     6.0198    22.3481 </r>
       <r>     1.9660     5.9829    22.7605 </r>
       <r>     2.0349     6.4222    23.2033 </r>
       <r>     2.1038     7.0666    23.6904 </r>
       <r>     2.1728     7.5595    24.2115 </r>
       <r>     2.2417     7.6786    24.7409 </r>
       <r>     2.3107     7.4314    25.2532 </r>
       <r>     2.3796     7.0148    25.7368 </r>
       <r>     2.4485     6.6722    26.1967 </r>
       <r>     2.5175     6.5518    26.6484 </r>
       <r>     2.5864     6.6605    27.1076 </r>
       <r>     2.6553     6.9241    27.5849 </r>
       <r>     2.7243     7.2530    28.0849 </r>
       <r>     2.7932     7.5298    28.6040 </r>
       <r>     2.8622     7.6170    29.1291 </r>
       <r>     2.9311     7.4982    29.6460 </r>
       <r>     3.0000     7.3652    30.1537 </r>
       <r>     3.0690     7.4340    30.6662 </r>
       <r>     3.1379     7.7165    31.1982 </r>
       <r>     3.2068     8.0593    31.7537 </r>
       <r>     3.2758     8.3360    32.3284 </r>
       <r>     3.3447     8.5363    32.9169 </r>
       <r>     3.4137     8.6957    33.5163 </r>
       <r>     3.4826     8.7658    34.1206 </r>
       <r>     3.5515     8.6092    34.7141 </r>
       <r>     3.6205     8.1589    35.2766 </r>
       <r>     3.6894     7.5335    35.7959 </r>
       <r>     3.7583     6.9787    36.2770 </r>
       <r>     3.8273     6.7371    36.7415 </r>
       <r>     3.8962     6.9440    37.2201 </r>
       <r>     3.9652     7.5543    37.7409 </r>
       <r>     4.0341     8.3378    38.3157 </r>
       <r>     4.1030     8.9962    38.9359 </r>
       <r>     4.1720     9.3523    39.5806 </r>
       <r>     4.2409     9.4311    40.2308 </r>
       <r>     4.3098     9.3553    40.8757 </r>
       <r>     4.3788     9.2084    41.5105 </r>
       <r>     4.4477     9.0297    42.1330 </r>
       <r>     4.5167     8.8965    42.7463 </r>
       <r>     4.5856     8.9143    43.3608 </r>
       <r>     4.6545     9.0731    43.9863 </r>
       <r>     4.7235     9.1872    44.6196 </r>
       <r>     4.7924     9.0843    45.2459 </r>
       <r>     4.8613     8.7949    45.8522 </r>
       <r>     4.9303     8.4567    46.4352 </r>
       <r>     4.9992     8.1459    46.9967 </r>
       <r>     5.0682     7.9309    47.5435 </r>
       <r>     5.1371     7.9750    48.0932 </r>
       <r>     5.2060     8.4129    48.6732 </r>
       <r>     5.2750     9.1476    49.3038 </r>
       <r>     5.3439     9.8719    49.9844 </r>
       <r>     5.4128    10.3021    50.6946 </r>
       <r>     5.4818    10.3953    51.4112 </r>
       <r>     5.5507    10.3809    52.1268 </r>
       <r>     5.6197    10.5346    52.8530 </r>
       <r>     5.6886    10.8399    53.6003 </r>
       <r>     5.7575    10.9444    54.3548 </r>
       <r>     5.8265    10.5527    55.0823 </r>
       <r>     5.8954     9.7669    55.7556 </r>
       <r>     5.9643     8.9515    56.3727 </r>
       <r>     6.0333     8.4045    56.9521 </r>
       <r>     6.1022     8.2346    57.5197 </r>
       <r>     6.1712     8.3781    58.0973 </r>
       <r>     6.2401     8.6456    58.6933 </r>
       <r>     6.3090     8.8682    59.3047 </r>
       <r>     6.3780     9.0462    59.9283 </r>
       <r>     6.4469     9.3194    60.5707 </r>
       <r>     6.5158     9.7764    61.2447 </r>
       <r>     6.5848    10.2690    61.9526 </r>
       <r>     6.6537    10.4259    62.6714 </r>
       <r>     6.7227     9.9197    63.3552 </r>
       <r>     6.7916     8.8062    63.9623 </r>
       <r>     6.8605     7.6545    64.4900 </r>
       <r>     6.9295     7.2347    64.9887 </r>
       <r>     6.9984     7.8775    65.5318 </r>
       <r>     7.0673     9.1688    66.1638 </r>
       <r>     7.1363    10.4027    66.8810 </r>
       <r>     7.2052    11.2032    67.6533 </r>
       <r>     7.2742    11.5895    68.4522 </r>
       <r>     7.3431    11.6932    69.2583 </r>
       <r>     7.4120    11.6149    70.0591 </r>
       <r>     7.4810    11.4275    70.8468 </r>
       <r>     7.5499    11.1745    71.6172 </r>
       <r>     7.6188    10.8461    72.3649 </r>
       <r>     7.6878    10.3902    73.0812 </r>
       <r>     7.7567     9.8358    73.7592 </r>
       <r>     7.8257     9.3449    74.4034 </r>
       <r>     7.8946     9.0314    75.0260 </r>
       <r>     7.9635     8.8428    75.6356 </r>
       <r>     8.0325     8.7004    76.2354 </r>
       <r>     8.1014     8.6023    76.8284 </r>
       <r>     8.1703     8.5883    77.4205 </r>
       <r>     8.2393     8.7678    78.0249 </r>
       <r>     8.3082     9.3229    78.6676 </r>
       <r>     8.3772    10.2978    79.3775 </r>
       <r>     8.4461    11.4101    80.1641 </r>
       <r>     8.5150    12.2433    81.0081 </r>
       <r>     8.5840    12.6258    81.8785 </r>
       <r>     8.6529    12.6659    82.7517 </r>
       <r>     8.7218    12.4550    83.6103 </r>
       <r>     8.7908    11.9638    84.4350 </r>
       <r>     8.8597    11.2450    85.2102 </r>
       <r>     8.9287    10.5412    85.9369 </r>
       <r>     8.9976    10.1353    86.6356 </r>
       <r>     9.0665    10.1576    87.3359 </r>
       <r>     9.1355    10.4982    88.0596 </r>
       <r>     9.2044    10.8614    88.8083 </r>
       <r>     9.2733    10.9819    89.5654 </r>
       <r>     9.3423    10.8467    90.3132 </r>
       <r>     9.4112    10.6773    91.0492 </r>
       <r>     9.4802    10.6679    91.7846 </r>
       <r>     9.5491    10.7714    92.5272 </r>
       <r>     9.6180    10.7958    93.2714 </r>
       <r>     9.6870    10.6989    94.0090 </r>
       <r>     9.7559    10.6910    94.7460 </r>
       <r>     9.8248    10.9775    95.5028 </r>
       <r>     9.8938    11.4537    96.2924 </r>
       <r>     9.9627    11.7620    97.1032 </r>
       <r>    10.0317    11.6812    97.9085 </r>
       <r>    10.1006    11.3790    98.6929 </r>
       <r>    10.1695    11.1911    99.4644 </r>
       <r>    10.2385    11.2002   100.2365 </r>
       <r>    10.3074    11.1735   101.0068 </r>
       <r>    10.3763    10.9262   101.7600 </r>
       <r>    10.4453    10.6178   102.4920 </r>
       <r>    10.5142    10.6018   103.2228 </r>
       <r>    10.5832    11.0433   103.9841 </r>
       <r>    10.6521    11.7905   104.7969 </r>
       <r>    10.7210    12.5916   105.6650 </r>
       <r>    10.7900    13.2755   106.5802 </r>
       <r>    10.8589    13.6908   107.5240 </r>
       <r>    10.9278    13.6629   108.4658 </r>
       <r>    10.9968    13.1431   109.3719 </r>
       <r>    11.0657    12.3458   110.2230 </r>
       <r>    11.1347    11.6717   111.0276 </r>
       <r>    11.2036    11.4239   111.8151 </r>
       <r>    11.2725    11.5036   112.6082 </r>
       <r>    11.3415    11.4670   113.3987 </r>
       <r>    11.4104    11.0517   114.1606 </r>
       <r>    11.4793    10.5794   114.8899 </r>
       <r>    11.5483    10.6387   115.6233 </r>
       <r>    11.6172    11.3828   116.4080 </r>
       <r>    11.6862    12.3241   117.2576 </r>
       <r>    11.7551    12.8643   118.1444 </r>
       <r>    11.8240    12.8701   119.0316 </r>
       <r>    11.8930    12.6360   119.9027 </r>
       <r>    11.9619    12.4484   120.7609 </r>
       <r>    12.0308    12.3904   121.6151 </r>
       <r>    12.0998    12.4540   122.4736 </r>
       <r>    12.1687    12.5727   123.3403 </r>
       <r>    12.2377    12.5503   124.2055 </r>
       <r>    12.3066    12.1340   125.0420 </r>
       <r>    12.3755    11.1680   125.8119 </r>
       <r>    12.4445     9.6638   126.4781 </r>
       <r>    12.5134     7.7904   127.0151 </r>
       <r>    12.5823     5.7845   127.4139 </r>
       <r>    12.6513     3.8446   127.6789 </r>
       <r>    12.7202     2.1473   127.8270 </r>
       <r>    12.7892     0.8832   127.8879 </r>
       <r>    12.8581     0.1592   127.8988 </r>
       <r>    12.9270    -0.0932   127.8924 </r>
       <r>    12.9960    -0.0587   127.8884 </r>
       <r>    13.0649     0.0775   127.8937 </r>
       <r>    13.1338     0.1890   127.9067 </r>
       <r>    13.2028     0.2258   127.9223 </r>
       <r>    13.2717     0.2076   127.9366 </r>
       <r>    13.3407     0.1836   127.9493 </r>
       <r>    13.4096     0.1808   127.9617 </r>
       <r>    13.4785     0.1874   127.9747 </r>
       <r>    13.5475     0.1743   127.9867 </r>
       <r>    13.6164     0.1286   127.9955 </r>
       <r>    13.6853     0.0668   128.0002 </r>
       <r>    13.7543     0.0178   128.0014 </r>
       <r>    13.8232    -0.0049   128.0010 </r>
       <r>    13.8922    -0.0081   128.0005 </r>
       <r>    13.9611    -0.0047   128.0002 </r>
       <r>    14.0300    -0.0018   128.0000 </r>
       <r>    14.0990    -0.0005   128.0000 </r>
       <r>    14.1679    -0.0001   128.0000 </r>
       <r>    14.2368    -0.0000   128.0000 </r>
       <r>    14.3058    -0.0000   128.0000 </r>
       <r>    14.3747    -0.0000   128.0000 </r>
       <r>    14.4437    -0.0000   128.0000 </r>
       <r>    14.5126    -0.0000   128.0000 </r>
       <r>    14.5815    -0.0000   128.0000 </r>
       <r>    14.6505    -0.0000   128.0000 </r>
       <r>    14.7194    -0.0000   128.0000 </r>
       <r>    14.7883    -0.0000   128.0000 </r>
       <r>    14.8573     0.0000   128.0000 </r>
       <r>    14.9262     0.0000   128.0000 </r>
       <r>    14.9952     0.0000   128.0000 </r>
       <r>    15.0641     0.0000   128.0000 </r>
       <r>    15.1330     0.0000   128.0000 </r>
       <r>    15.2020     0.0000   128.0000 </r>
       <r>    15.2709     0.0000   128.0000 </r>
       <r>    15.3398     0.0000   128.0000 </r>
       <r>    15.4088     0.0000   128.0000 </r>
       <r>    15.4777     0.0000   128.0000 </r>
       <r>    15.5467     0.0000   128.0000 </r>
      </set>
     </set>
    </array>
   </total>
  </dos>
 </calculation>
 <structure name="finalpos" >
  <crystal>
   <varray name="basis" >
    <v>       0.00000000       5.95350000       5.95350000 </v>
    <v>       5.95350000       0.00000000       5.95350000 </v>
    <v>       5.95350000       5.95350000       0.00000000 </v>
   </varray>
   <i name="volume">    422.03363991 </i>
   <varray name="rec_basis" >
    <v>      -0.08398421       0.08398421       0.08398421 </v>
    <v>       0.08398421      -0.08398421       0.08398421 </v>
    <v>       0.08398421       0.08398421      -0.08398421 </v>
   </varray>
  </crystal>
  <varray name="positions" >
   <v>       0.02849924       0.01746130       0.99054592 </v>
   <v>       0.00437956       0.01588737       0.29108880 </v>
   <v>       0.01487064       0.97828252       0.70028099 </v>
   <v>       0.97263879       0.31489533       0.03707397 </v>
   <v>       0.00262765       0.32076569       0.37239844 </v>
   <v>       0.02555806       0.34510384       0.62508149 </v>
   <v>       0.98563918       0.64450185       0.04249742 </v>
   <v>       0.97474245       0.69656925       0.35333019 </v>
   <v>       0.02179186       0.64815121       0.69432121 </v>
   <v>       0.34532333       0.03346119       0.98829460 </v>
   <v>       0.35000888       0.99371534       0.29521640 </v>
   <v>       0.29252157       0.01645603       0.69121796 </v>
   <v>       0.29216241       0.35964857       0.00288238 </v>
   <v>       0.33401473       0.29204860       0.35139934 </v>
   <v>       0.31401936       0.30847739       0.67182729 </v>
   <v>       0.37614941       0.65703680       0.98900118 </v>
   <v>       0.30401794       0.67123161       0.31970201 </v>
   <v>       0.31259046       0.63840255       0.68377980 </v>
   <v>       0.64219221       0.04160723       0.99701388 </v>
   <v>       0.70806556       0.98352840       0.33190007 </v>
   <v>       0.64789144       0.97068294       0.68147235 </v>
   <v>       0.68609646       0.34409303       0.01310290 </v>
   <v>       0.67043670       0.33808278       0.29395847 </v>
   <v>       0.67488630       0.34805348       0.62363855 </v>
   <v>       0.65803277       0.70307539       0.96670453 </v>
   <v>       0.70459953       0.67230850       0.31926273 </v>
   <v>       0.70739305       0.65169965       0.66653027 </v>
  </varray>
 </structure>
</modeling>
