<?xml version="1.0" encoding="ISO-8859-1"?>
<modeling>
 <generator>
  <i name="program" type="string">vasp </i>
  <i name="version" type="string">5.3.5  </i>
  <i name="subversion" type="string">31Mar14 (build Jun 17 2014 14:04:22) complex                          parallel </i>
  <i name="platform" type="string">LinuxIfort </i>
  <i name="date" type="string">2025 12 23 </i>
  <i name="time" type="string">01:51:15 </i>
 </generator>
 <incar>
  <i type="string" name="SYSTEM"> Al Random Displacement</i>
  <i type="string" name="PREC">normal</i>
  <i type="string" name="ALGO"> Fast</i>
  <i type="int" name="IBRION">    -1</i>
  <i type="int" name="NSW">     0</i>
  <i name="ENCUT">    300.00000000</i>
  <i type="string" name="LREAL"> Auto</i>
  <i type="int" name="ISMEAR">     1</i>
  <i name="SIGMA">      0.20000000</i>
  <i type="logical" name="LWAVE"> F  </i>
  <i type="logical" name="LCHARG"> F  </i>
 </incar>
 <kpoints>
  <generation param="Monkhorst-Pack">
   <v type="int" name="divisions">       4        4        4 </v>
   <v name="usershift">      0.00000000       0.00000000       0.00000000 </v>
   <v name="genvec1">      0.25000000       0.00000000       0.00000000 </v>
   <v name="genvec2">      0.00000000       0.25000000       0.00000000 </v>
   <v name="genvec3">      0.00000000       0.00000000       0.25000000 </v>
   <v name="shift">      0.50000000       0.50000000       0.50000000 </v>
  </generation>
  <varray name="kpointlist" >
   <v>       0.12500000       0.12500000       0.12500000 </v>
   <v>       0.12500000       0.00000000       0.00000000 </v>
   <v>       0.00000000       0.00000000      -0.12500000 </v>
   <v>       0.00000000       0.12500000       0.00000000 </v>
   <v>       0.37500000       0.12500000       0.12500000 </v>
   <v>       0.12500000       0.37500000       0.12500000 </v>
   <v>       0.12500000       0.12500000       0.37500000 </v>
   <v>       0.12500000       0.00000000      -0.25000000 </v>
   <v>       0.37500000       0.25000000       0.25000000 </v>
   <v>       0.12500000      -0.25000000       0.00000000 </v>
   <v>       0.00000000       0.25000000      -0.12500000 </v>
   <v>       0.25000000       0.00000000      -0.12500000 </v>
   <v>      -0.25000000      -0.25000000      -0.37500000 </v>
   <v>       0.25000000       0.37500000       0.25000000 </v>
   <v>       0.00000000       0.12500000      -0.25000000 </v>
   <v>      -0.25000000       0.12500000       0.00000000 </v>
   <v>      -0.37500000       0.12500000       0.12500000 </v>
   <v>       0.12500000      -0.37500000       0.12500000 </v>
   <v>       0.12500000       0.12500000      -0.37500000 </v>
   <v>       0.12500000       0.00000000       0.50000000 </v>
   <v>      -0.37500000       0.50000000       0.50000000 </v>
   <v>       0.12500000       0.50000000       0.00000000 </v>
   <v>       0.00000000       0.50000000      -0.12500000 </v>
   <v>       0.50000000       0.00000000      -0.12500000 </v>
   <v>       0.50000000       0.50000000       0.37500000 </v>
   <v>       0.50000000      -0.37500000       0.50000000 </v>
   <v>       0.00000000       0.12500000       0.50000000 </v>
   <v>       0.50000000       0.12500000       0.00000000 </v>
   <v>      -0.12500000       0.12500000       0.12500000 </v>
   <v>       0.12500000      -0.12500000       0.12500000 </v>
   <v>       0.12500000       0.12500000      -0.12500000 </v>
   <v>       0.12500000       0.00000000       0.25000000 </v>
   <v>      -0.12500000      -0.25000000      -0.25000000 </v>
   <v>       0.12500000       0.25000000       0.00000000 </v>
   <v>       0.00000000      -0.25000000      -0.12500000 </v>
   <v>      -0.25000000       0.00000000      -0.12500000 </v>
   <v>       0.25000000       0.25000000       0.12500000 </v>
   <v>      -0.25000000      -0.12500000      -0.25000000 </v>
   <v>       0.00000000       0.12500000       0.25000000 </v>
   <v>       0.25000000       0.12500000       0.00000000 </v>
   <v>       0.37500000       0.37500000       0.12500000 </v>
   <v>       0.12500000       0.37500000       0.37500000 </v>
   <v>       0.37500000       0.12500000       0.37500000 </v>
   <v>       0.37500000       0.25000000       0.00000000 </v>
   <v>       0.37500000       0.00000000       0.25000000 </v>
   <v>       0.12500000      -0.25000000      -0.25000000 </v>
   <v>       0.25000000       0.25000000      -0.12500000 </v>
   <v>       0.00000000      -0.25000000      -0.37500000 </v>
   <v>      -0.25000000       0.00000000      -0.37500000 </v>
   <v>       0.25000000       0.37500000       0.00000000 </v>
   <v>      -0.25000000       0.12500000      -0.25000000 </v>
   <v>       0.00000000       0.37500000       0.25000000 </v>
   <v>      -0.37500000       0.37500000       0.12500000 </v>
   <v>       0.12500000      -0.37500000       0.37500000 </v>
   <v>       0.37500000       0.12500000      -0.37500000 </v>
   <v>       0.37500000       0.25000000      -0.25000000 </v>
   <v>      -0.37500000       0.25000000       0.50000000 </v>
   <v>       0.12500000       0.50000000      -0.25000000 </v>
   <v>       0.25000000       0.50000000      -0.12500000 </v>
   <v>       0.25000000      -0.25000000      -0.37500000 </v>
   <v>       0.50000000      -0.25000000       0.37500000 </v>
   <v>       0.50000000      -0.37500000       0.25000000 </v>
   <v>      -0.25000000       0.12500000       0.50000000 </v>
   <v>      -0.25000000       0.37500000       0.25000000 </v>
   <v>      -0.12500000       0.25000000       0.50000000 </v>
   <v>      -0.37500000       0.25000000      -0.25000000 </v>
   <v>       0.37500000       0.50000000      -0.25000000 </v>
   <v>       0.25000000       0.50000000      -0.37500000 </v>
   <v>       0.50000000      -0.25000000       0.12500000 </v>
   <v>       0.25000000      -0.25000000       0.37500000 </v>
   <v>       0.50000000      -0.12500000       0.25000000 </v>
   <v>      -0.25000000      -0.37500000       0.25000000 </v>
   <v>      -0.25000000       0.37500000       0.50000000 </v>
   <v>       0.37500000      -0.12500000      -0.37500000 </v>
   <v>      -0.37500000       0.37500000      -0.12500000 </v>
   <v>      -0.12500000      -0.37500000       0.37500000 </v>
   <v>      -0.12500000       0.37500000       0.12500000 </v>
   <v>       0.12500000      -0.12500000       0.37500000 </v>
   <v>       0.37500000       0.12500000      -0.12500000 </v>
   <v>       0.37500000       0.25000000       0.50000000 </v>
   <v>      -0.12500000       0.50000000      -0.25000000 </v>
   <v>       0.12500000       0.25000000      -0.25000000 </v>
   <v>       0.25000000      -0.25000000      -0.12500000 </v>
   <v>       0.50000000      -0.25000000      -0.37500000 </v>
   <v>       0.25000000       0.50000000       0.12500000 </v>
   <v>      -0.25000000      -0.12500000       0.50000000 </v>
   <v>      -0.25000000       0.12500000       0.25000000 </v>
   <v>       0.50000000       0.37500000       0.25000000 </v>
   <v>      -0.12500000       0.25000000      -0.25000000 </v>
   <v>      -0.37500000       0.50000000      -0.25000000 </v>
   <v>       0.12500000       0.25000000       0.50000000 </v>
   <v>       0.50000000      -0.25000000      -0.12500000 </v>
   <v>       0.25000000      -0.25000000       0.12500000 </v>
   <v>       0.25000000       0.50000000       0.37500000 </v>
   <v>      -0.25000000      -0.12500000       0.25000000 </v>
   <v>      -0.25000000      -0.37500000       0.50000000 </v>
   <v>       0.50000000       0.12500000       0.25000000 </v>
   <v>       0.12500000      -0.12500000      -0.37500000 </v>
   <v>      -0.37500000       0.12500000      -0.12500000 </v>
   <v>      -0.12500000      -0.37500000       0.12500000 </v>
   <v>      -0.37500000      -0.37500000       0.12500000 </v>
   <v>       0.12500000      -0.37500000      -0.37500000 </v>
   <v>      -0.37500000       0.12500000      -0.37500000 </v>
   <v>      -0.37500000       0.50000000       0.00000000 </v>
   <v>      -0.37500000       0.00000000       0.50000000 </v>
   <v>       0.12500000       0.50000000       0.50000000 </v>
   <v>       0.50000000       0.50000000      -0.12500000 </v>
   <v>       0.00000000       0.50000000       0.37500000 </v>
   <v>       0.50000000       0.00000000       0.37500000 </v>
   <v>       0.50000000      -0.37500000       0.00000000 </v>
   <v>       0.50000000       0.12500000       0.50000000 </v>
   <v>       0.00000000      -0.37500000       0.50000000 </v>
   <v>       0.37500000       0.37500000       0.37500000 </v>
   <v>       0.37500000       0.00000000       0.00000000 </v>
   <v>       0.00000000       0.00000000      -0.37500000 </v>
   <v>       0.00000000       0.37500000       0.00000000 </v>
   <v>      -0.37500000       0.37500000       0.37500000 </v>
   <v>       0.37500000      -0.37500000       0.37500000 </v>
   <v>       0.37500000       0.37500000      -0.37500000 </v>
   <v>       0.37500000       0.00000000      -0.25000000 </v>
   <v>      -0.37500000       0.25000000       0.25000000 </v>
   <v>       0.37500000      -0.25000000       0.00000000 </v>
   <v>       0.00000000       0.25000000      -0.37500000 </v>
   <v>       0.25000000       0.00000000      -0.37500000 </v>
   <v>      -0.25000000      -0.25000000       0.37500000 </v>
   <v>       0.25000000      -0.37500000       0.25000000 </v>
   <v>       0.00000000       0.37500000      -0.25000000 </v>
   <v>      -0.25000000       0.37500000       0.00000000 </v>
  </varray>
  <varray name="weights" >
   <v>       0.00781250 </v>
   <v>       0.00781250 </v>
   <v>       0.00781250 </v>
   <v>       0.00781250 </v>
   <v>       0.00781250 </v>
   <v>       0.00781250 </v>
   <v>       0.00781250 </v>
   <v>       0.00781250 </v>
   <v>       0.00781250 </v>
   <v>       0.00781250 </v>
   <v>       0.00781250 </v>
   <v>       0.00781250 </v>
   <v>       0.00781250 </v>
   <v>       0.00781250 </v>
   <v>       0.00781250 </v>
   <v>       0.00781250 </v>
   <v>       0.00781250 </v>
   <v>       0.00781250 </v>
   <v>       0.00781250 </v>
   <v>       0.00781250 </v>
   <v>       0.00781250 </v>
   <v>       0.00781250 </v>
   <v>       0.00781250 </v>
   <v>       0.00781250 </v>
   <v>       0.00781250 </v>
   <v>       0.00781250 </v>
   <v>       0.00781250 </v>
   <v>       0.00781250 </v>
   <v>       0.00781250 </v>
   <v>       0.00781250 </v>
   <v>       0.00781250 </v>
   <v>       0.00781250 </v>
   <v>       0.00781250 </v>
   <v>       0.00781250 </v>
   <v>       0.00781250 </v>
   <v>       0.00781250 </v>
   <v>       0.00781250 </v>
   <v>       0.00781250 </v>
   <v>       0.00781250 </v>
   <v>       0.00781250 </v>
   <v>       0.00781250 </v>
   <v>       0.00781250 </v>
   <v>       0.00781250 </v>
   <v>       0.00781250 </v>
   <v>       0.00781250 </v>
   <v>       0.00781250 </v>
   <v>       0.00781250 </v>
   <v>       0.00781250 </v>
   <v>       0.00781250 </v>
   <v>       0.00781250 </v>
   <v>       0.00781250 </v>
   <v>       0.00781250 </v>
   <v>       0.00781250 </v>
   <v>       0.00781250 </v>
   <v>       0.00781250 </v>
   <v>       0.00781250 </v>
   <v>       0.00781250 </v>
   <v>       0.00781250 </v>
   <v>       0.00781250 </v>
   <v>       0.00781250 </v>
   <v>       0.00781250 </v>
   <v>       0.00781250 </v>
   <v>       0.00781250 </v>
   <v>       0.00781250 </v>
   <v>       0.00781250 </v>
   <v>       0.00781250 </v>
   <v>       0.00781250 </v>
   <v>       0.00781250 </v>
   <v>       0.00781250 </v>
   <v>       0.00781250 </v>
   <v>       0.00781250 </v>
   <v>       0.00781250 </v>
   <v>       0.00781250 </v>
   <v>       0.00781250 </v>
   <v>       0.00781250 </v>
   <v>       0.00781250 </v>
   <v>       0.00781250 </v>
   <v>       0.00781250 </v>
   <v>       0.00781250 </v>
   <v>       0.00781250 </v>
   <v>       0.00781250 </v>
   <v>       0.00781250 </v>
   <v>       0.00781250 </v>
   <v>       0.00781250 </v>
   <v>       0.00781250 </v>
   <v>       0.00781250 </v>
   <v>       0.00781250 </v>
   <v>       0.00781250 </v>
   <v>       0.00781250 </v>
   <v>       0.00781250 </v>
   <v>       0.00781250 </v>
   <v>       0.00781250 </v>
   <v>       0.00781250 </v>
   <v>       0.00781250 </v>
   <v>       0.00781250 </v>
   <v>       0.00781250 </v>
   <v>       0.00781250 </v>
   <v>       0.00781250 </v>
   <v>       0.00781250 </v>
   <v>       0.00781250 </v>
   <v>       0.00781250 </v>
   <v>       0.00781250 </v>
   <v>       0.00781250 </v>
   <v>       0.00781250 </v>
   <v>       0.00781250 </v>
   <v>       0.00781250 </v>
   <v>       0.00781250 </v>
   <v>       0.00781250 </v>
   <v>       0.00781250 </v>
   <v>       0.00781250 </v>
   <v>       0.00781250 </v>
   <v>       0.00781250 </v>
   <v>       0.00781250 </v>
   <v>       0.00781250 </v>
   <v>       0.00781250 </v>
   <v>       0.00781250 </v>
   <v>       0.00781250 </v>
   <v>       0.00781250 </v>
   <v>       0.00781250 </v>
   <v>       0.00781250 </v>
   <v>       0.00781250 </v>
   <v>       0.00781250 </v>
   <v>       0.00781250 </v>
   <v>       0.00781250 </v>
   <v>       0.00781250 </v>
   <v>       0.00781250 </v>
   <v>       0.00781250 </v>
   <v>       0.00781250 </v>
  </varray>
 </kpoints>
 <parameters>
  <separator name="general" >
   <i type="string" name="SYSTEM">Al Random Displacement</i>
   <i type="logical" name="LCOMPAT"> F  </i>
  </separator>
  <separator name="electronic" >
   <i type="string" name="PREC">normal</i>
   <i name="ENMAX">    300.00000000</i>
   <i name="ENAUG">    291.05200000</i>
   <i name="EDIFF">      0.00010000</i>
   <i type="int" name="IALGO">    68</i>
   <i type="int" name="IWAVPR">    10</i>
   <i type="int" name="NBANDS">    64</i>
   <i name="NELECT">     81.00000000</i>
   <i type="int" name="TURBO">     0</i>
   <i type="int" name="IRESTART">     0</i>
   <i type="int" name="NREBOOT">     0</i>
   <i type="int" name="NMIN">     0</i>
   <i name="EREF">      0.00000000</i>
   <separator name="electronic smearing" >
    <i type="int" name="ISMEAR">     1</i>
    <i name="SIGMA">      0.20000000</i>
    <i name="KSPACING">      0.50000000</i>
    <i type="logical" name="KGAMMA"> T  </i>
   </separator>
   <separator name="electronic projectors" >
    <i type="logical" name="LREAL"> T  </i>
    <v name="ROPT">     -0.00050000</v>
    <i type="int" name="LMAXPAW">  -100</i>
    <i type="int" name="LMAXMIX">     2</i>
    <i type="logical" name="NLSPLINE"> F  </i>
   </separator>
   <separator name="electronic startup" >
    <i type="int" name="ISTART">     0</i>
    <i type="int" name="ICHARG">     2</i>
    <i type="int" name="INIWAV">     1</i>
   </separator>
   <separator name="electronic spin" >
    <i type="int" name="ISPIN">     1</i>
    <i type="logical" name="LNONCOLLINEAR"> F  </i>
    <v name="MAGMOM">      1.00000000      1.00000000      1.00000000      1.00000000      1.00000000      1.00000000      1.00000000      1.00000000      1.00000000      1.00000000      1.00000000      1.00000000      1.00000000      1.00000000      1.00000000      1.00000000      1.00000000      1.00000000      1.00000000      1.00000000
      1.00000000      1.00000000      1.00000000      1.00000000      1.00000000      1.00000000      1.00000000</v>
    <i name="NUPDOWN">     -1.00000000</i>
    <i type="logical" name="LSORBIT"> F  </i>
    <v name="SAXIS">      0.00000000      0.00000000      1.00000000</v>
    <i type="logical" name="LSPIRAL"> F  </i>
    <v name="QSPIRAL">      0.00000000      0.00000000      0.00000000</v>
    <i type="logical" name="LZEROZ"> F  </i>
   </separator>
   <separator name="electronic exchange-correlation" >
    <i type="logical" name="LASPH"> F  </i>
    <i type="logical" name="LMETAGGA"> F  </i>
   </separator>
   <separator name="electronic convergence" >
    <i type="int" name="NELM">    60</i>
    <i type="int" name="NELMDL">    -5</i>
    <i type="int" name="NELMIN">     2</i>
    <i name="ENINI">    300.00000000</i>
    <separator name="electronic convergence detail" >
     <i type="logical" name="LDIAG"> T  </i>
     <i type="logical" name="LSUBROT"> F  </i>
     <i name="WEIMIN">      0.00000000</i>
     <i name="EBREAK">      0.00000039</i>
     <i name="DEPER">      0.30000000</i>
     <i type="int" name="NRMM">     4</i>
     <i name="TIME">      0.40000000</i>
    </separator>
   </separator>
   <separator name="electronic mixer" >
    <i name="AMIX">      0.40000000</i>
    <i name="BMIX">      1.00000000</i>
    <i name="AMIN">      0.10000000</i>
    <i name="AMIX_MAG">      1.60000000</i>
    <i name="BMIX_MAG">      1.00000000</i>
    <separator name="electronic mixer details" >
     <i type="int" name="IMIX">     4</i>
     <i type="int" name="MAXMIX">   -45</i>
     <i name="WC">    100.00000000</i>
     <i type="int" name="INIMIX">     1</i>
     <i type="int" name="MIXPRE">     1</i>
     <i type="int" name="MREMOVE">     5</i>
    </separator>
   </separator>
   <separator name="electronic dipolcorrection" >
    <i type="logical" name="LDIPOL"> F  </i>
    <i type="logical" name="LMONO"> F  </i>
    <i type="int" name="IDIPOL">     0</i>
    <i name="EPSILON">      1.00000000</i>
    <v name="DIPOL">   -100.00000000   -100.00000000   -100.00000000</v>
    <i name="EFIELD">      0.00000000</i>
   </separator>
  </separator>
  <separator name="grids" >
   <i type="int" name="NGX">    36</i>
   <i type="int" name="NGY">    36</i>
   <i type="int" name="NGZ">    36</i>
   <i type="int" name="NGXF">    72</i>
   <i type="int" name="NGYF">    72</i>
   <i type="int" name="NGZF">    72</i>
   <i type="logical" name="ADDGRID"> F  </i>
  </separator>
  <separator name="ionic" >
   <i type="int" name="NSW">     0</i>
   <i type="int" name="IBRION">    -1</i>
   <i type="int" name="ISIF">     2</i>
   <i name="PSTRESS">      0.00000000</i>
   <i name="EDIFFG">      0.00100000</i>
   <i type="int" name="NFREE">     0</i>
   <i name="POTIM">      0.50000000</i>
   <i name="SMASS">     -3.00000000</i>
   <i name="SCALEE">      1.00000000</i>
  </separator>
  <separator name="ionic md" >
   <i name="TEBEG">      0.00010000</i>
   <i name="TEEND">      0.00010000</i>
   <i type="int" name="NBLOCK">     1</i>
   <i type="int" name="KBLOCK">     1</i>
   <i type="int" name="NPACO">   256</i>
   <i name="APACO">     16.00000000</i>
  </separator>
  <separator name="symmetry" >
   <i type="int" name="ISYM">     2</i>
   <i name="SYMPREC">      0.00001000</i>
  </separator>
  <separator name="dos" >
   <i type="logical" name="LORBIT"> F  </i>
   <v name="RWIGS">     -1.00000000</v>
   <i type="int" name="NEDOS">   301</i>
   <i name="EMIN">     10.00000000</i>
   <i name="EMAX">    -10.00000000</i>
   <i name="EFERMI">      0.00000000</i>
  </separator>
  <separator name="writing" >
   <i type="int" name="NWRITE">     2</i>
   <i type="logical" name="LWAVE"> F  </i>
   <i type="logical" name="LCHARG"> F  </i>
   <i type="logical" name="LPARD"> F  </i>
   <i type="logical" name="LVTOT"> F  </i>
   <i type="logical" name="LVHAR"> F  </i>
   <i type="logical" name="LELF"> F  </i>
   <i type="logical" name="LOPTICS"> F  </i>
   <v name="STM">      0.00000000      0.00000000      0.00000000      0.00000000      0.00000000      0.00000000      0.00000000</v>
  </separator>
  <separator name="performance" >
   <i type="int" name="NPAR">    16</i>
   <i type="int" name="NSIM">     4</i>
   <i type="int" name="NBLK">    -1</i>
   <i type="logical" name="LPLANE"> T  </i>
   <i type="logical" name="LSCALAPACK"> F  </i>
   <i type="logical" name="LSCAAWARE"> F  </i>
   <i type="logical" name="LSCALU"> F  </i>
   <i type="logical" name="LASYNC"> F  </i>
   <i type="logical" name="LORBITALREAL"> F  </i>
  </separator>
  <separator name="miscellaneous" >
   <i type="int" name="IDIOT">     3</i>
   <i type="logical" name="LMUSIC"> F  </i>
   <v name="POMASS">     26.98100000</v>
   <v name="DARWINR">      0.00000000</v>
   <v name="DARWINV">      1.00000000</v>
   <i type="logical" name="LCORR"> T  </i>
  </separator>
  <i type="logical" name="GGA_COMPAT"> T  </i>
  <i type="logical" name="LBERRY"> F  </i>
  <i type="int" name="ICORELEVEL">     0</i>
  <i type="logical" name="LDAU"> F  </i>
  <i type="int" name="I_CONSTRAINED_M">     0</i>
  <separator name="electronic exchange-correlation" >
   <i type="string" name="GGA">--</i>
   <i type="int" name="VOSKOWN">     0</i>
   <i type="logical" name="LHFCALC"> F  </i>
   <i type="string" name="PRECFOCK"></i>
   <i type="logical" name="LSYMGRAD"> F  </i>
   <i type="logical" name="LHFONE"> F  </i>
   <i type="logical" name="LRHFCALC"> F  </i>
   <i type="logical" name="LTHOMAS"> F  </i>
   <i type="logical" name="LMODELHF"> F  </i>
   <i name="ENCUT4O">     -1.00000000</i>
   <i type="int" name="EXXOEP">     0</i>
   <i type="int" name="FOURORBIT">     0</i>
   <i name="AEXX">      0.00000000</i>
   <i name="HFALPHA">      0.00000000</i>
   <i name="MCALPHA">      0.00000000</i>
   <i name="ALDAX">      1.00000000</i>
   <i name="AGGAX">      1.00000000</i>
   <i name="ALDAC">      1.00000000</i>
   <i name="AGGAC">      1.00000000</i>
   <i type="int" name="NKREDX">     1</i>
   <i type="int" name="NKREDY">     1</i>
   <i type="int" name="NKREDZ">     1</i>
   <i type="logical" name="SHIFTRED"> F  </i>
   <i type="logical" name="ODDONLY"> F  </i>
   <i type="logical" name="EVENONLY"> F  </i>
   <i type="int" name="LMAXFOCK">     0</i>
   <i type="int" name="NMAXFOCKAE">     0</i>
   <i type="logical" name="LFOCKAEDFT"> F  </i>
   <i name="HFSCREEN">      0.00000000</i>
   <i name="HFSCREENC">      0.00000000</i>
   <i type="int" name="NBANDSGWLOW">     0</i>
  </separator>
  <separator name="vdW DFT" >
   <i type="logical" name="LUSE_VDW"> F  </i>
   <i name="Zab_VDW">     -0.84910000</i>
   <i name="PARAM1">      0.12340000</i>
   <i name="PARAM2">      1.00000000</i>
   <i name="PARAM3">      0.00000000</i>
  </separator>
  <separator name="model GW" >
   <i type="int" name="MODEL_GW">     0</i>
   <i name="MODEL_EPS0">      8.54332926</i>
   <i name="MODEL_ALPHA">      1.00000000</i>
  </separator>
  <separator name="linear response parameters" >
   <i type="logical" name="LEPSILON"> F  </i>
   <i type="logical" name="LRPA"> F  </i>
   <i type="logical" name="LNABLA"> F  </i>
   <i type="logical" name="LVEL"> F  </i>
   <i type="int" name="KINTER">     0</i>
   <i name="CSHIFT">      0.10000000</i>
   <i name="OMEGAMAX">     -1.00000000</i>
   <i name="DEG_THRESHOLD">      0.00200000</i>
  </separator>
  <separator name="orbital magnetization" >
   <i type="logical" name="NUCIND"> F  </i>
   <v name="MAGPOS">      0.00000000      0.00000000      0.00000000</v>
   <i type="logical" name="LNICSALL"> T  </i>
   <i type="logical" name="ORBITALMAG"> F  </i>
   <i type="logical" name="LMAGBLOCH"> F  </i>
   <i type="logical" name="LCHIMAG"> F  </i>
   <i type="logical" name="LGAUGE"> T  </i>
   <i type="int" name="MAGATOM">     0</i>
   <v name="MAGDIPOL">      0.00000000      0.00000000      0.00000000</v>
   <v name="AVECCONST">      0.00000000      0.00000000      0.00000000</v>
  </separator>
  <separator name="response functions" >
   <i type="logical" name="LADDER"> F  </i>
   <i type="logical" name="LFXC"> F  </i>
   <i type="logical" name="LHARTREE"> T  </i>
   <i type="int" name="IBSE">     0</i>
   <i type="logical" name="LTCTE"> F  </i>
   <i type="logical" name="LTETE"> F  </i>
   <i type="logical" name="LTRIPLET"> F  </i>
   <i type="logical" name="LFXCEPS"> F  </i>
   <i type="logical" name="LFXHEG"> F  </i>
   <i type="logical" name="L2ORDER"> F  </i>
   <i type="logical" name="LUSEW"> F  </i>
   <i name="ENCUTGW">     -2.00000000</i>
   <i name="ENCUTGWSOFT">     -2.00000000</i>
   <i name="ENCUTLF">     -1.00000000</i>
   <i type="int" name="LMAXMP2">    -1</i>
   <i name="SCISSOR">      0.00000000</i>
   <i type="int" name="NOMEGA">     0</i>
   <i type="int" name="NOMEGAR">     0</i>
   <i type="int" name="NBANDSGW">    -1</i>
   <i type="int" name="NBANDSO">    -1</i>
   <i type="int" name="NBANDSV">    -1</i>
   <i type="int" name="NELM">     1</i>
   <i type="int" name="DIM">     3</i>
   <i type="int" name="ANTIRES">     0</i>
   <i name="OMEGAMAX">    -30.00000000</i>
   <i name="OMEGAMIN">    -30.00000000</i>
   <i name="OMEGATL">   -200.00000000</i>
   <i type="int" name="OMEGAGRID">     0</i>
   <i name="CSHIFT">     -0.10000000</i>
   <i type="logical" name="SELFENERGY"> F  </i>
   <i type="logical" name="LSPECTRAL"> F  </i>
   <i type="logical" name="ODDONLYGW"> F  </i>
   <i type="logical" name="EVENONLYGW"> F  </i>
   <i type="int" name="NKREDLFX">     1</i>
   <i type="int" name="NKREDLFY">     1</i>
   <i type="int" name="NKREDLFZ">     1</i>
   <i type="int" name="MAXMEM">  1800</i>
   <i type="int" name="TELESCOPE">     0</i>
   <i type="int" name="TAUPAR">     1</i>
  </separator>
  <separator name="External order field" >
   <i name="OFIELD_KAPPA">      0.00000000</i>
   <v name="OFIELD_K">      0.00000000      0.00000000      0.00000000</v>
   <i name="OFIELD_Q6_NEAR">      0.00000000</i>
   <i name="OFIELD_Q6_FAR">      0.00000000</i>
   <i name="OFIELD_A">      0.00000000</i>
  </separator>
 </parameters>
 <atominfo>
  <atoms>      27 </atoms>
  <types>       1 </types>
  <array name="atoms" >
   <dimension dim="1">ion</dimension>
   <field type="string">element</field>
   <field type="int">atomtype</field>
   <set>
    <rc><c>Al</c><c>   1</c></rc>
    <rc><c>Al</c><c>   1</c></rc>
    <rc><c>Al</c><c>   1</c></rc>
    <rc><c>Al</c><c>   1</c></rc>
    <rc><c>Al</c><c>   1</c></rc>
    <rc><c>Al</c><c>   1</c></rc>
    <rc><c>Al</c><c>   1</c></rc>
    <rc><c>Al</c><c>   1</c></rc>
    <rc><c>Al</c><c>   1</c></rc>
    <rc><c>Al</c><c>   1</c></rc>
    <rc><c>Al</c><c>   1</c></rc>
    <rc><c>Al</c><c>   1</c></rc>
    <rc><c>Al</c><c>   1</c></rc>
    <rc><c>Al</c><c>   1</c></rc>
    <rc><c>Al</c><c>   1</c></rc>
    <rc><c>Al</c><c>   1</c></rc>
    <rc><c>Al</c><c>   1</c></rc>
    <rc><c>Al</c><c>   1</c></rc>
    <rc><c>Al</c><c>   1</c></rc>
    <rc><c>Al</c><c>   1</c></rc>
    <rc><c>Al</c><c>   1</c></rc>
    <rc><c>Al</c><c>   1</c></rc>
    <rc><c>Al</c><c>   1</c></rc>
    <rc><c>Al</c><c>   1</c></rc>
    <rc><c>Al</c><c>   1</c></rc>
    <rc><c>Al</c><c>   1</c></rc>
    <rc><c>Al</c><c>   1</c></rc>
   </set>
  </array>
  <array name="atomtypes" >
   <dimension dim="1">type</dimension>
   <field type="int">atomspertype</field>
   <field type="string">element</field>
   <field>mass</field>
   <field>valence</field>
   <field type="string">pseudopotential</field>
   <set>
    <rc><c>  27</c><c>Al</c><c>     26.98100000</c><c>      3.00000000</c><c>  PAW_PBE Al 04Jan2001                  </c></rc>
   </set>
  </array>
 </atominfo>
 <structure name="initialpos" >
  <crystal>
   <varray name="basis" >
    <v>       0.00000000       5.77125000       5.77125000 </v>
    <v>       5.77125000       0.00000000       5.77125000 </v>
    <v>       5.77125000       5.77125000       0.00000000 </v>
   </varray>
   <i name="volume">    384.44981685 </i>
   <varray name="rec_basis" >
    <v>      -0.08663634       0.08663634       0.08663634 </v>
    <v>       0.08663634      -0.08663634       0.08663634 </v>
    <v>       0.08663634       0.08663634      -0.08663634 </v>
   </varray>
  </crystal>
  <varray name="positions" >
   <v>       0.02220886       0.99235534       0.05123338 </v>
   <v>       0.97214756       0.00615523       0.40100106 </v>
   <v>       0.93523267       0.04220295       0.65269628 </v>
   <v>       0.00121959       0.38320338       0.93137229 </v>
   <v>       0.01795086       0.26764537       0.38660680 </v>
   <v>       0.07021917       0.28596590       0.64930993 </v>
   <v>       0.04011125       0.66763783       0.92919888 </v>
   <v>       0.04742998       0.60635048       0.31207099 </v>
   <v>       0.05595311       0.63782159       0.61326516 </v>
   <v>       0.39865075       0.96005523       0.01302380 </v>
   <v>       0.25996364       0.00984095       0.36310411 </v>
   <v>       0.35311984       0.94089019       0.64859756 </v>
   <v>       0.34042195       0.35309382       0.92867599 </v>
   <v>       0.26587547       0.32670743       0.36123225 </v>
   <v>       0.38832207       0.29120510       0.69646217 </v>
   <v>       0.38056392       0.65961308       0.93291001 </v>
   <v>       0.39269860       0.68892341       0.28371372 </v>
   <v>       0.35039477       0.62988623       0.62329298 </v>
   <v>       0.71813971       0.02298265       0.99066799 </v>
   <v>       0.73179596       0.94368007       0.32376655 </v>
   <v>       0.63060653       0.05582042       0.61874465 </v>
   <v>       0.67483821       0.40086077       0.95950853 </v>
   <v>       0.60782453       0.37345719       0.30908929 </v>
   <v>       0.71872235       0.33134354       0.68369800 </v>
   <v>       0.71628386       0.68581713       0.99962172 </v>
   <v>       0.63109036       0.69733691       0.28436903 </v>
   <v>       0.59521870       0.70322820       0.66901406 </v>
  </varray>
 </structure>
 <calculation>
  <scstep>
   <time name="dav">    7.28    7.29</time>
   <time name="total">    7.30    7.32</time>
   <energy>
    <i name="alphaZ">     -6.36903000 </i>
    <i name="ewald">  -1983.22277563 </i>
    <i name="hartreedc">    -34.55588276 </i>
    <i name="XCdc">   -700.35844379 </i>
    <i name="pawpsdc">   1787.40424240 </i>
    <i name="pawaedc">   -924.63176043 </i>
    <i name="eentropy">      0.00170212 </i>
    <i name="bandstr">    510.86864854 </i>
    <i name="atom">   1445.51584806 </i>
    <i name="e_fr_energy">     94.65254851 </i>
    <i name="e_wo_entrp">     94.65084638 </i>
    <i name="e_0_energy">     94.65198113 </i>
   </energy>
  </scstep>
  <scstep>
   <time name="dav">    8.77    8.78</time>
   <time name="total">    8.78    8.80</time>
   <energy>
    <i name="e_fr_energy">    -68.69924164 </i>
    <i name="e_wo_entrp">    -68.69683114 </i>
    <i name="e_0_energy">    -68.69843814 </i>
   </energy>
  </scstep>
  <scstep>
   <time name="dav">    9.23    9.24</time>
   <time name="total">    9.23    9.25</time>
   <energy>
    <i name="e_fr_energy">    -75.46956441 </i>
    <i name="e_wo_entrp">    -75.46498644 </i>
    <i name="e_0_energy">    -75.46803842 </i>
   </energy>
  </scstep>
  <scstep>
   <time name="dav">    8.51    8.52</time>
   <time name="total">    8.51    8.53</time>
   <energy>
    <i name="e_fr_energy">    -75.54117271 </i>
    <i name="e_wo_entrp">    -75.53660863 </i>
    <i name="e_0_energy">    -75.53965135 </i>
   </energy>
  </scstep>
  <scstep>
   <time name="dav">    9.12    9.12</time>
   <time name="total">    9.44    9.45</time>
   <energy>
    <i name="e_fr_energy">    -75.54220209 </i>
    <i name="e_wo_entrp">    -75.53763836 </i>
    <i name="e_0_energy">    -75.54068085 </i>
   </energy>
  </scstep>
  <scstep>
   <time name="diag">    1.13    1.13</time>
   <time name="diis">    3.60    3.60</time>
   <time name="orth">    0.18    0.18</time>
   <time name="total">    5.25    5.26</time>
   <energy>
    <i name="e_fr_energy">    -69.88487670 </i>
    <i name="e_wo_entrp">    -69.87918098 </i>
    <i name="e_0_energy">    -69.88297813 </i>
   </energy>
  </scstep>
  <scstep>
   <time name="diag">    1.13    1.13</time>
   <time name="diis">    4.17    4.17</time>
   <time name="orth">    0.18    0.18</time>
   <time name="total">    5.81    5.84</time>
   <energy>
    <i name="e_fr_energy">    -69.22874573 </i>
    <i name="e_wo_entrp">    -69.22212425 </i>
    <i name="e_0_energy">    -69.22653857 </i>
   </energy>
  </scstep>
  <scstep>
   <time name="diag">    1.13    1.13</time>
   <time name="diis">    4.45    4.45</time>
   <time name="orth">    0.18    0.18</time>
   <time name="total">    6.09    6.11</time>
   <energy>
    <i name="e_fr_energy">    -69.11549563 </i>
    <i name="e_wo_entrp">    -69.10854684 </i>
    <i name="e_0_energy">    -69.11317936 </i>
   </energy>
  </scstep>
  <scstep>
   <time name="diag">    1.13    1.13</time>
   <time name="diis">    4.38    4.38</time>
   <time name="orth">    0.18    0.18</time>
   <time name="total">    6.03    6.05</time>
   <energy>
    <i name="e_fr_energy">    -69.09993965 </i>
    <i name="e_wo_entrp">    -69.09314037 </i>
    <i name="e_0_energy">    -69.09767322 </i>
   </energy>
  </scstep>
  <scstep>
   <time name="diag">    1.13    1.13</time>
   <time name="diis">    4.37    4.38</time>
   <time name="orth">    0.18    0.18</time>
   <time name="total">    6.02    6.04</time>
   <energy>
    <i name="e_fr_energy">    -69.09811325 </i>
    <i name="e_wo_entrp">    -69.09137747 </i>
    <i name="e_0_energy">    -69.09586799 </i>
   </energy>
  </scstep>
  <scstep>
   <time name="diag">    1.14    1.14</time>
   <time name="diis">    3.79    3.79</time>
   <time name="orth">    0.18    0.18</time>
   <time name="total">    5.44    5.46</time>
   <energy>
    <i name="e_fr_energy">    -69.09785915 </i>
    <i name="e_wo_entrp">    -69.09111193 </i>
    <i name="e_0_energy">    -69.09561008 </i>
   </energy>
  </scstep>
  <scstep>
   <time name="diag">    1.13    1.13</time>
   <time name="diis">    3.08    3.09</time>
   <time name="orth">    0.18    0.18</time>
   <time name="total">    4.42    4.44</time>
   <energy>
    <i name="alphaZ">     -6.36903000 </i>
    <i name="ewald">  -1983.22277563 </i>
    <i name="hartreedc">    -55.34605809 </i>
    <i name="XCdc">   -694.97789427 </i>
    <i name="pawpsdc">   7444.54730680 </i>
    <i name="pawaedc">  -6584.83751547 </i>
    <i name="eentropy">     -0.00674625 </i>
    <i name="bandstr">    365.59901889 </i>
    <i name="atom">   1445.51584806 </i>
    <i name="e_fr_energy">    -69.09784595 </i>
    <i name="e_wo_entrp">    -69.09109971 </i>
    <i name="e_0_energy">    -69.09559720 </i>
   </energy>
  </scstep>
  <structure>
   <crystal>
    <varray name="basis" >
     <v>       0.00000000       5.77125000       5.77125000 </v>
     <v>       5.77125000       0.00000000       5.77125000 </v>
     <v>       5.77125000       5.77125000       0.00000000 </v>
    </varray>
    <i name="volume">    384.44981685 </i>
    <varray name="rec_basis" >
     <v>      -0.08663634       0.08663634       0.08663634 </v>
     <v>       0.08663634      -0.08663634       0.08663634 </v>
     <v>       0.08663634       0.08663634      -0.08663634 </v>
    </varray>
   </crystal>
   <varray name="positions" >
    <v>       0.02220886       0.99235534       0.05123338 </v>
    <v>       0.97214756       0.00615523       0.40100106 </v>
    <v>       0.93523267       0.04220295       0.65269628 </v>
    <v>       0.00121959       0.38320338       0.93137229 </v>
    <v>       0.01795086       0.26764537       0.38660680 </v>
    <v>       0.07021917       0.28596590       0.64930993 </v>
    <v>       0.04011125       0.66763783       0.92919888 </v>
    <v>       0.04742998       0.60635048       0.31207099 </v>
    <v>       0.05595311       0.63782159       0.61326516 </v>
    <v>       0.39865075       0.96005523       0.01302380 </v>
    <v>       0.25996364       0.00984095       0.36310411 </v>
    <v>       0.35311984       0.94089019       0.64859756 </v>
    <v>       0.34042195       0.35309382       0.92867599 </v>
    <v>       0.26587547       0.32670743       0.36123225 </v>
    <v>       0.38832207       0.29120510       0.69646217 </v>
    <v>       0.38056392       0.65961308       0.93291001 </v>
    <v>       0.39269860       0.68892341       0.28371372 </v>
    <v>       0.35039477       0.62988623       0.62329298 </v>
    <v>       0.71813971       0.02298265       0.99066799 </v>
    <v>       0.73179596       0.94368007       0.32376655 </v>
    <v>       0.63060653       0.05582042       0.61874465 </v>
    <v>       0.67483821       0.40086077       0.95950853 </v>
    <v>       0.60782453       0.37345719       0.30908929 </v>
    <v>       0.71872235       0.33134354       0.68369800 </v>
    <v>       0.71628386       0.68581713       0.99962172 </v>
    <v>       0.63109036       0.69733691       0.28436903 </v>
    <v>       0.59521870       0.70322820       0.66901406 </v>
   </varray>
  </structure>
  <varray name="forces" >
   <v>      -1.72471531       0.09518781       2.02256594 </v>
   <v>      -6.45923164      -5.83363206      -2.14025540 </v>
   <v>       0.86930065       8.06766887      -4.82658061 </v>
   <v>      -0.10719179       2.74620017      -1.86124448 </v>
   <v>       3.74879865      -9.60221960       3.99704039 </v>
   <v>       5.01610704       2.25421487      -4.04934406 </v>
   <v>       2.03264711       1.19707759       1.40218168 </v>
   <v>       3.69299180      -4.82327310       1.15575998 </v>
   <v>      -0.08456321      -1.93594898      -0.19623749 </v>
   <v>       0.76319134      -3.42514924       2.05181942 </v>
   <v>      -5.31909267       4.84872582       2.88242407 </v>
   <v>       5.91401691      -6.97240186       1.10921861 </v>
   <v>       6.27139140       6.33541748      -1.22825993 </v>
   <v>      -8.19478119       4.81061814       6.91527296 </v>
   <v>      -1.58990457      -6.94782754      -1.45321166 </v>
   <v>       7.25101782       0.95507071      -7.43200555 </v>
   <v>       1.04290929      -6.10191331      -8.22765612 </v>
   <v>       0.93629257       0.25903505       2.33522609 </v>
   <v>       0.96781969      -0.19529272      -1.16289013 </v>
   <v>       1.36295075      -0.55327243      -1.22642923 </v>
   <v>      -4.80704138       3.36186704      -1.32574267 </v>
   <v>      -0.94594688       2.26180876      -1.07191099 </v>
   <v>      -2.37752935       2.38349533      -0.61148046 </v>
   <v>       2.24292683      -3.69976885       0.37064231 </v>
   <v>      -4.46675947      -3.99158903       0.56041137 </v>
   <v>       4.07759617       8.97725923       5.12134217 </v>
   <v>     -10.11320054       5.52864185       6.88934379 </v>
  </varray>
  <varray name="stress" >
   <v>     504.78787225     -36.25106053     -54.10691768 </v>
   <v>     -36.25106067     432.31850157     -17.00414771 </v>
   <v>     -54.10691808     -17.00414762     385.22959141 </v>
  </varray>
  <energy>
   <i name="e_fr_energy">    -69.09784595 </i>
   <i name="e_wo_entrp">    -69.09559720 </i>
   <i name="e_0_energy">     -0.00674625 </i>
  </energy>
  <time name="totalsc">   90.81   91.08</time>
  <eigenvalues>
   <array>
    <dimension dim="1">band</dimension>
    <dimension dim="2">kpoint</dimension>
    <dimension dim="3">spin</dimension>
    <field>eigene</field>
    <field>occ</field>
    <set>
     <set comment="spin 1">
      <set comment="kpoint 1">
       <r>   -2.9720    1.0000 </r>
       <r>   -1.1359    1.0000 </r>
       <r>   -0.5823    1.0000 </r>
       <r>   -0.2708    1.0000 </r>
       <r>    0.0436    1.0000 </r>
       <r>    0.3446    1.0000 </r>
       <r>    0.5899    1.0000 </r>
       <r>    0.8769    1.0000 </r>
       <r>    1.1308    1.0000 </r>
       <r>    1.2897    1.0000 </r>
       <r>    1.6111    1.0000 </r>
       <r>    1.8106    1.0000 </r>
       <r>    2.0642    1.0000 </r>
       <r>    2.3853    1.0000 </r>
       <r>    3.0454    1.0000 </r>
       <r>    4.0697    1.0000 </r>
       <r>    4.6653    1.0000 </r>
       <r>    4.8141    1.0000 </r>
       <r>    5.0639    1.0000 </r>
       <r>    5.3993    1.0000 </r>
       <r>    5.5583    1.0000 </r>
       <r>    5.6706    1.0000 </r>
       <r>    5.9441    1.0000 </r>
       <r>    6.2478    1.0000 </r>
       <r>    6.5802    1.0000 </r>
       <r>    6.6552    1.0000 </r>
       <r>    6.7511    1.0000 </r>
       <r>    7.0851    1.0000 </r>
       <r>    7.2810    1.0000 </r>
       <r>    7.3836    1.0000 </r>
       <r>    7.5647    1.0000 </r>
       <r>    7.7082    1.0000 </r>
       <r>    7.9735    1.0000 </r>
       <r>    8.1763    1.0000 </r>
       <r>    8.3433    1.0000 </r>
       <r>    8.4495    1.0000 </r>
       <r>    8.6412    1.0000 </r>
       <r>    8.7331    1.0000 </r>
       <r>    8.9056    1.0006 </r>
       <r>    9.0561    1.0111 </r>
       <r>    9.0893    1.0174 </r>
       <r>    9.3027    0.9454 </r>
       <r>    9.4742    0.3370 </r>
       <r>    9.6035   -0.0003 </r>
       <r>    9.6902   -0.0351 </r>
       <r>    9.8300   -0.0086 </r>
       <r>   10.0102   -0.0002 </r>
       <r>   10.0354   -0.0001 </r>
       <r>   10.1232   -0.0000 </r>
       <r>   10.1566   -0.0000 </r>
       <r>   10.4577   -0.0000 </r>
       <r>   10.6102   -0.0000 </r>
       <r>   10.7049   -0.0000 </r>
       <r>   10.8180   -0.0000 </r>
       <r>   10.9842   -0.0000 </r>
       <r>   11.1977   -0.0000 </r>
       <r>   11.3456   -0.0000 </r>
       <r>   11.6065   -0.0000 </r>
       <r>   12.0760   -0.0000 </r>
       <r>   12.7411   -0.0000 </r>
       <r>   13.1277   -0.0000 </r>
       <r>   13.3124   -0.0000 </r>
       <r>   14.0765   -0.0000 </r>
       <r>   14.4104   -0.0000 </r>
      </set>
      <set comment="kpoint 2">
       <r>   -2.9704    1.0000 </r>
       <r>   -1.1881    1.0000 </r>
       <r>   -0.5225    1.0000 </r>
       <r>   -0.2119    1.0000 </r>
       <r>    0.0725    1.0000 </r>
       <r>    0.2483    1.0000 </r>
       <r>    0.6973    1.0000 </r>
       <r>    0.8234    1.0000 </r>
       <r>    1.0912    1.0000 </r>
       <r>    1.2334    1.0000 </r>
       <r>    1.4743    1.0000 </r>
       <r>    1.9309    1.0000 </r>
       <r>    2.0680    1.0000 </r>
       <r>    2.5002    1.0000 </r>
       <r>    2.9820    1.0000 </r>
       <r>    4.0535    1.0000 </r>
       <r>    4.4961    1.0000 </r>
       <r>    5.0798    1.0000 </r>
       <r>    5.1717    1.0000 </r>
       <r>    5.3132    1.0000 </r>
       <r>    5.4398    1.0000 </r>
       <r>    5.8654    1.0000 </r>
       <r>    5.9763    1.0000 </r>
       <r>    6.1457    1.0000 </r>
       <r>    6.3319    1.0000 </r>
       <r>    6.6825    1.0000 </r>
       <r>    6.8829    1.0000 </r>
       <r>    7.0477    1.0000 </r>
       <r>    7.3181    1.0000 </r>
       <r>    7.4153    1.0000 </r>
       <r>    7.6410    1.0000 </r>
       <r>    7.7545    1.0000 </r>
       <r>    7.8778    1.0000 </r>
       <r>    8.0840    1.0000 </r>
       <r>    8.3132    1.0000 </r>
       <r>    8.3823    1.0000 </r>
       <r>    8.5434    1.0000 </r>
       <r>    8.7104    1.0000 </r>
       <r>    8.9420    1.0014 </r>
       <r>    9.0353    1.0081 </r>
       <r>    9.2379    1.0235 </r>
       <r>    9.3399    0.8558 </r>
       <r>    9.4984    0.2455 </r>
       <r>    9.5872    0.0203 </r>
       <r>    9.6879   -0.0352 </r>
       <r>    9.8200   -0.0101 </r>
       <r>    9.9167   -0.0017 </r>
       <r>   10.0568   -0.0000 </r>
       <r>   10.1856   -0.0000 </r>
       <r>   10.3409   -0.0000 </r>
       <r>   10.4572   -0.0000 </r>
       <r>   10.5896   -0.0000 </r>
       <r>   10.6760   -0.0000 </r>
       <r>   10.8187   -0.0000 </r>
       <r>   10.9891   -0.0000 </r>
       <r>   11.1350   -0.0000 </r>
       <r>   11.3156   -0.0000 </r>
       <r>   11.5807   -0.0000 </r>
       <r>   12.0376   -0.0000 </r>
       <r>   12.8288   -0.0000 </r>
       <r>   13.0605   -0.0000 </r>
       <r>   13.3817   -0.0000 </r>
       <r>   14.1154   -0.0000 </r>
       <r>   14.3797   -0.0000 </r>
      </set>
      <set comment="kpoint 3">
       <r>   -2.9737    1.0000 </r>
       <r>   -1.1399    1.0000 </r>
       <r>   -0.6348    1.0000 </r>
       <r>   -0.0940    1.0000 </r>
       <r>    0.1145    1.0000 </r>
       <r>    0.2499    1.0000 </r>
       <r>    0.6018    1.0000 </r>
       <r>    0.6760    1.0000 </r>
       <r>    1.1159    1.0000 </r>
       <r>    1.2728    1.0000 </r>
       <r>    1.6323    1.0000 </r>
       <r>    1.7570    1.0000 </r>
       <r>    2.2089    1.0000 </r>
       <r>    2.4971    1.0000 </r>
       <r>    2.9356    1.0000 </r>
       <r>    4.1879    1.0000 </r>
       <r>    4.5786    1.0000 </r>
       <r>    4.8651    1.0000 </r>
       <r>    5.0634    1.0000 </r>
       <r>    5.3284    1.0000 </r>
       <r>    5.4191    1.0000 </r>
       <r>    5.7478    1.0000 </r>
       <r>    6.0330    1.0000 </r>
       <r>    6.2092    1.0000 </r>
       <r>    6.4410    1.0000 </r>
       <r>    6.7021    1.0000 </r>
       <r>    6.9289    1.0000 </r>
       <r>    7.1115    1.0000 </r>
       <r>    7.2700    1.0000 </r>
       <r>    7.4539    1.0000 </r>
       <r>    7.6378    1.0000 </r>
       <r>    7.7622    1.0000 </r>
       <r>    7.8870    1.0000 </r>
       <r>    8.1228    1.0000 </r>
       <r>    8.3085    1.0000 </r>
       <r>    8.4196    1.0000 </r>
       <r>    8.5303    1.0000 </r>
       <r>    8.5777    1.0000 </r>
       <r>    8.7987    1.0000 </r>
       <r>    8.9958    1.0040 </r>
       <r>    9.2243    1.0298 </r>
       <r>    9.3596    0.7949 </r>
       <r>    9.4918    0.2697 </r>
       <r>    9.5403    0.1154 </r>
       <r>    9.7161   -0.0315 </r>
       <r>    9.8023   -0.0130 </r>
       <r>    9.8918   -0.0029 </r>
       <r>   10.0211   -0.0001 </r>
       <r>   10.1610   -0.0000 </r>
       <r>   10.3948   -0.0000 </r>
       <r>   10.4626   -0.0000 </r>
       <r>   10.5926   -0.0000 </r>
       <r>   10.8153   -0.0000 </r>
       <r>   10.9383   -0.0000 </r>
       <r>   11.0160   -0.0000 </r>
       <r>   11.1454   -0.0000 </r>
       <r>   11.3012   -0.0000 </r>
       <r>   11.6327   -0.0000 </r>
       <r>   11.9224   -0.0000 </r>
       <r>   12.8300   -0.0000 </r>
       <r>   13.0891   -0.0000 </r>
       <r>   13.3434   -0.0000 </r>
       <r>   14.2095   -0.0000 </r>
       <r>   14.3722   -0.0000 </r>
      </set>
      <set comment="kpoint 4">
       <r>   -2.9703    1.0000 </r>
       <r>   -1.1938    1.0000 </r>
       <r>   -0.5154    1.0000 </r>
       <r>   -0.1855    1.0000 </r>
       <r>    0.0436    1.0000 </r>
       <r>    0.2430    1.0000 </r>
       <r>    0.7100    1.0000 </r>
       <r>    0.8063    1.0000 </r>
       <r>    1.0599    1.0000 </r>
       <r>    1.3349    1.0000 </r>
       <r>    1.5408    1.0000 </r>
       <r>    1.6435    1.0000 </r>
       <r>    2.2386    1.0000 </r>
       <r>    2.5279    1.0000 </r>
       <r>    2.9545    1.0000 </r>
       <r>    4.1768    1.0000 </r>
       <r>    4.3924    1.0000 </r>
       <r>    4.7540    1.0000 </r>
       <r>    5.2407    1.0000 </r>
       <r>    5.4368    1.0000 </r>
       <r>    5.5555    1.0000 </r>
       <r>    5.7221    1.0000 </r>
       <r>    6.0016    1.0000 </r>
       <r>    6.2142    1.0000 </r>
       <r>    6.4780    1.0000 </r>
       <r>    6.6458    1.0000 </r>
       <r>    6.9251    1.0000 </r>
       <r>    7.1434    1.0000 </r>
       <r>    7.2866    1.0000 </r>
       <r>    7.4736    1.0000 </r>
       <r>    7.5715    1.0000 </r>
       <r>    7.7252    1.0000 </r>
       <r>    7.9141    1.0000 </r>
       <r>    8.1009    1.0000 </r>
       <r>    8.2100    1.0000 </r>
       <r>    8.3568    1.0000 </r>
       <r>    8.5653    1.0000 </r>
       <r>    8.6361    1.0000 </r>
       <r>    8.8248    1.0001 </r>
       <r>    8.9790    1.0029 </r>
       <r>    9.1511    1.0311 </r>
       <r>    9.3729    0.7486 </r>
       <r>    9.5036    0.2272 </r>
       <r>    9.5270    0.1521 </r>
       <r>    9.7035   -0.0336 </r>
       <r>    9.8398   -0.0074 </r>
       <r>    9.9298   -0.0013 </r>
       <r>   10.0748   -0.0000 </r>
       <r>   10.1820   -0.0000 </r>
       <r>   10.3591   -0.0000 </r>
       <r>   10.4790   -0.0000 </r>
       <r>   10.6318   -0.0000 </r>
       <r>   10.7240   -0.0000 </r>
       <r>   10.9074   -0.0000 </r>
       <r>   11.0507   -0.0000 </r>
       <r>   11.2682   -0.0000 </r>
       <r>   11.3341   -0.0000 </r>
       <r>   11.5407   -0.0000 </r>
       <r>   11.9048   -0.0000 </r>
       <r>   12.7832   -0.0000 </r>
       <r>   13.0919   -0.0000 </r>
       <r>   13.3853   -0.0000 </r>
       <r>   14.2115   -0.0000 </r>
       <r>   14.4200   -0.0000 </r>
      </set>
      <set comment="kpoint 5">
       <r>   -2.7303    1.0000 </r>
       <r>   -1.5834    1.0000 </r>
       <r>   -0.8792    1.0000 </r>
       <r>   -0.6549    1.0000 </r>
       <r>    0.0728    1.0000 </r>
       <r>    0.3734    1.0000 </r>
       <r>    0.6937    1.0000 </r>
       <r>    0.9392    1.0000 </r>
       <r>    1.1572    1.0000 </r>
       <r>    1.7178    1.0000 </r>
       <r>    2.0354    1.0000 </r>
       <r>    2.3224    1.0000 </r>
       <r>    2.7064    1.0000 </r>
       <r>    3.1292    1.0000 </r>
       <r>    3.2865    1.0000 </r>
       <r>    3.4073    1.0000 </r>
       <r>    4.0318    1.0000 </r>
       <r>    4.5296    1.0000 </r>
       <r>    4.6569    1.0000 </r>
       <r>    5.0729    1.0000 </r>
       <r>    5.4689    1.0000 </r>
       <r>    5.5639    1.0000 </r>
       <r>    5.7863    1.0000 </r>
       <r>    6.0138    1.0000 </r>
       <r>    6.0862    1.0000 </r>
       <r>    6.4161    1.0000 </r>
       <r>    6.5359    1.0000 </r>
       <r>    6.7306    1.0000 </r>
       <r>    6.9304    1.0000 </r>
       <r>    7.2570    1.0000 </r>
       <r>    7.2889    1.0000 </r>
       <r>    7.5322    1.0000 </r>
       <r>    7.6766    1.0000 </r>
       <r>    7.8371    1.0000 </r>
       <r>    7.9535    1.0000 </r>
       <r>    8.2157    1.0000 </r>
       <r>    8.4357    1.0000 </r>
       <r>    8.6057    1.0000 </r>
       <r>    8.8907    1.0004 </r>
       <r>    9.0332    1.0078 </r>
       <r>    9.4193    0.5657 </r>
       <r>    9.4734    0.3402 </r>
       <r>    9.6622   -0.0341 </r>
       <r>    9.9728   -0.0005 </r>
       <r>   10.1596   -0.0000 </r>
       <r>   10.2894   -0.0000 </r>
       <r>   10.5311   -0.0000 </r>
       <r>   10.7417   -0.0000 </r>
       <r>   10.9375   -0.0000 </r>
       <r>   11.0016   -0.0000 </r>
       <r>   11.1410   -0.0000 </r>
       <r>   11.3413   -0.0000 </r>
       <r>   11.4847   -0.0000 </r>
       <r>   11.6309   -0.0000 </r>
       <r>   11.8342   -0.0000 </r>
       <r>   12.0147   -0.0000 </r>
       <r>   12.2198   -0.0000 </r>
       <r>   12.3956   -0.0000 </r>
       <r>   12.6526   -0.0000 </r>
       <r>   12.7349   -0.0000 </r>
       <r>   12.9377   -0.0000 </r>
       <r>   13.0999   -0.0000 </r>
       <r>   13.3031   -0.0000 </r>
       <r>   13.6617   -0.0000 </r>
      </set>
      <set comment="kpoint 6">
       <r>   -2.7228    1.0000 </r>
       <r>   -1.6431    1.0000 </r>
       <r>   -0.8614    1.0000 </r>
       <r>   -0.4734    1.0000 </r>
       <r>   -0.0613    1.0000 </r>
       <r>    0.3115    1.0000 </r>
       <r>    0.5892    1.0000 </r>
       <r>    1.0547    1.0000 </r>
       <r>    1.2678    1.0000 </r>
       <r>    1.6138    1.0000 </r>
       <r>    1.9890    1.0000 </r>
       <r>    2.5134    1.0000 </r>
       <r>    2.7245    1.0000 </r>
       <r>    2.9020    1.0000 </r>
       <r>    3.3793    1.0000 </r>
       <r>    3.6424    1.0000 </r>
       <r>    3.9562    1.0000 </r>
       <r>    4.1148    1.0000 </r>
       <r>    4.6952    1.0000 </r>
       <r>    5.1230    1.0000 </r>
       <r>    5.2717    1.0000 </r>
       <r>    5.6814    1.0000 </r>
       <r>    5.8279    1.0000 </r>
       <r>    6.1515    1.0000 </r>
       <r>    6.2149    1.0000 </r>
       <r>    6.4558    1.0000 </r>
       <r>    6.6682    1.0000 </r>
       <r>    6.8177    1.0000 </r>
       <r>    6.8799    1.0000 </r>
       <r>    7.2897    1.0000 </r>
       <r>    7.3352    1.0000 </r>
       <r>    7.4516    1.0000 </r>
       <r>    7.6566    1.0000 </r>
       <r>    7.7863    1.0000 </r>
       <r>    8.0481    1.0000 </r>
       <r>    8.1238    1.0000 </r>
       <r>    8.3920    1.0000 </r>
       <r>    8.5461    1.0000 </r>
       <r>    8.8229    1.0001 </r>
       <r>    8.9700    1.0024 </r>
       <r>    9.2354    1.0249 </r>
       <r>    9.5532    0.0836 </r>
       <r>    9.7395   -0.0266 </r>
       <r>    9.9214   -0.0016 </r>
       <r>   10.0726   -0.0000 </r>
       <r>   10.2559   -0.0000 </r>
       <r>   10.5080   -0.0000 </r>
       <r>   10.7768   -0.0000 </r>
       <r>   10.9660   -0.0000 </r>
       <r>   11.0944   -0.0000 </r>
       <r>   11.1826   -0.0000 </r>
       <r>   11.3288   -0.0000 </r>
       <r>   11.3729   -0.0000 </r>
       <r>   11.7630   -0.0000 </r>
       <r>   11.8431   -0.0000 </r>
       <r>   11.9051   -0.0000 </r>
       <r>   12.2416   -0.0000 </r>
       <r>   12.5103   -0.0000 </r>
       <r>   12.5684   -0.0000 </r>
       <r>   12.8841   -0.0000 </r>
       <r>   13.0647   -0.0000 </r>
       <r>   13.1957   -0.0000 </r>
       <r>   13.3043   -0.0000 </r>
       <r>   13.5716   -0.0000 </r>
      </set>
      <set comment="kpoint 7">
       <r>   -2.7526    1.0000 </r>
       <r>   -1.4891    1.0000 </r>
       <r>   -0.9519    1.0000 </r>
       <r>   -0.5648    1.0000 </r>
       <r>    0.0432    1.0000 </r>
       <r>    0.2622    1.0000 </r>
       <r>    0.6146    1.0000 </r>
       <r>    0.9333    1.0000 </r>
       <r>    1.2146    1.0000 </r>
       <r>    1.5918    1.0000 </r>
       <r>    2.1592    1.0000 </r>
       <r>    2.3687    1.0000 </r>
       <r>    2.8756    1.0000 </r>
       <r>    2.9837    1.0000 </r>
       <r>    3.2961    1.0000 </r>
       <r>    3.6896    1.0000 </r>
       <r>    4.0111    1.0000 </r>
       <r>    4.3264    1.0000 </r>
       <r>    4.5925    1.0000 </r>
       <r>    5.1064    1.0000 </r>
       <r>    5.3547    1.0000 </r>
       <r>    5.4704    1.0000 </r>
       <r>    5.8380    1.0000 </r>
       <r>    6.0386    1.0000 </r>
       <r>    6.2533    1.0000 </r>
       <r>    6.3605    1.0000 </r>
       <r>    6.4621    1.0000 </r>
       <r>    6.8204    1.0000 </r>
       <r>    6.9850    1.0000 </r>
       <r>    7.1823    1.0000 </r>
       <r>    7.3760    1.0000 </r>
       <r>    7.5023    1.0000 </r>
       <r>    7.6025    1.0000 </r>
       <r>    7.8369    1.0000 </r>
       <r>    8.0968    1.0000 </r>
       <r>    8.2389    1.0000 </r>
       <r>    8.3180    1.0000 </r>
       <r>    8.6447    1.0000 </r>
       <r>    8.8439    1.0001 </r>
       <r>    8.9791    1.0029 </r>
       <r>    9.2258    1.0292 </r>
       <r>    9.4885    0.2819 </r>
       <r>    9.6480   -0.0307 </r>
       <r>   10.0465   -0.0001 </r>
       <r>   10.1505   -0.0000 </r>
       <r>   10.3737   -0.0000 </r>
       <r>   10.5625   -0.0000 </r>
       <r>   10.6424   -0.0000 </r>
       <r>   10.7949   -0.0000 </r>
       <r>   11.0160   -0.0000 </r>
       <r>   11.2015   -0.0000 </r>
       <r>   11.3392   -0.0000 </r>
       <r>   11.4875   -0.0000 </r>
       <r>   11.6373   -0.0000 </r>
       <r>   11.9532   -0.0000 </r>
       <r>   12.0681   -0.0000 </r>
       <r>   12.2438   -0.0000 </r>
       <r>   12.4980   -0.0000 </r>
       <r>   12.6384   -0.0000 </r>
       <r>   12.8309   -0.0000 </r>
       <r>   13.0844   -0.0000 </r>
       <r>   13.2239   -0.0000 </r>
       <r>   13.3264   -0.0000 </r>
       <r>   13.5305   -0.0000 </r>
      </set>
      <set comment="kpoint 8">
       <r>   -2.7457    1.0000 </r>
       <r>   -1.5304    1.0000 </r>
       <r>   -1.0442    1.0000 </r>
       <r>   -0.2002    1.0000 </r>
       <r>   -0.0077    1.0000 </r>
       <r>    0.2645    1.0000 </r>
       <r>    0.3513    1.0000 </r>
       <r>    0.9311    1.0000 </r>
       <r>    1.2588    1.0000 </r>
       <r>    1.5339    1.0000 </r>
       <r>    2.2226    1.0000 </r>
       <r>    2.3297    1.0000 </r>
       <r>    2.8359    1.0000 </r>
       <r>    3.0416    1.0000 </r>
       <r>    3.4307    1.0000 </r>
       <r>    3.7282    1.0000 </r>
       <r>    4.0758    1.0000 </r>
       <r>    4.2059    1.0000 </r>
       <r>    4.6864    1.0000 </r>
       <r>    4.9350    1.0000 </r>
       <r>    5.2341    1.0000 </r>
       <r>    5.6240    1.0000 </r>
       <r>    5.6529    1.0000 </r>
       <r>    6.0369    1.0000 </r>
       <r>    6.2164    1.0000 </r>
       <r>    6.3486    1.0000 </r>
       <r>    6.6004    1.0000 </r>
       <r>    6.8145    1.0000 </r>
       <r>    7.0481    1.0000 </r>
       <r>    7.2297    1.0000 </r>
       <r>    7.4100    1.0000 </r>
       <r>    7.5979    1.0000 </r>
       <r>    7.6414    1.0000 </r>
       <r>    7.7630    1.0000 </r>
       <r>    8.1169    1.0000 </r>
       <r>    8.1859    1.0000 </r>
       <r>    8.3184    1.0000 </r>
       <r>    8.6556    1.0000 </r>
       <r>    8.7102    1.0000 </r>
       <r>    8.9743    1.0027 </r>
       <r>    9.2880    0.9712 </r>
       <r>    9.5365    0.1254 </r>
       <r>    9.7709   -0.0194 </r>
       <r>    9.9885   -0.0003 </r>
       <r>   10.1007   -0.0000 </r>
       <r>   10.2551   -0.0000 </r>
       <r>   10.4832   -0.0000 </r>
       <r>   10.5529   -0.0000 </r>
       <r>   10.8789   -0.0000 </r>
       <r>   11.0769   -0.0000 </r>
       <r>   11.2315   -0.0000 </r>
       <r>   11.3289   -0.0000 </r>
       <r>   11.4306   -0.0000 </r>
       <r>   11.5769   -0.0000 </r>
       <r>   11.8279   -0.0000 </r>
       <r>   12.0071   -0.0000 </r>
       <r>   12.3430   -0.0000 </r>
       <r>   12.5016   -0.0000 </r>
       <r>   12.6341   -0.0000 </r>
       <r>   12.8915   -0.0000 </r>
       <r>   13.0506   -0.0000 </r>
       <r>   13.3030   -0.0000 </r>
       <r>   13.3646   -0.0000 </r>
       <r>   13.6936   -0.0000 </r>
      </set>
      <set comment="kpoint 9">
       <r>   -2.7394    1.0000 </r>
       <r>   -1.4590    1.0000 </r>
       <r>   -1.0865    1.0000 </r>
       <r>   -0.5609    1.0000 </r>
       <r>   -0.0477    1.0000 </r>
       <r>    0.3717    1.0000 </r>
       <r>    0.7530    1.0000 </r>
       <r>    1.0639    1.0000 </r>
       <r>    1.2445    1.0000 </r>
       <r>    1.5132    1.0000 </r>
       <r>    2.1542    1.0000 </r>
       <r>    2.4292    1.0000 </r>
       <r>    2.5922    1.0000 </r>
       <r>    2.9826    1.0000 </r>
       <r>    3.2299    1.0000 </r>
       <r>    3.7819    1.0000 </r>
       <r>    3.9959    1.0000 </r>
       <r>    4.3459    1.0000 </r>
       <r>    4.5919    1.0000 </r>
       <r>    5.0668    1.0000 </r>
       <r>    5.2937    1.0000 </r>
       <r>    5.4679    1.0000 </r>
       <r>    5.7574    1.0000 </r>
       <r>    6.1289    1.0000 </r>
       <r>    6.2167    1.0000 </r>
       <r>    6.3509    1.0000 </r>
       <r>    6.5917    1.0000 </r>
       <r>    6.8283    1.0000 </r>
       <r>    6.9920    1.0000 </r>
       <r>    7.1377    1.0000 </r>
       <r>    7.3848    1.0000 </r>
       <r>    7.5544    1.0000 </r>
       <r>    7.6860    1.0000 </r>
       <r>    8.0360    1.0000 </r>
       <r>    8.0803    1.0000 </r>
       <r>    8.1969    1.0000 </r>
       <r>    8.2711    1.0000 </r>
       <r>    8.5126    1.0000 </r>
       <r>    8.9069    1.0006 </r>
       <r>    9.0735    1.0142 </r>
       <r>    9.2884    0.9707 </r>
       <r>    9.5655    0.0575 </r>
       <r>    9.7112   -0.0324 </r>
       <r>    9.9029   -0.0023 </r>
       <r>   10.1207   -0.0000 </r>
       <r>   10.2768   -0.0000 </r>
       <r>   10.4530   -0.0000 </r>
       <r>   10.6591   -0.0000 </r>
       <r>   10.8503   -0.0000 </r>
       <r>   11.0155   -0.0000 </r>
       <r>   11.1802   -0.0000 </r>
       <r>   11.4200   -0.0000 </r>
       <r>   11.4802   -0.0000 </r>
       <r>   11.6848   -0.0000 </r>
       <r>   11.8610   -0.0000 </r>
       <r>   12.0017   -0.0000 </r>
       <r>   12.1576   -0.0000 </r>
       <r>   12.4790   -0.0000 </r>
       <r>   12.6601   -0.0000 </r>
       <r>   12.8389   -0.0000 </r>
       <r>   12.9529   -0.0000 </r>
       <r>   13.1497   -0.0000 </r>
       <r>   13.3326   -0.0000 </r>
       <r>   13.5986   -0.0000 </r>
      </set>
      <set comment="kpoint 10">
       <r>   -2.7191    1.0000 </r>
       <r>   -1.6679    1.0000 </r>
       <r>   -0.8767    1.0000 </r>
       <r>   -0.4010    1.0000 </r>
       <r>   -0.0700    1.0000 </r>
       <r>    0.3343    1.0000 </r>
       <r>    0.6306    1.0000 </r>
       <r>    0.9912    1.0000 </r>
       <r>    1.2893    1.0000 </r>
       <r>    1.5943    1.0000 </r>
       <r>    1.9282    1.0000 </r>
       <r>    2.3076    1.0000 </r>
       <r>    2.7023    1.0000 </r>
       <r>    3.0092    1.0000 </r>
       <r>    3.5354    1.0000 </r>
       <r>    3.6669    1.0000 </r>
       <r>    3.9768    1.0000 </r>
       <r>    4.1024    1.0000 </r>
       <r>    4.8781    1.0000 </r>
       <r>    5.0320    1.0000 </r>
       <r>    5.2600    1.0000 </r>
       <r>    5.6958    1.0000 </r>
       <r>    5.8923    1.0000 </r>
       <r>    5.9811    1.0000 </r>
       <r>    6.2272    1.0000 </r>
       <r>    6.4278    1.0000 </r>
       <r>    6.5709    1.0000 </r>
       <r>    6.8137    1.0000 </r>
       <r>    6.9745    1.0000 </r>
       <r>    7.2617    1.0000 </r>
       <r>    7.3823    1.0000 </r>
       <r>    7.5260    1.0000 </r>
       <r>    7.6476    1.0000 </r>
       <r>    7.8236    1.0000 </r>
       <r>    8.0501    1.0000 </r>
       <r>    8.1646    1.0000 </r>
       <r>    8.2906    1.0000 </r>
       <r>    8.4095    1.0000 </r>
       <r>    8.6627    1.0000 </r>
       <r>    8.8628    1.0002 </r>
       <r>    9.4183    0.5696 </r>
       <r>    9.5010    0.2363 </r>
       <r>    9.7802   -0.0174 </r>
       <r>    9.9729   -0.0005 </r>
       <r>   10.0897   -0.0000 </r>
       <r>   10.3714   -0.0000 </r>
       <r>   10.5520   -0.0000 </r>
       <r>   10.7464   -0.0000 </r>
       <r>   10.8315   -0.0000 </r>
       <r>   10.9980   -0.0000 </r>
       <r>   11.2258   -0.0000 </r>
       <r>   11.3560   -0.0000 </r>
       <r>   11.4581   -0.0000 </r>
       <r>   11.5067   -0.0000 </r>
       <r>   11.9068   -0.0000 </r>
       <r>   12.2154   -0.0000 </r>
       <r>   12.3653   -0.0000 </r>
       <r>   12.5563   -0.0000 </r>
       <r>   12.7609   -0.0000 </r>
       <r>   12.8751   -0.0000 </r>
       <r>   12.9396   -0.0000 </r>
       <r>   13.1574   -0.0000 </r>
       <r>   13.2662   -0.0000 </r>
       <r>   13.6032   -0.0000 </r>
      </set>
      <set comment="kpoint 11">
       <r>   -2.7347    1.0000 </r>
       <r>   -1.5858    1.0000 </r>
       <r>   -0.9714    1.0000 </r>
       <r>   -0.3348    1.0000 </r>
       <r>   -0.1303    1.0000 </r>
       <r>    0.3458    1.0000 </r>
       <r>    0.6724    1.0000 </r>
       <r>    1.0038    1.0000 </r>
       <r>    1.1383    1.0000 </r>
       <r>    1.5695    1.0000 </r>
       <r>    1.9946    1.0000 </r>
       <r>    2.3418    1.0000 </r>
       <r>    2.8221    1.0000 </r>
       <r>    3.0877    1.0000 </r>
       <r>    3.4943    1.0000 </r>
       <r>    3.6847    1.0000 </r>
       <r>    3.8686    1.0000 </r>
       <r>    4.0459    1.0000 </r>
       <r>    4.7852    1.0000 </r>
       <r>    5.0922    1.0000 </r>
       <r>    5.2267    1.0000 </r>
       <r>    5.7611    1.0000 </r>
       <r>    5.8067    1.0000 </r>
       <r>    6.1039    1.0000 </r>
       <r>    6.3163    1.0000 </r>
       <r>    6.4602    1.0000 </r>
       <r>    6.6639    1.0000 </r>
       <r>    6.6777    1.0000 </r>
       <r>    7.0271    1.0000 </r>
       <r>    7.0878    1.0000 </r>
       <r>    7.4177    1.0000 </r>
       <r>    7.4934    1.0000 </r>
       <r>    7.7040    1.0000 </r>
       <r>    7.8817    1.0000 </r>
       <r>    8.0303    1.0000 </r>
       <r>    8.1124    1.0000 </r>
       <r>    8.2858    1.0000 </r>
       <r>    8.4296    1.0000 </r>
       <r>    8.6038    1.0000 </r>
       <r>    8.8558    1.0002 </r>
       <r>    9.2321    1.0265 </r>
       <r>    9.5076    0.2136 </r>
       <r>    9.8366   -0.0078 </r>
       <r>   10.0439   -0.0001 </r>
       <r>   10.1648   -0.0000 </r>
       <r>   10.2696   -0.0000 </r>
       <r>   10.5610   -0.0000 </r>
       <r>   10.6916   -0.0000 </r>
       <r>   10.8324   -0.0000 </r>
       <r>   10.8798   -0.0000 </r>
       <r>   11.2063   -0.0000 </r>
       <r>   11.4701   -0.0000 </r>
       <r>   11.5689   -0.0000 </r>
       <r>   11.6615   -0.0000 </r>
       <r>   12.0632   -0.0000 </r>
       <r>   12.1766   -0.0000 </r>
       <r>   12.3874   -0.0000 </r>
       <r>   12.5010   -0.0000 </r>
       <r>   12.7292   -0.0000 </r>
       <r>   12.8607   -0.0000 </r>
       <r>   12.9930   -0.0000 </r>
       <r>   13.1776   -0.0000 </r>
       <r>   13.2753   -0.0000 </r>
       <r>   13.4417   -0.0000 </r>
      </set>
      <set comment="kpoint 12">
       <r>   -2.7302    1.0000 </r>
       <r>   -1.6085    1.0000 </r>
       <r>   -0.9806    1.0000 </r>
       <r>   -0.2604    1.0000 </r>
       <r>   -0.0885    1.0000 </r>
       <r>    0.3711    1.0000 </r>
       <r>    0.5560    1.0000 </r>
       <r>    0.8527    1.0000 </r>
       <r>    1.1775    1.0000 </r>
       <r>    1.5835    1.0000 </r>
       <r>    2.2268    1.0000 </r>
       <r>    2.3157    1.0000 </r>
       <r>    2.7358    1.0000 </r>
       <r>    2.9705    1.0000 </r>
       <r>    3.4534    1.0000 </r>
       <r>    3.7726    1.0000 </r>
       <r>    4.0171    1.0000 </r>
       <r>    4.2385    1.0000 </r>
       <r>    4.8005    1.0000 </r>
       <r>    4.9827    1.0000 </r>
       <r>    5.2340    1.0000 </r>
       <r>    5.4821    1.0000 </r>
       <r>    5.8168    1.0000 </r>
       <r>    5.8869    1.0000 </r>
       <r>    6.2050    1.0000 </r>
       <r>    6.3207    1.0000 </r>
       <r>    6.6339    1.0000 </r>
       <r>    6.8126    1.0000 </r>
       <r>    7.1326    1.0000 </r>
       <r>    7.2304    1.0000 </r>
       <r>    7.4178    1.0000 </r>
       <r>    7.5240    1.0000 </r>
       <r>    7.7054    1.0000 </r>
       <r>    7.8613    1.0000 </r>
       <r>    7.9129    1.0000 </r>
       <r>    8.1786    1.0000 </r>
       <r>    8.2994    1.0000 </r>
       <r>    8.6490    1.0000 </r>
       <r>    8.8324    1.0001 </r>
       <r>    8.9667    1.0023 </r>
       <r>    9.3321    0.8777 </r>
       <r>    9.7263   -0.0295 </r>
       <r>    9.7725   -0.0191 </r>
       <r>    9.9159   -0.0018 </r>
       <r>   10.1515   -0.0000 </r>
       <r>   10.2558   -0.0000 </r>
       <r>   10.4193   -0.0000 </r>
       <r>   10.6100   -0.0000 </r>
       <r>   10.8085   -0.0000 </r>
       <r>   11.0481   -0.0000 </r>
       <r>   11.1231   -0.0000 </r>
       <r>   11.2161   -0.0000 </r>
       <r>   11.4259   -0.0000 </r>
       <r>   11.7037   -0.0000 </r>
       <r>   11.7877   -0.0000 </r>
       <r>   12.1144   -0.0000 </r>
       <r>   12.2326   -0.0000 </r>
       <r>   12.4911   -0.0000 </r>
       <r>   12.5794   -0.0000 </r>
       <r>   12.7829   -0.0000 </r>
       <r>   12.9362   -0.0000 </r>
       <r>   13.3356   -0.0000 </r>
       <r>   13.4818   -0.0000 </r>
       <r>   13.7923   -0.0000 </r>
      </set>
      <set comment="kpoint 13">
       <r>   -2.7461    1.0000 </r>
       <r>   -1.4617    1.0000 </r>
       <r>   -1.0050    1.0000 </r>
       <r>   -0.6359    1.0000 </r>
       <r>    0.0294    1.0000 </r>
       <r>    0.3414    1.0000 </r>
       <r>    0.5793    1.0000 </r>
       <r>    1.0230    1.0000 </r>
       <r>    1.3595    1.0000 </r>
       <r>    1.6939    1.0000 </r>
       <r>    1.9356    1.0000 </r>
       <r>    2.4129    1.0000 </r>
       <r>    2.6815    1.0000 </r>
       <r>    2.9986    1.0000 </r>
       <r>    3.3033    1.0000 </r>
       <r>    3.7445    1.0000 </r>
       <r>    3.9521    1.0000 </r>
       <r>    4.4536    1.0000 </r>
       <r>    4.6210    1.0000 </r>
       <r>    5.1147    1.0000 </r>
       <r>    5.1898    1.0000 </r>
       <r>    5.4532    1.0000 </r>
       <r>    5.7238    1.0000 </r>
       <r>    6.0216    1.0000 </r>
       <r>    6.1112    1.0000 </r>
       <r>    6.3860    1.0000 </r>
       <r>    6.5713    1.0000 </r>
       <r>    6.8627    1.0000 </r>
       <r>    7.0601    1.0000 </r>
       <r>    7.2722    1.0000 </r>
       <r>    7.3606    1.0000 </r>
       <r>    7.6032    1.0000 </r>
       <r>    7.6997    1.0000 </r>
       <r>    7.9565    1.0000 </r>
       <r>    8.0562    1.0000 </r>
       <r>    8.1912    1.0000 </r>
       <r>    8.4041    1.0000 </r>
       <r>    8.4555    1.0000 </r>
       <r>    8.8306    1.0001 </r>
       <r>    9.0424    1.0090 </r>
       <r>    9.3003    0.9499 </r>
       <r>    9.4470    0.4486 </r>
       <r>    9.7831   -0.0168 </r>
       <r>   10.0365   -0.0001 </r>
       <r>   10.1406   -0.0000 </r>
       <r>   10.2922   -0.0000 </r>
       <r>   10.4310   -0.0000 </r>
       <r>   10.6856   -0.0000 </r>
       <r>   10.8005   -0.0000 </r>
       <r>   10.9440   -0.0000 </r>
       <r>   11.1366   -0.0000 </r>
       <r>   11.3986   -0.0000 </r>
       <r>   11.5159   -0.0000 </r>
       <r>   11.6294   -0.0000 </r>
       <r>   11.7525   -0.0000 </r>
       <r>   12.0327   -0.0000 </r>
       <r>   12.1674   -0.0000 </r>
       <r>   12.4955   -0.0000 </r>
       <r>   12.6975   -0.0000 </r>
       <r>   12.8083   -0.0000 </r>
       <r>   13.0464   -0.0000 </r>
       <r>   13.2048   -0.0000 </r>
       <r>   13.4899   -0.0000 </r>
       <r>   13.6950   -0.0000 </r>
      </set>
      <set comment="kpoint 14">
       <r>   -2.7334    1.0000 </r>
       <r>   -1.5222    1.0000 </r>
       <r>   -1.0602    1.0000 </r>
       <r>   -0.4518    1.0000 </r>
       <r>    0.0382    1.0000 </r>
       <r>    0.2071    1.0000 </r>
       <r>    0.6716    1.0000 </r>
       <r>    0.9316    1.0000 </r>
       <r>    1.3842    1.0000 </r>
       <r>    1.6481    1.0000 </r>
       <r>    2.1973    1.0000 </r>
       <r>    2.3914    1.0000 </r>
       <r>    2.5367    1.0000 </r>
       <r>    2.8523    1.0000 </r>
       <r>    3.3763    1.0000 </r>
       <r>    3.9205    1.0000 </r>
       <r>    4.0019    1.0000 </r>
       <r>    4.3527    1.0000 </r>
       <r>    4.5346    1.0000 </r>
       <r>    4.7733    1.0000 </r>
       <r>    5.1764    1.0000 </r>
       <r>    5.6072    1.0000 </r>
       <r>    5.7994    1.0000 </r>
       <r>    6.0112    1.0000 </r>
       <r>    6.1664    1.0000 </r>
       <r>    6.3235    1.0000 </r>
       <r>    6.6954    1.0000 </r>
       <r>    7.0194    1.0000 </r>
       <r>    7.1549    1.0000 </r>
       <r>    7.2952    1.0000 </r>
       <r>    7.4744    1.0000 </r>
       <r>    7.5943    1.0000 </r>
       <r>    7.7554    1.0000 </r>
       <r>    7.8596    1.0000 </r>
       <r>    8.0320    1.0000 </r>
       <r>    8.1039    1.0000 </r>
       <r>    8.1833    1.0000 </r>
       <r>    8.4070    1.0000 </r>
       <r>    8.8602    1.0002 </r>
       <r>    9.1108    1.0221 </r>
       <r>    9.3410    0.8529 </r>
       <r>    9.4977    0.2479 </r>
       <r>    9.7876   -0.0159 </r>
       <r>    9.9009   -0.0024 </r>
       <r>   10.1030   -0.0000 </r>
       <r>   10.2068   -0.0000 </r>
       <r>   10.4465   -0.0000 </r>
       <r>   10.5656   -0.0000 </r>
       <r>   10.8675   -0.0000 </r>
       <r>   11.0513   -0.0000 </r>
       <r>   11.2691   -0.0000 </r>
       <r>   11.3256   -0.0000 </r>
       <r>   11.4883   -0.0000 </r>
       <r>   11.6285   -0.0000 </r>
       <r>   11.7830   -0.0000 </r>
       <r>   12.0104   -0.0000 </r>
       <r>   12.2969   -0.0000 </r>
       <r>   12.4421   -0.0000 </r>
       <r>   12.6895   -0.0000 </r>
       <r>   12.8217   -0.0000 </r>
       <r>   12.9362   -0.0000 </r>
       <r>   13.0613   -0.0000 </r>
       <r>   13.3837   -0.0000 </r>
       <r>   13.6695   -0.0000 </r>
      </set>
      <set comment="kpoint 15">
       <r>   -2.7512    1.0000 </r>
       <r>   -1.4588    1.0000 </r>
       <r>   -1.1257    1.0000 </r>
       <r>   -0.2514    1.0000 </r>
       <r>   -0.0521    1.0000 </r>
       <r>    0.3069    1.0000 </r>
       <r>    0.5219    1.0000 </r>
       <r>    0.8789    1.0000 </r>
       <r>    1.3036    1.0000 </r>
       <r>    1.4162    1.0000 </r>
       <r>    2.2497    1.0000 </r>
       <r>    2.3414    1.0000 </r>
       <r>    2.7491    1.0000 </r>
       <r>    3.0704    1.0000 </r>
       <r>    3.5321    1.0000 </r>
       <r>    3.7507    1.0000 </r>
       <r>    3.9391    1.0000 </r>
       <r>    4.2795    1.0000 </r>
       <r>    4.5311    1.0000 </r>
       <r>    4.7834    1.0000 </r>
       <r>    5.4131    1.0000 </r>
       <r>    5.6301    1.0000 </r>
       <r>    5.8561    1.0000 </r>
       <r>    6.0800    1.0000 </r>
       <r>    6.2786    1.0000 </r>
       <r>    6.4200    1.0000 </r>
       <r>    6.7007    1.0000 </r>
       <r>    6.7427    1.0000 </r>
       <r>    6.9542    1.0000 </r>
       <r>    7.2236    1.0000 </r>
       <r>    7.3583    1.0000 </r>
       <r>    7.5688    1.0000 </r>
       <r>    7.6345    1.0000 </r>
       <r>    7.8765    1.0000 </r>
       <r>    8.0576    1.0000 </r>
       <r>    8.1283    1.0000 </r>
       <r>    8.2951    1.0000 </r>
       <r>    8.4904    1.0000 </r>
       <r>    8.6568    1.0000 </r>
       <r>    8.7956    1.0000 </r>
       <r>    9.1529    1.0314 </r>
       <r>    9.5836    0.0258 </r>
       <r>    9.7852   -0.0164 </r>
       <r>    9.9194   -0.0016 </r>
       <r>   10.1756   -0.0000 </r>
       <r>   10.3063   -0.0000 </r>
       <r>   10.5852   -0.0000 </r>
       <r>   10.7078   -0.0000 </r>
       <r>   10.8674   -0.0000 </r>
       <r>   11.0277   -0.0000 </r>
       <r>   11.1746   -0.0000 </r>
       <r>   11.4577   -0.0000 </r>
       <r>   11.5158   -0.0000 </r>
       <r>   11.6523   -0.0000 </r>
       <r>   12.0208   -0.0000 </r>
       <r>   12.1299   -0.0000 </r>
       <r>   12.4114   -0.0000 </r>
       <r>   12.5746   -0.0000 </r>
       <r>   12.6443   -0.0000 </r>
       <r>   12.8281   -0.0000 </r>
       <r>   13.0462   -0.0000 </r>
       <r>   13.1716   -0.0000 </r>
       <r>   13.2840   -0.0000 </r>
       <r>   13.5776   -0.0000 </r>
      </set>
      <set comment="kpoint 16">
       <r>   -2.7204    1.0000 </r>
       <r>   -1.6481    1.0000 </r>
       <r>   -0.9439    1.0000 </r>
       <r>   -0.3612    1.0000 </r>
       <r>   -0.0382    1.0000 </r>
       <r>    0.3479    1.0000 </r>
       <r>    0.6741    1.0000 </r>
       <r>    0.9519    1.0000 </r>
       <r>    1.2165    1.0000 </r>
       <r>    1.4526    1.0000 </r>
       <r>    2.1184    1.0000 </r>
       <r>    2.4249    1.0000 </r>
       <r>    2.6585    1.0000 </r>
       <r>    2.8102    1.0000 </r>
       <r>    3.5051    1.0000 </r>
       <r>    3.9248    1.0000 </r>
       <r>    4.0106    1.0000 </r>
       <r>    4.2333    1.0000 </r>
       <r>    4.6522    1.0000 </r>
       <r>    4.9096    1.0000 </r>
       <r>    5.2683    1.0000 </r>
       <r>    5.6737    1.0000 </r>
       <r>    5.8487    1.0000 </r>
       <r>    6.0517    1.0000 </r>
       <r>    6.2011    1.0000 </r>
       <r>    6.3722    1.0000 </r>
       <r>    6.6221    1.0000 </r>
       <r>    6.7841    1.0000 </r>
       <r>    7.0107    1.0000 </r>
       <r>    7.2317    1.0000 </r>
       <r>    7.3859    1.0000 </r>
       <r>    7.5109    1.0000 </r>
       <r>    7.6463    1.0000 </r>
       <r>    7.8358    1.0000 </r>
       <r>    8.0181    1.0000 </r>
       <r>    8.2134    1.0000 </r>
       <r>    8.3656    1.0000 </r>
       <r>    8.4683    1.0000 </r>
       <r>    8.6335    1.0000 </r>
       <r>    8.9479    1.0015 </r>
       <r>    9.4302    0.5196 </r>
       <r>    9.5988    0.0051 </r>
       <r>    9.7850   -0.0164 </r>
       <r>    9.9407   -0.0010 </r>
       <r>   10.0825   -0.0000 </r>
       <r>   10.3026   -0.0000 </r>
       <r>   10.5735   -0.0000 </r>
       <r>   10.7082   -0.0000 </r>
       <r>   10.8042   -0.0000 </r>
       <r>   10.9860   -0.0000 </r>
       <r>   11.0861   -0.0000 </r>
       <r>   11.2708   -0.0000 </r>
       <r>   11.4574   -0.0000 </r>
       <r>   11.7582   -0.0000 </r>
       <r>   11.9549   -0.0000 </r>
       <r>   12.1390   -0.0000 </r>
       <r>   12.2709   -0.0000 </r>
       <r>   12.4549   -0.0000 </r>
       <r>   12.6741   -0.0000 </r>
       <r>   12.8389   -0.0000 </r>
       <r>   12.9801   -0.0000 </r>
       <r>   13.1706   -0.0000 </r>
       <r>   13.3689   -0.0000 </r>
       <r>   13.5301   -0.0000 </r>
      </set>
      <set comment="kpoint 17">
       <r>   -2.3885    1.0000 </r>
       <r>   -2.0925    1.0000 </r>
       <r>   -1.0152    1.0000 </r>
       <r>   -0.6554    1.0000 </r>
       <r>    0.0245    1.0000 </r>
       <r>    0.3896    1.0000 </r>
       <r>    0.6089    1.0000 </r>
       <r>    1.0685    1.0000 </r>
       <r>    1.3995    1.0000 </r>
       <r>    1.7620    1.0000 </r>
       <r>    2.0872    1.0000 </r>
       <r>    2.7099    1.0000 </r>
       <r>    2.9342    1.0000 </r>
       <r>    3.2852    1.0000 </r>
       <r>    3.7474    1.0000 </r>
       <r>    3.7976    1.0000 </r>
       <r>    4.0136    1.0000 </r>
       <r>    4.2953    1.0000 </r>
       <r>    4.6260    1.0000 </r>
       <r>    4.7999    1.0000 </r>
       <r>    4.9787    1.0000 </r>
       <r>    5.1205    1.0000 </r>
       <r>    5.2363    1.0000 </r>
       <r>    5.6339    1.0000 </r>
       <r>    5.8743    1.0000 </r>
       <r>    6.1485    1.0000 </r>
       <r>    6.4040    1.0000 </r>
       <r>    6.6549    1.0000 </r>
       <r>    6.7981    1.0000 </r>
       <r>    6.9215    1.0000 </r>
       <r>    7.0649    1.0000 </r>
       <r>    7.3679    1.0000 </r>
       <r>    7.5298    1.0000 </r>
       <r>    7.7636    1.0000 </r>
       <r>    8.0770    1.0000 </r>
       <r>    8.3835    1.0000 </r>
       <r>    8.6080    1.0000 </r>
       <r>    9.0105    1.0053 </r>
       <r>    9.1033    1.0204 </r>
       <r>    9.3344    0.8714 </r>
       <r>    9.5810    0.0299 </r>
       <r>    9.6491   -0.0310 </r>
       <r>    9.9851   -0.0004 </r>
       <r>   10.2380   -0.0000 </r>
       <r>   10.3976   -0.0000 </r>
       <r>   10.5223   -0.0000 </r>
       <r>   10.6615   -0.0000 </r>
       <r>   10.9762   -0.0000 </r>
       <r>   11.1213   -0.0000 </r>
       <r>   11.3146   -0.0000 </r>
       <r>   11.4827   -0.0000 </r>
       <r>   11.6379   -0.0000 </r>
       <r>   11.8447   -0.0000 </r>
       <r>   12.0363   -0.0000 </r>
       <r>   12.1789   -0.0000 </r>
       <r>   12.2954   -0.0000 </r>
       <r>   12.3870   -0.0000 </r>
       <r>   12.5347   -0.0000 </r>
       <r>   12.6415   -0.0000 </r>
       <r>   12.7514   -0.0000 </r>
       <r>   12.9271   -0.0000 </r>
       <r>   13.1109   -0.0000 </r>
       <r>   13.2116   -0.0000 </r>
       <r>   13.4805   -0.0000 </r>
      </set>
      <set comment="kpoint 18">
       <r>   -2.3771    1.0000 </r>
       <r>   -2.1254    1.0000 </r>
       <r>   -0.9513    1.0000 </r>
       <r>   -0.5571    1.0000 </r>
       <r>   -0.1707    1.0000 </r>
       <r>    0.2215    1.0000 </r>
       <r>    0.7724    1.0000 </r>
       <r>    1.0977    1.0000 </r>
       <r>    1.4883    1.0000 </r>
       <r>    1.8983    1.0000 </r>
       <r>    2.1912    1.0000 </r>
       <r>    2.5045    1.0000 </r>
       <r>    2.8034    1.0000 </r>
       <r>    3.1353    1.0000 </r>
       <r>    3.3897    1.0000 </r>
       <r>    4.0415    1.0000 </r>
       <r>    4.1545    1.0000 </r>
       <r>    4.2564    1.0000 </r>
       <r>    4.5355    1.0000 </r>
       <r>    4.9793    1.0000 </r>
       <r>    5.2290    1.0000 </r>
       <r>    5.3282    1.0000 </r>
       <r>    5.4673    1.0000 </r>
       <r>    5.5834    1.0000 </r>
       <r>    5.7129    1.0000 </r>
       <r>    6.0746    1.0000 </r>
       <r>    6.3143    1.0000 </r>
       <r>    6.4962    1.0000 </r>
       <r>    6.7114    1.0000 </r>
       <r>    6.8091    1.0000 </r>
       <r>    7.1826    1.0000 </r>
       <r>    7.3935    1.0000 </r>
       <r>    7.5326    1.0000 </r>
       <r>    7.9047    1.0000 </r>
       <r>    8.0412    1.0000 </r>
       <r>    8.2269    1.0000 </r>
       <r>    8.4283    1.0000 </r>
       <r>    8.9911    1.0037 </r>
       <r>    9.2849    0.9760 </r>
       <r>    9.4083    0.6114 </r>
       <r>    9.6458   -0.0299 </r>
       <r>    9.7866   -0.0161 </r>
       <r>    9.8573   -0.0055 </r>
       <r>   10.1255   -0.0000 </r>
       <r>   10.3328   -0.0000 </r>
       <r>   10.4952   -0.0000 </r>
       <r>   10.6783   -0.0000 </r>
       <r>   10.8780   -0.0000 </r>
       <r>   11.1836   -0.0000 </r>
       <r>   11.4110   -0.0000 </r>
       <r>   11.5303   -0.0000 </r>
       <r>   11.5804   -0.0000 </r>
       <r>   11.7105   -0.0000 </r>
       <r>   11.9336   -0.0000 </r>
       <r>   12.1667   -0.0000 </r>
       <r>   12.2259   -0.0000 </r>
       <r>   12.4467   -0.0000 </r>
       <r>   12.6276   -0.0000 </r>
       <r>   12.6767   -0.0000 </r>
       <r>   12.8541   -0.0000 </r>
       <r>   13.0399   -0.0000 </r>
       <r>   13.1733   -0.0000 </r>
       <r>   13.3672   -0.0000 </r>
       <r>   13.5829   -0.0000 </r>
      </set>
      <set comment="kpoint 19">
       <r>   -2.5174    1.0000 </r>
       <r>   -1.8635    1.0000 </r>
       <r>   -1.0926    1.0000 </r>
       <r>   -0.5368    1.0000 </r>
       <r>   -0.0503    1.0000 </r>
       <r>    0.1346    1.0000 </r>
       <r>    0.6160    1.0000 </r>
       <r>    1.0191    1.0000 </r>
       <r>    1.4212    1.0000 </r>
       <r>    2.0193    1.0000 </r>
       <r>    2.1667    1.0000 </r>
       <r>    2.6252    1.0000 </r>
       <r>    2.9550    1.0000 </r>
       <r>    3.3238    1.0000 </r>
       <r>    3.5450    1.0000 </r>
       <r>    3.9008    1.0000 </r>
       <r>    4.1114    1.0000 </r>
       <r>    4.3389    1.0000 </r>
       <r>    4.4105    1.0000 </r>
       <r>    4.9423    1.0000 </r>
       <r>    5.0310    1.0000 </r>
       <r>    5.2115    1.0000 </r>
       <r>    5.3916    1.0000 </r>
       <r>    5.5278    1.0000 </r>
       <r>    5.8131    1.0000 </r>
       <r>    6.1699    1.0000 </r>
       <r>    6.2030    1.0000 </r>
       <r>    6.4939    1.0000 </r>
       <r>    6.7227    1.0000 </r>
       <r>    6.8629    1.0000 </r>
       <r>    7.1406    1.0000 </r>
       <r>    7.3060    1.0000 </r>
       <r>    7.6780    1.0000 </r>
       <r>    7.8832    1.0000 </r>
       <r>    8.0663    1.0000 </r>
       <r>    8.3271    1.0000 </r>
       <r>    8.5256    1.0000 </r>
       <r>    9.0057    1.0049 </r>
       <r>    9.0631    1.0123 </r>
       <r>    9.3214    0.9048 </r>
       <r>    9.5516    0.0875 </r>
       <r>    9.8364   -0.0078 </r>
       <r>   10.0010   -0.0002 </r>
       <r>   10.1056   -0.0000 </r>
       <r>   10.4445   -0.0000 </r>
       <r>   10.6128   -0.0000 </r>
       <r>   10.7107   -0.0000 </r>
       <r>   10.9444   -0.0000 </r>
       <r>   11.1316   -0.0000 </r>
       <r>   11.2604   -0.0000 </r>
       <r>   11.4880   -0.0000 </r>
       <r>   11.6117   -0.0000 </r>
       <r>   11.8470   -0.0000 </r>
       <r>   12.0815   -0.0000 </r>
       <r>   12.1798   -0.0000 </r>
       <r>   12.3330   -0.0000 </r>
       <r>   12.3599   -0.0000 </r>
       <r>   12.4839   -0.0000 </r>
       <r>   12.6811   -0.0000 </r>
       <r>   12.8427   -0.0000 </r>
       <r>   13.0156   -0.0000 </r>
       <r>   13.2626   -0.0000 </r>
       <r>   13.3090   -0.0000 </r>
       <r>   13.4428   -0.0000 </r>
      </set>
      <set comment="kpoint 20">
       <r>   -2.5188    1.0000 </r>
       <r>   -1.8569    1.0000 </r>
       <r>   -1.1404    1.0000 </r>
       <r>   -0.3815    1.0000 </r>
       <r>   -0.2182    1.0000 </r>
       <r>    0.3714    1.0000 </r>
       <r>    0.4099    1.0000 </r>
       <r>    1.0714    1.0000 </r>
       <r>    1.3144    1.0000 </r>
       <r>    1.9986    1.0000 </r>
       <r>    2.2443    1.0000 </r>
       <r>    2.7659    1.0000 </r>
       <r>    2.8700    1.0000 </r>
       <r>    3.3399    1.0000 </r>
       <r>    3.5720    1.0000 </r>
       <r>    3.7918    1.0000 </r>
       <r>    3.9902    1.0000 </r>
       <r>    4.2525    1.0000 </r>
       <r>    4.8033    1.0000 </r>
       <r>    4.8835    1.0000 </r>
       <r>    5.0922    1.0000 </r>
       <r>    5.2646    1.0000 </r>
       <r>    5.3266    1.0000 </r>
       <r>    5.4264    1.0000 </r>
       <r>    5.8143    1.0000 </r>
       <r>    5.9524    1.0000 </r>
       <r>    6.2963    1.0000 </r>
       <r>    6.4879    1.0000 </r>
       <r>    6.8097    1.0000 </r>
       <r>    6.8917    1.0000 </r>
       <r>    7.1708    1.0000 </r>
       <r>    7.4255    1.0000 </r>
       <r>    7.6166    1.0000 </r>
       <r>    7.8732    1.0000 </r>
       <r>    8.0299    1.0000 </r>
       <r>    8.2485    1.0000 </r>
       <r>    8.3162    1.0000 </r>
       <r>    9.0488    1.0099 </r>
       <r>    9.3054    0.9401 </r>
       <r>    9.4680    0.3617 </r>
       <r>    9.5003    0.2387 </r>
       <r>    9.5739    0.0419 </r>
       <r>    9.9164   -0.0017 </r>
       <r>   10.2575   -0.0000 </r>
       <r>   10.3667   -0.0000 </r>
       <r>   10.5795   -0.0000 </r>
       <r>   10.7507   -0.0000 </r>
       <r>   10.8476   -0.0000 </r>
       <r>   11.2344   -0.0000 </r>
       <r>   11.3499   -0.0000 </r>
       <r>   11.5659   -0.0000 </r>
       <r>   11.8063   -0.0000 </r>
       <r>   11.8754   -0.0000 </r>
       <r>   11.9330   -0.0000 </r>
       <r>   12.1119   -0.0000 </r>
       <r>   12.2864   -0.0000 </r>
       <r>   12.3407   -0.0000 </r>
       <r>   12.6020   -0.0000 </r>
       <r>   12.6928   -0.0000 </r>
       <r>   12.7760   -0.0000 </r>
       <r>   13.0181   -0.0000 </r>
       <r>   13.1419   -0.0000 </r>
       <r>   13.3139   -0.0000 </r>
       <r>   13.4884   -0.0000 </r>
      </set>
      <set comment="kpoint 21">
       <r>   -2.4806    1.0000 </r>
       <r>   -1.8725    1.0000 </r>
       <r>   -1.1752    1.0000 </r>
       <r>   -0.6731    1.0000 </r>
       <r>   -0.0904    1.0000 </r>
       <r>    0.3316    1.0000 </r>
       <r>    0.7205    1.0000 </r>
       <r>    1.1239    1.0000 </r>
       <r>    1.5879    1.0000 </r>
       <r>    1.8304    1.0000 </r>
       <r>    2.2140    1.0000 </r>
       <r>    2.4554    1.0000 </r>
       <r>    3.0095    1.0000 </r>
       <r>    3.2862    1.0000 </r>
       <r>    3.6881    1.0000 </r>
       <r>    3.7960    1.0000 </r>
       <r>    3.9946    1.0000 </r>
       <r>    4.1853    1.0000 </r>
       <r>    4.5138    1.0000 </r>
       <r>    4.7236    1.0000 </r>
       <r>    4.9791    1.0000 </r>
       <r>    5.0857    1.0000 </r>
       <r>    5.3946    1.0000 </r>
       <r>    5.6410    1.0000 </r>
       <r>    5.7329    1.0000 </r>
       <r>    6.1006    1.0000 </r>
       <r>    6.2890    1.0000 </r>
       <r>    6.5381    1.0000 </r>
       <r>    6.8241    1.0000 </r>
       <r>    7.0047    1.0000 </r>
       <r>    7.2688    1.0000 </r>
       <r>    7.4188    1.0000 </r>
       <r>    7.8531    1.0000 </r>
       <r>    8.0794    1.0000 </r>
       <r>    8.1786    1.0000 </r>
       <r>    8.3593    1.0000 </r>
       <r>    8.5875    1.0000 </r>
       <r>    8.8077    1.0000 </r>
       <r>    8.9919    1.0038 </r>
       <r>    9.3502    0.8250 </r>
       <r>    9.4525    0.4258 </r>
       <r>    9.7218   -0.0304 </r>
       <r>    9.9350   -0.0012 </r>
       <r>   10.1605   -0.0000 </r>
       <r>   10.3144   -0.0000 </r>
       <r>   10.4507   -0.0000 </r>
       <r>   10.6350   -0.0000 </r>
       <r>   10.9613   -0.0000 </r>
       <r>   11.1935   -0.0000 </r>
       <r>   11.2816   -0.0000 </r>
       <r>   11.6476   -0.0000 </r>
       <r>   11.7482   -0.0000 </r>
       <r>   11.7985   -0.0000 </r>
       <r>   11.8959   -0.0000 </r>
       <r>   12.1581   -0.0000 </r>
       <r>   12.2336   -0.0000 </r>
       <r>   12.4544   -0.0000 </r>
       <r>   12.5810   -0.0000 </r>
       <r>   12.7017   -0.0000 </r>
       <r>   12.7887   -0.0000 </r>
       <r>   12.9486   -0.0000 </r>
       <r>   13.1197   -0.0000 </r>
       <r>   13.2355   -0.0000 </r>
       <r>   13.4135   -0.0000 </r>
      </set>
      <set comment="kpoint 22">
       <r>   -2.3800    1.0000 </r>
       <r>   -2.1178    1.0000 </r>
       <r>   -0.9497    1.0000 </r>
       <r>   -0.5852    1.0000 </r>
       <r>   -0.2039    1.0000 </r>
       <r>    0.4367    1.0000 </r>
       <r>    0.5257    1.0000 </r>
       <r>    1.2661    1.0000 </r>
       <r>    1.3460    1.0000 </r>
       <r>    2.0267    1.0000 </r>
       <r>    2.2813    1.0000 </r>
       <r>    2.5047    1.0000 </r>
       <r>    2.5582    1.0000 </r>
       <r>    3.2361    1.0000 </r>
       <r>    3.5050    1.0000 </r>
       <r>    3.8476    1.0000 </r>
       <r>    4.0080    1.0000 </r>
       <r>    4.3911    1.0000 </r>
       <r>    4.7620    1.0000 </r>
       <r>    4.8958    1.0000 </r>
       <r>    5.0866    1.0000 </r>
       <r>    5.3082    1.0000 </r>
       <r>    5.4339    1.0000 </r>
       <r>    5.5991    1.0000 </r>
       <r>    5.7286    1.0000 </r>
       <r>    5.9470    1.0000 </r>
       <r>    6.4403    1.0000 </r>
       <r>    6.6365    1.0000 </r>
       <r>    6.7971    1.0000 </r>
       <r>    6.9007    1.0000 </r>
       <r>    7.1615    1.0000 </r>
       <r>    7.3725    1.0000 </r>
       <r>    7.5007    1.0000 </r>
       <r>    7.7050    1.0000 </r>
       <r>    8.0342    1.0000 </r>
       <r>    8.2344    1.0000 </r>
       <r>    8.4253    1.0000 </r>
       <r>    9.1304    1.0267 </r>
       <r>    9.2070    1.0342 </r>
       <r>    9.3268    0.8915 </r>
       <r>    9.5679    0.0529 </r>
       <r>    9.7960   -0.0142 </r>
       <r>   10.0381   -0.0001 </r>
       <r>   10.1942   -0.0000 </r>
       <r>   10.3656   -0.0000 </r>
       <r>   10.5537   -0.0000 </r>
       <r>   10.7170   -0.0000 </r>
       <r>   10.8675   -0.0000 </r>
       <r>   11.0780   -0.0000 </r>
       <r>   11.2523   -0.0000 </r>
       <r>   11.5049   -0.0000 </r>
       <r>   11.6112   -0.0000 </r>
       <r>   11.7785   -0.0000 </r>
       <r>   11.9112   -0.0000 </r>
       <r>   12.0765   -0.0000 </r>
       <r>   12.2917   -0.0000 </r>
       <r>   12.4567   -0.0000 </r>
       <r>   12.5980   -0.0000 </r>
       <r>   12.6875   -0.0000 </r>
       <r>   12.9218   -0.0000 </r>
       <r>   12.9631   -0.0000 </r>
       <r>   13.0908   -0.0000 </r>
       <r>   13.3891   -0.0000 </r>
       <r>   13.5110   -0.0000 </r>
      </set>
      <set comment="kpoint 23">
       <r>   -2.3548    1.0000 </r>
       <r>   -2.1545    1.0000 </r>
       <r>   -0.9340    1.0000 </r>
       <r>   -0.5166    1.0000 </r>
       <r>   -0.3029    1.0000 </r>
       <r>    0.3492    1.0000 </r>
       <r>    0.6468    1.0000 </r>
       <r>    1.2076    1.0000 </r>
       <r>    1.5325    1.0000 </r>
       <r>    2.0000    1.0000 </r>
       <r>    2.2657    1.0000 </r>
       <r>    2.3467    1.0000 </r>
       <r>    2.4816    1.0000 </r>
       <r>    3.3085    1.0000 </r>
       <r>    3.5549    1.0000 </r>
       <r>    3.8283    1.0000 </r>
       <r>    4.1200    1.0000 </r>
       <r>    4.3049    1.0000 </r>
       <r>    4.7321    1.0000 </r>
       <r>    4.9877    1.0000 </r>
       <r>    5.1175    1.0000 </r>
       <r>    5.2715    1.0000 </r>
       <r>    5.3602    1.0000 </r>
       <r>    5.5783    1.0000 </r>
       <r>    5.7636    1.0000 </r>
       <r>    6.2296    1.0000 </r>
       <r>    6.4120    1.0000 </r>
       <r>    6.5253    1.0000 </r>
       <r>    6.7253    1.0000 </r>
       <r>    6.8034    1.0000 </r>
       <r>    6.9978    1.0000 </r>
       <r>    7.3699    1.0000 </r>
       <r>    7.5331    1.0000 </r>
       <r>    7.8724    1.0000 </r>
       <r>    8.1402    1.0000 </r>
       <r>    8.2458    1.0000 </r>
       <r>    8.3403    1.0000 </r>
       <r>    8.9717    1.0025 </r>
       <r>    9.2727    0.9927 </r>
       <r>    9.4133    0.5905 </r>
       <r>    9.6212   -0.0165 </r>
       <r>    9.7764   -0.0182 </r>
       <r>   10.0197   -0.0001 </r>
       <r>   10.1109   -0.0000 </r>
       <r>   10.4060   -0.0000 </r>
       <r>   10.5287   -0.0000 </r>
       <r>   10.7686   -0.0000 </r>
       <r>   10.8938   -0.0000 </r>
       <r>   11.0402   -0.0000 </r>
       <r>   11.2588   -0.0000 </r>
       <r>   11.3793   -0.0000 </r>
       <r>   11.7419   -0.0000 </r>
       <r>   11.8852   -0.0000 </r>
       <r>   11.9450   -0.0000 </r>
       <r>   12.1466   -0.0000 </r>
       <r>   12.2227   -0.0000 </r>
       <r>   12.3712   -0.0000 </r>
       <r>   12.5049   -0.0000 </r>
       <r>   12.6815   -0.0000 </r>
       <r>   12.7602   -0.0000 </r>
       <r>   12.9608   -0.0000 </r>
       <r>   13.1777   -0.0000 </r>
       <r>   13.3355   -0.0000 </r>
       <r>   13.4461   -0.0000 </r>
      </set>
      <set comment="kpoint 24">
       <r>   -2.3964    1.0000 </r>
       <r>   -2.0873    1.0000 </r>
       <r>   -1.0295    1.0000 </r>
       <r>   -0.4651    1.0000 </r>
       <r>   -0.2642    1.0000 </r>
       <r>    0.4377    1.0000 </r>
       <r>    0.6741    1.0000 </r>
       <r>    1.0369    1.0000 </r>
       <r>    1.4473    1.0000 </r>
       <r>    1.7964    1.0000 </r>
       <r>    2.1695    1.0000 </r>
       <r>    2.4815    1.0000 </r>
       <r>    2.9384    1.0000 </r>
       <r>    3.4356    1.0000 </r>
       <r>    3.5783    1.0000 </r>
       <r>    3.7774    1.0000 </r>
       <r>    4.0503    1.0000 </r>
       <r>    4.2180    1.0000 </r>
       <r>    4.7030    1.0000 </r>
       <r>    4.9673    1.0000 </r>
       <r>    5.1606    1.0000 </r>
       <r>    5.2661    1.0000 </r>
       <r>    5.4169    1.0000 </r>
       <r>    5.5093    1.0000 </r>
       <r>    5.6815    1.0000 </r>
       <r>    5.9156    1.0000 </r>
       <r>    6.3353    1.0000 </r>
       <r>    6.4138    1.0000 </r>
       <r>    6.6515    1.0000 </r>
       <r>    6.8651    1.0000 </r>
       <r>    7.3208    1.0000 </r>
       <r>    7.5536    1.0000 </r>
       <r>    7.6357    1.0000 </r>
       <r>    7.8194    1.0000 </r>
       <r>    8.0159    1.0000 </r>
       <r>    8.2870    1.0000 </r>
       <r>    8.4902    1.0000 </r>
       <r>    9.0153    1.0058 </r>
       <r>    9.1948    1.0354 </r>
       <r>    9.3650    0.7766 </r>
       <r>    9.6939   -0.0348 </r>
       <r>    9.8134   -0.0111 </r>
       <r>   10.0252   -0.0001 </r>
       <r>   10.1646   -0.0000 </r>
       <r>   10.3523   -0.0000 </r>
       <r>   10.5029   -0.0000 </r>
       <r>   10.6162   -0.0000 </r>
       <r>   10.7961   -0.0000 </r>
       <r>   11.1609   -0.0000 </r>
       <r>   11.3717   -0.0000 </r>
       <r>   11.4994   -0.0000 </r>
       <r>   11.5827   -0.0000 </r>
       <r>   11.8440   -0.0000 </r>
       <r>   11.9848   -0.0000 </r>
       <r>   12.1342   -0.0000 </r>
       <r>   12.1741   -0.0000 </r>
       <r>   12.4264   -0.0000 </r>
       <r>   12.4852   -0.0000 </r>
       <r>   12.6231   -0.0000 </r>
       <r>   12.8681   -0.0000 </r>
       <r>   12.9548   -0.0000 </r>
       <r>   13.1299   -0.0000 </r>
       <r>   13.3647   -0.0000 </r>
       <r>   13.6237   -0.0000 </r>
      </set>
      <set comment="kpoint 25">
       <r>   -2.4852    1.0000 </r>
       <r>   -1.8724    1.0000 </r>
       <r>   -1.1109    1.0000 </r>
       <r>   -0.7404    1.0000 </r>
       <r>   -0.1108    1.0000 </r>
       <r>    0.2676    1.0000 </r>
       <r>    0.8713    1.0000 </r>
       <r>    1.1633    1.0000 </r>
       <r>    1.4645    1.0000 </r>
       <r>    1.8745    1.0000 </r>
       <r>    2.1418    1.0000 </r>
       <r>    2.4535    1.0000 </r>
       <r>    3.0395    1.0000 </r>
       <r>    3.5061    1.0000 </r>
       <r>    3.5822    1.0000 </r>
       <r>    3.7741    1.0000 </r>
       <r>    3.8956    1.0000 </r>
       <r>    4.1653    1.0000 </r>
       <r>    4.6028    1.0000 </r>
       <r>    4.7310    1.0000 </r>
       <r>    4.9403    1.0000 </r>
       <r>    5.2273    1.0000 </r>
       <r>    5.3046    1.0000 </r>
       <r>    5.4738    1.0000 </r>
       <r>    5.7863    1.0000 </r>
       <r>    6.0629    1.0000 </r>
       <r>    6.3282    1.0000 </r>
       <r>    6.6350    1.0000 </r>
       <r>    6.8258    1.0000 </r>
       <r>    7.0137    1.0000 </r>
       <r>    7.1815    1.0000 </r>
       <r>    7.4383    1.0000 </r>
       <r>    7.8258    1.0000 </r>
       <r>    8.0470    1.0000 </r>
       <r>    8.2185    1.0000 </r>
       <r>    8.2635    1.0000 </r>
       <r>    8.7485    1.0000 </r>
       <r>    8.8036    1.0000 </r>
       <r>    9.0594    1.0117 </r>
       <r>    9.2597    1.0070 </r>
       <r>    9.4929    0.2654 </r>
       <r>    9.6302   -0.0226 </r>
       <r>    9.9276   -0.0014 </r>
       <r>   10.1604   -0.0000 </r>
       <r>   10.3357   -0.0000 </r>
       <r>   10.5465   -0.0000 </r>
       <r>   10.8617   -0.0000 </r>
       <r>   10.9451   -0.0000 </r>
       <r>   11.0974   -0.0000 </r>
       <r>   11.2477   -0.0000 </r>
       <r>   11.5771   -0.0000 </r>
       <r>   11.6635   -0.0000 </r>
       <r>   11.8073   -0.0000 </r>
       <r>   11.9090   -0.0000 </r>
       <r>   12.0382   -0.0000 </r>
       <r>   12.2326   -0.0000 </r>
       <r>   12.4914   -0.0000 </r>
       <r>   12.5576   -0.0000 </r>
       <r>   12.6152   -0.0000 </r>
       <r>   12.7815   -0.0000 </r>
       <r>   12.9649   -0.0000 </r>
       <r>   13.0875   -0.0000 </r>
       <r>   13.3446   -0.0000 </r>
       <r>   13.4130   -0.0000 </r>
      </set>
      <set comment="kpoint 26">
       <r>   -2.4878    1.0000 </r>
       <r>   -1.8575    1.0000 </r>
       <r>   -1.1931    1.0000 </r>
       <r>   -0.6322    1.0000 </r>
       <r>   -0.1078    1.0000 </r>
       <r>    0.2700    1.0000 </r>
       <r>    0.8495    1.0000 </r>
       <r>    1.1363    1.0000 </r>
       <r>    1.3143    1.0000 </r>
       <r>    1.9514    1.0000 </r>
       <r>    2.2492    1.0000 </r>
       <r>    2.5079    1.0000 </r>
       <r>    3.0973    1.0000 </r>
       <r>    3.3024    1.0000 </r>
       <r>    3.4664    1.0000 </r>
       <r>    3.8483    1.0000 </r>
       <r>    3.9745    1.0000 </r>
       <r>    4.2135    1.0000 </r>
       <r>    4.5319    1.0000 </r>
       <r>    4.8341    1.0000 </r>
       <r>    4.8929    1.0000 </r>
       <r>    5.2312    1.0000 </r>
       <r>    5.3327    1.0000 </r>
       <r>    5.5888    1.0000 </r>
       <r>    5.7376    1.0000 </r>
       <r>    5.9806    1.0000 </r>
       <r>    6.2980    1.0000 </r>
       <r>    6.4885    1.0000 </r>
       <r>    6.8323    1.0000 </r>
       <r>    7.1771    1.0000 </r>
       <r>    7.3429    1.0000 </r>
       <r>    7.5993    1.0000 </r>
       <r>    7.7461    1.0000 </r>
       <r>    7.7828    1.0000 </r>
       <r>    8.0326    1.0000 </r>
       <r>    8.2537    1.0000 </r>
       <r>    8.6881    1.0000 </r>
       <r>    8.8358    1.0001 </r>
       <r>    9.1048    1.0208 </r>
       <r>    9.4345    0.5016 </r>
       <r>    9.5251    0.1577 </r>
       <r>    9.8005   -0.0134 </r>
       <r>    9.9801   -0.0004 </r>
       <r>   10.1850   -0.0000 </r>
       <r>   10.2295   -0.0000 </r>
       <r>   10.3575   -0.0000 </r>
       <r>   10.7836   -0.0000 </r>
       <r>   10.9362   -0.0000 </r>
       <r>   11.0332   -0.0000 </r>
       <r>   11.3639   -0.0000 </r>
       <r>   11.4436   -0.0000 </r>
       <r>   11.5084   -0.0000 </r>
       <r>   11.9279   -0.0000 </r>
       <r>   12.0307   -0.0000 </r>
       <r>   12.1429   -0.0000 </r>
       <r>   12.2624   -0.0000 </r>
       <r>   12.4933   -0.0000 </r>
       <r>   12.5993   -0.0000 </r>
       <r>   12.6895   -0.0000 </r>
       <r>   12.7641   -0.0000 </r>
       <r>   12.9223   -0.0000 </r>
       <r>   13.1288   -0.0000 </r>
       <r>   13.3765   -0.0000 </r>
       <r>   13.5161   -0.0000 </r>
      </set>
      <set comment="kpoint 27">
       <r>   -2.5128    1.0000 </r>
       <r>   -1.8672    1.0000 </r>
       <r>   -1.1392    1.0000 </r>
       <r>   -0.3912    1.0000 </r>
       <r>   -0.2213    1.0000 </r>
       <r>    0.3253    1.0000 </r>
       <r>    0.4680    1.0000 </r>
       <r>    1.0583    1.0000 </r>
       <r>    1.4308    1.0000 </r>
       <r>    1.9063    1.0000 </r>
       <r>    2.3902    1.0000 </r>
       <r>    2.4961    1.0000 </r>
       <r>    2.8582    1.0000 </r>
       <r>    3.3586    1.0000 </r>
       <r>    3.6430    1.0000 </r>
       <r>    3.8623    1.0000 </r>
       <r>    4.0931    1.0000 </r>
       <r>    4.3194    1.0000 </r>
       <r>    4.5027    1.0000 </r>
       <r>    4.9454    1.0000 </r>
       <r>    5.0621    1.0000 </r>
       <r>    5.1432    1.0000 </r>
       <r>    5.3521    1.0000 </r>
       <r>    5.5639    1.0000 </r>
       <r>    5.6849    1.0000 </r>
       <r>    6.1630    1.0000 </r>
       <r>    6.2151    1.0000 </r>
       <r>    6.6302    1.0000 </r>
       <r>    6.7548    1.0000 </r>
       <r>    6.8560    1.0000 </r>
       <r>    7.1640    1.0000 </r>
       <r>    7.4166    1.0000 </r>
       <r>    7.6535    1.0000 </r>
       <r>    7.8368    1.0000 </r>
       <r>    8.0139    1.0000 </r>
       <r>    8.2418    1.0000 </r>
       <r>    8.4542    1.0000 </r>
       <r>    8.9381    1.0012 </r>
       <r>    9.1446    1.0298 </r>
       <r>    9.3231    0.9006 </r>
       <r>    9.5591    0.0707 </r>
       <r>    9.8344   -0.0081 </r>
       <r>   10.1477   -0.0000 </r>
       <r>   10.2110   -0.0000 </r>
       <r>   10.2908   -0.0000 </r>
       <r>   10.5332   -0.0000 </r>
       <r>   10.7711   -0.0000 </r>
       <r>   10.9128   -0.0000 </r>
       <r>   11.0053   -0.0000 </r>
       <r>   11.3040   -0.0000 </r>
       <r>   11.5557   -0.0000 </r>
       <r>   11.7147   -0.0000 </r>
       <r>   11.9023   -0.0000 </r>
       <r>   11.9802   -0.0000 </r>
       <r>   12.1308   -0.0000 </r>
       <r>   12.3578   -0.0000 </r>
       <r>   12.4625   -0.0000 </r>
       <r>   12.5794   -0.0000 </r>
       <r>   12.6803   -0.0000 </r>
       <r>   12.8325   -0.0000 </r>
       <r>   12.9351   -0.0000 </r>
       <r>   13.1226   -0.0000 </r>
       <r>   13.1939   -0.0000 </r>
       <r>   13.3758   -0.0000 </r>
      </set>
      <set comment="kpoint 28">
       <r>   -2.4021    1.0000 </r>
       <r>   -2.0716    1.0000 </r>
       <r>   -1.0472    1.0000 </r>
       <r>   -0.5605    1.0000 </r>
       <r>   -0.0970    1.0000 </r>
       <r>    0.3546    1.0000 </r>
       <r>    0.6660    1.0000 </r>
       <r>    1.1107    1.0000 </r>
       <r>    1.3376    1.0000 </r>
       <r>    1.8623    1.0000 </r>
       <r>    2.2495    1.0000 </r>
       <r>    2.4136    1.0000 </r>
       <r>    2.9298    1.0000 </r>
       <r>    3.4511    1.0000 </r>
       <r>    3.6285    1.0000 </r>
       <r>    3.7848    1.0000 </r>
       <r>    3.9434    1.0000 </r>
       <r>    4.3972    1.0000 </r>
       <r>    4.6037    1.0000 </r>
       <r>    4.8848    1.0000 </r>
       <r>    5.0378    1.0000 </r>
       <r>    5.1992    1.0000 </r>
       <r>    5.2869    1.0000 </r>
       <r>    5.5987    1.0000 </r>
       <r>    5.7216    1.0000 </r>
       <r>    6.1213    1.0000 </r>
       <r>    6.2949    1.0000 </r>
       <r>    6.5786    1.0000 </r>
       <r>    6.6806    1.0000 </r>
       <r>    6.9399    1.0000 </r>
       <r>    7.1921    1.0000 </r>
       <r>    7.5104    1.0000 </r>
       <r>    7.5692    1.0000 </r>
       <r>    7.8645    1.0000 </r>
       <r>    8.0835    1.0000 </r>
       <r>    8.2261    1.0000 </r>
       <r>    8.3864    1.0000 </r>
       <r>    9.0748    1.0144 </r>
       <r>    9.2533    1.0127 </r>
       <r>    9.4395    0.4805 </r>
       <r>    9.5630    0.0625 </r>
       <r>    9.8249   -0.0094 </r>
       <r>    9.9664   -0.0006 </r>
       <r>   10.2315   -0.0000 </r>
       <r>   10.3511   -0.0000 </r>
       <r>   10.5552   -0.0000 </r>
       <r>   10.6651   -0.0000 </r>
       <r>   10.7946   -0.0000 </r>
       <r>   11.1601   -0.0000 </r>
       <r>   11.3624   -0.0000 </r>
       <r>   11.4366   -0.0000 </r>
       <r>   11.6255   -0.0000 </r>
       <r>   11.7293   -0.0000 </r>
       <r>   11.9813   -0.0000 </r>
       <r>   12.0624   -0.0000 </r>
       <r>   12.3194   -0.0000 </r>
       <r>   12.3636   -0.0000 </r>
       <r>   12.5125   -0.0000 </r>
       <r>   12.7014   -0.0000 </r>
       <r>   12.7952   -0.0000 </r>
       <r>   12.9266   -0.0000 </r>
       <r>   13.1534   -0.0000 </r>
       <r>   13.3236   -0.0000 </r>
       <r>   13.4880   -0.0000 </r>
      </set>
      <set comment="kpoint 29">
       <r>   -2.8448    1.0000 </r>
       <r>   -1.4213    1.0000 </r>
       <r>   -0.7824    1.0000 </r>
       <r>   -0.3552    1.0000 </r>
       <r>    0.0141    1.0000 </r>
       <r>    0.3254    1.0000 </r>
       <r>    0.5919    1.0000 </r>
       <r>    0.8482    1.0000 </r>
       <r>    1.2241    1.0000 </r>
       <r>    1.4652    1.0000 </r>
       <r>    1.8617    1.0000 </r>
       <r>    2.1470    1.0000 </r>
       <r>    2.4559    1.0000 </r>
       <r>    2.9270    1.0000 </r>
       <r>    3.2024    1.0000 </r>
       <r>    3.5955    1.0000 </r>
       <r>    4.2890    1.0000 </r>
       <r>    4.4728    1.0000 </r>
       <r>    4.7729    1.0000 </r>
       <r>    4.9919    1.0000 </r>
       <r>    5.4454    1.0000 </r>
       <r>    5.8201    1.0000 </r>
       <r>    5.9929    1.0000 </r>
       <r>    6.2650    1.0000 </r>
       <r>    6.4115    1.0000 </r>
       <r>    6.6371    1.0000 </r>
       <r>    6.8450    1.0000 </r>
       <r>    6.9829    1.0000 </r>
       <r>    7.0654    1.0000 </r>
       <r>    7.2644    1.0000 </r>
       <r>    7.4317    1.0000 </r>
       <r>    7.4749    1.0000 </r>
       <r>    7.6403    1.0000 </r>
       <r>    8.0271    1.0000 </r>
       <r>    8.0739    1.0000 </r>
       <r>    8.3162    1.0000 </r>
       <r>    8.4537    1.0000 </r>
       <r>    8.6687    1.0000 </r>
       <r>    8.9020    1.0005 </r>
       <r>    9.0415    1.0089 </r>
       <r>    9.1548    1.0318 </r>
       <r>    9.2219    1.0306 </r>
       <r>    9.3185    0.9117 </r>
       <r>    9.5163    0.1851 </r>
       <r>    9.7414   -0.0262 </r>
       <r>   10.0399   -0.0001 </r>
       <r>   10.2658   -0.0000 </r>
       <r>   10.3747   -0.0000 </r>
       <r>   10.5636   -0.0000 </r>
       <r>   10.7961   -0.0000 </r>
       <r>   10.9091   -0.0000 </r>
       <r>   11.1729   -0.0000 </r>
       <r>   11.2798   -0.0000 </r>
       <r>   11.4677   -0.0000 </r>
       <r>   11.5869   -0.0000 </r>
       <r>   11.7230   -0.0000 </r>
       <r>   12.0284   -0.0000 </r>
       <r>   12.3794   -0.0000 </r>
       <r>   12.4579   -0.0000 </r>
       <r>   12.8594   -0.0000 </r>
       <r>   12.9568   -0.0000 </r>
       <r>   13.2603   -0.0000 </r>
       <r>   13.5069   -0.0000 </r>
       <r>   13.8368   -0.0000 </r>
      </set>
      <set comment="kpoint 30">
       <r>   -2.8504    1.0000 </r>
       <r>   -1.3834    1.0000 </r>
       <r>   -0.7859    1.0000 </r>
       <r>   -0.3492    1.0000 </r>
       <r>   -0.0558    1.0000 </r>
       <r>    0.1708    1.0000 </r>
       <r>    0.6683    1.0000 </r>
       <r>    1.1516    1.0000 </r>
       <r>    1.2141    1.0000 </r>
       <r>    1.5722    1.0000 </r>
       <r>    1.7491    1.0000 </r>
       <r>    1.8215    1.0000 </r>
       <r>    2.4686    1.0000 </r>
       <r>    2.8489    1.0000 </r>
       <r>    3.4778    1.0000 </r>
       <r>    3.7367    1.0000 </r>
       <r>    4.0066    1.0000 </r>
       <r>    4.5568    1.0000 </r>
       <r>    4.6456    1.0000 </r>
       <r>    5.0845    1.0000 </r>
       <r>    5.5954    1.0000 </r>
       <r>    5.7433    1.0000 </r>
       <r>    6.0105    1.0000 </r>
       <r>    6.1811    1.0000 </r>
       <r>    6.4848    1.0000 </r>
       <r>    6.6415    1.0000 </r>
       <r>    6.9518    1.0000 </r>
       <r>    7.0356    1.0000 </r>
       <r>    7.1507    1.0000 </r>
       <r>    7.3320    1.0000 </r>
       <r>    7.4352    1.0000 </r>
       <r>    7.5303    1.0000 </r>
       <r>    7.6920    1.0000 </r>
       <r>    7.7968    1.0000 </r>
       <r>    7.9378    1.0000 </r>
       <r>    8.1877    1.0000 </r>
       <r>    8.3132    1.0000 </r>
       <r>    8.5851    1.0000 </r>
       <r>    8.7103    1.0000 </r>
       <r>    8.8740    1.0003 </r>
       <r>    9.1551    1.0318 </r>
       <r>    9.2786    0.9851 </r>
       <r>    9.4491    0.4398 </r>
       <r>    9.6349   -0.0252 </r>
       <r>    9.7497   -0.0242 </r>
       <r>   10.0157   -0.0002 </r>
       <r>   10.2504   -0.0000 </r>
       <r>   10.4569   -0.0000 </r>
       <r>   10.6299   -0.0000 </r>
       <r>   10.8552   -0.0000 </r>
       <r>   11.0154   -0.0000 </r>
       <r>   11.0868   -0.0000 </r>
       <r>   11.5056   -0.0000 </r>
       <r>   11.5535   -0.0000 </r>
       <r>   11.7111   -0.0000 </r>
       <r>   11.8858   -0.0000 </r>
       <r>   12.0526   -0.0000 </r>
       <r>   12.2100   -0.0000 </r>
       <r>   12.5206   -0.0000 </r>
       <r>   12.7442   -0.0000 </r>
       <r>   12.9946   -0.0000 </r>
       <r>   13.0540   -0.0000 </r>
       <r>   13.6017   -0.0000 </r>
       <r>   13.7790   -0.0000 </r>
      </set>
      <set comment="kpoint 31">
       <r>   -2.8570    1.0000 </r>
       <r>   -1.3009    1.0000 </r>
       <r>   -0.9047    1.0000 </r>
       <r>   -0.2996    1.0000 </r>
       <r>   -0.0292    1.0000 </r>
       <r>    0.2257    1.0000 </r>
       <r>    0.6151    1.0000 </r>
       <r>    0.8746    1.0000 </r>
       <r>    1.2411    1.0000 </r>
       <r>    1.4619    1.0000 </r>
       <r>    1.9823    1.0000 </r>
       <r>    2.0420    1.0000 </r>
       <r>    2.4473    1.0000 </r>
       <r>    2.9143    1.0000 </r>
       <r>    3.4187    1.0000 </r>
       <r>    3.6159    1.0000 </r>
       <r>    4.1260    1.0000 </r>
       <r>    4.3086    1.0000 </r>
       <r>    4.8484    1.0000 </r>
       <r>    5.1060    1.0000 </r>
       <r>    5.4416    1.0000 </r>
       <r>    5.7234    1.0000 </r>
       <r>    6.0623    1.0000 </r>
       <r>    6.1920    1.0000 </r>
       <r>    6.3692    1.0000 </r>
       <r>    6.6813    1.0000 </r>
       <r>    6.8679    1.0000 </r>
       <r>    6.9136    1.0000 </r>
       <r>    7.0624    1.0000 </r>
       <r>    7.2076    1.0000 </r>
       <r>    7.4924    1.0000 </r>
       <r>    7.6125    1.0000 </r>
       <r>    7.8204    1.0000 </r>
       <r>    7.9262    1.0000 </r>
       <r>    8.1377    1.0000 </r>
       <r>    8.2656    1.0000 </r>
       <r>    8.4366    1.0000 </r>
       <r>    8.6001    1.0000 </r>
       <r>    8.7497    1.0000 </r>
       <r>    9.0168    1.0059 </r>
       <r>    9.1176    1.0237 </r>
       <r>    9.2817    0.9808 </r>
       <r>    9.3604    0.7922 </r>
       <r>    9.5546    0.0805 </r>
       <r>    9.6935   -0.0348 </r>
       <r>    9.9211   -0.0016 </r>
       <r>   10.2551   -0.0000 </r>
       <r>   10.4579   -0.0000 </r>
       <r>   10.5519   -0.0000 </r>
       <r>   10.6805   -0.0000 </r>
       <r>   10.9545   -0.0000 </r>
       <r>   11.1657   -0.0000 </r>
       <r>   11.2912   -0.0000 </r>
       <r>   11.5063   -0.0000 </r>
       <r>   11.7409   -0.0000 </r>
       <r>   11.8334   -0.0000 </r>
       <r>   12.1991   -0.0000 </r>
       <r>   12.3380   -0.0000 </r>
       <r>   12.4616   -0.0000 </r>
       <r>   12.8058   -0.0000 </r>
       <r>   13.0114   -0.0000 </r>
       <r>   13.2909   -0.0000 </r>
       <r>   13.6133   -0.0000 </r>
       <r>   13.7502   -0.0000 </r>
      </set>
      <set comment="kpoint 32">
       <r>   -2.8601    1.0000 </r>
       <r>   -1.2598    1.0000 </r>
       <r>   -0.9246    1.0000 </r>
       <r>   -0.3289    1.0000 </r>
       <r>   -0.1105    1.0000 </r>
       <r>    0.2683    1.0000 </r>
       <r>    0.6979    1.0000 </r>
       <r>    0.8783    1.0000 </r>
       <r>    1.2004    1.0000 </r>
       <r>    1.6456    1.0000 </r>
       <r>    1.8255    1.0000 </r>
       <r>    2.0419    1.0000 </r>
       <r>    2.4094    1.0000 </r>
       <r>    2.7170    1.0000 </r>
       <r>    3.5820    1.0000 </r>
       <r>    3.8486    1.0000 </r>
       <r>    3.8831    1.0000 </r>
       <r>    4.6263    1.0000 </r>
       <r>    4.7497    1.0000 </r>
       <r>    4.9314    1.0000 </r>
       <r>    5.3509    1.0000 </r>
       <r>    5.7763    1.0000 </r>
       <r>    5.9085    1.0000 </r>
       <r>    6.3704    1.0000 </r>
       <r>    6.6325    1.0000 </r>
       <r>    6.7080    1.0000 </r>
       <r>    6.7915    1.0000 </r>
       <r>    6.8853    1.0000 </r>
       <r>    7.1841    1.0000 </r>
       <r>    7.2620    1.0000 </r>
       <r>    7.5111    1.0000 </r>
       <r>    7.6172    1.0000 </r>
       <r>    7.7191    1.0000 </r>
       <r>    7.7790    1.0000 </r>
       <r>    7.9682    1.0000 </r>
       <r>    8.1313    1.0000 </r>
       <r>    8.2651    1.0000 </r>
       <r>    8.4683    1.0000 </r>
       <r>    8.8310    1.0001 </r>
       <r>    9.0112    1.0054 </r>
       <r>    9.1466    1.0302 </r>
       <r>    9.3945    0.6671 </r>
       <r>    9.5469    0.0987 </r>
       <r>    9.6133   -0.0100 </r>
       <r>    9.6623   -0.0341 </r>
       <r>    9.9296   -0.0013 </r>
       <r>   10.1967   -0.0000 </r>
       <r>   10.4334   -0.0000 </r>
       <r>   10.6026   -0.0000 </r>
       <r>   10.9422   -0.0000 </r>
       <r>   11.0336   -0.0000 </r>
       <r>   11.2045   -0.0000 </r>
       <r>   11.2962   -0.0000 </r>
       <r>   11.5718   -0.0000 </r>
       <r>   11.6419   -0.0000 </r>
       <r>   11.8660   -0.0000 </r>
       <r>   12.1005   -0.0000 </r>
       <r>   12.2009   -0.0000 </r>
       <r>   12.5435   -0.0000 </r>
       <r>   12.7842   -0.0000 </r>
       <r>   12.9599   -0.0000 </r>
       <r>   13.0797   -0.0000 </r>
       <r>   13.5331   -0.0000 </r>
       <r>   13.7532   -0.0000 </r>
      </set>
      <set comment="kpoint 33">
       <r>   -2.8504    1.0000 </r>
       <r>   -1.3332    1.0000 </r>
       <r>   -0.8430    1.0000 </r>
       <r>   -0.4197    1.0000 </r>
       <r>   -0.0672    1.0000 </r>
       <r>    0.2761    1.0000 </r>
       <r>    0.6216    1.0000 </r>
       <r>    0.9302    1.0000 </r>
       <r>    1.4314    1.0000 </r>
       <r>    1.5430    1.0000 </r>
       <r>    1.9038    1.0000 </r>
       <r>    2.0294    1.0000 </r>
       <r>    2.2897    1.0000 </r>
       <r>    2.8707    1.0000 </r>
       <r>    3.3484    1.0000 </r>
       <r>    3.6306    1.0000 </r>
       <r>    4.1040    1.0000 </r>
       <r>    4.2459    1.0000 </r>
       <r>    5.0456    1.0000 </r>
       <r>    5.2252    1.0000 </r>
       <r>    5.3666    1.0000 </r>
       <r>    5.7401    1.0000 </r>
       <r>    6.0030    1.0000 </r>
       <r>    6.1001    1.0000 </r>
       <r>    6.4321    1.0000 </r>
       <r>    6.6201    1.0000 </r>
       <r>    6.6472    1.0000 </r>
       <r>    6.8254    1.0000 </r>
       <r>    7.1620    1.0000 </r>
       <r>    7.4062    1.0000 </r>
       <r>    7.5220    1.0000 </r>
       <r>    7.6513    1.0000 </r>
       <r>    7.7600    1.0000 </r>
       <r>    8.0248    1.0000 </r>
       <r>    8.0772    1.0000 </r>
       <r>    8.2795    1.0000 </r>
       <r>    8.5574    1.0000 </r>
       <r>    8.6416    1.0000 </r>
       <r>    8.8024    1.0000 </r>
       <r>    8.9928    1.0038 </r>
       <r>    9.1395    1.0287 </r>
       <r>    9.2867    0.9734 </r>
       <r>    9.4308    0.5170 </r>
       <r>    9.5591    0.0706 </r>
       <r>    9.6942   -0.0347 </r>
       <r>    9.9769   -0.0004 </r>
       <r>   10.2087   -0.0000 </r>
       <r>   10.2958   -0.0000 </r>
       <r>   10.5744   -0.0000 </r>
       <r>   10.6692   -0.0000 </r>
       <r>   10.8546   -0.0000 </r>
       <r>   11.1216   -0.0000 </r>
       <r>   11.4134   -0.0000 </r>
       <r>   11.4510   -0.0000 </r>
       <r>   11.6200   -0.0000 </r>
       <r>   11.8297   -0.0000 </r>
       <r>   12.0896   -0.0000 </r>
       <r>   12.2738   -0.0000 </r>
       <r>   12.5492   -0.0000 </r>
       <r>   12.7794   -0.0000 </r>
       <r>   13.0076   -0.0000 </r>
       <r>   13.2615   -0.0000 </r>
       <r>   13.5089   -0.0000 </r>
       <r>   13.7294   -0.0000 </r>
      </set>
      <set comment="kpoint 34">
       <r>   -2.8504    1.0000 </r>
       <r>   -1.3671    1.0000 </r>
       <r>   -0.7410    1.0000 </r>
       <r>   -0.5094    1.0000 </r>
       <r>   -0.0342    1.0000 </r>
       <r>    0.3067    1.0000 </r>
       <r>    0.7051    1.0000 </r>
       <r>    0.8678    1.0000 </r>
       <r>    1.2491    1.0000 </r>
       <r>    1.6413    1.0000 </r>
       <r>    1.7420    1.0000 </r>
       <r>    2.0203    1.0000 </r>
       <r>    2.5433    1.0000 </r>
       <r>    2.8176    1.0000 </r>
       <r>    3.4873    1.0000 </r>
       <r>    3.6189    1.0000 </r>
       <r>    3.8198    1.0000 </r>
       <r>    4.5486    1.0000 </r>
       <r>    4.7841    1.0000 </r>
       <r>    4.9758    1.0000 </r>
       <r>    5.6250    1.0000 </r>
       <r>    5.7555    1.0000 </r>
       <r>    5.9947    1.0000 </r>
       <r>    6.3871    1.0000 </r>
       <r>    6.4522    1.0000 </r>
       <r>    6.6292    1.0000 </r>
       <r>    6.8346    1.0000 </r>
       <r>    6.8838    1.0000 </r>
       <r>    7.0724    1.0000 </r>
       <r>    7.2916    1.0000 </r>
       <r>    7.4833    1.0000 </r>
       <r>    7.6168    1.0000 </r>
       <r>    7.6978    1.0000 </r>
       <r>    7.9061    1.0000 </r>
       <r>    8.1385    1.0000 </r>
       <r>    8.2114    1.0000 </r>
       <r>    8.4160    1.0000 </r>
       <r>    8.6427    1.0000 </r>
       <r>    8.7261    1.0000 </r>
       <r>    8.8321    1.0001 </r>
       <r>    9.0992    1.0195 </r>
       <r>    9.2703    0.9957 </r>
       <r>    9.4884    0.2820 </r>
       <r>    9.6649   -0.0345 </r>
       <r>    9.6932   -0.0348 </r>
       <r>    9.9380   -0.0011 </r>
       <r>   10.2168   -0.0000 </r>
       <r>   10.4621   -0.0000 </r>
       <r>   10.5764   -0.0000 </r>
       <r>   10.7569   -0.0000 </r>
       <r>   10.9711   -0.0000 </r>
       <r>   11.1376   -0.0000 </r>
       <r>   11.2657   -0.0000 </r>
       <r>   11.4171   -0.0000 </r>
       <r>   11.7682   -0.0000 </r>
       <r>   11.9732   -0.0000 </r>
       <r>   12.1363   -0.0000 </r>
       <r>   12.2479   -0.0000 </r>
       <r>   12.5699   -0.0000 </r>
       <r>   12.8148   -0.0000 </r>
       <r>   13.0227   -0.0000 </r>
       <r>   13.3484   -0.0000 </r>
       <r>   13.3939   -0.0000 </r>
       <r>   13.5879   -0.0000 </r>
      </set>
      <set comment="kpoint 35">
       <r>   -2.8426    1.0000 </r>
       <r>   -1.4434    1.0000 </r>
       <r>   -0.6681    1.0000 </r>
       <r>   -0.4212    1.0000 </r>
       <r>   -0.1223    1.0000 </r>
       <r>    0.2922    1.0000 </r>
       <r>    0.6331    1.0000 </r>
       <r>    1.0273    1.0000 </r>
       <r>    1.3679    1.0000 </r>
       <r>    1.4504    1.0000 </r>
       <r>    1.6822    1.0000 </r>
       <r>    2.0452    1.0000 </r>
       <r>    2.5978    1.0000 </r>
       <r>    2.8575    1.0000 </r>
       <r>    3.3085    1.0000 </r>
       <r>    3.6591    1.0000 </r>
       <r>    3.7333    1.0000 </r>
       <r>    4.6570    1.0000 </r>
       <r>    4.8905    1.0000 </r>
       <r>    5.1044    1.0000 </r>
       <r>    5.5124    1.0000 </r>
       <r>    5.7920    1.0000 </r>
       <r>    5.9674    1.0000 </r>
       <r>    6.3315    1.0000 </r>
       <r>    6.4416    1.0000 </r>
       <r>    6.5908    1.0000 </r>
       <r>    6.7944    1.0000 </r>
       <r>    6.9019    1.0000 </r>
       <r>    7.1344    1.0000 </r>
       <r>    7.3058    1.0000 </r>
       <r>    7.3840    1.0000 </r>
       <r>    7.5366    1.0000 </r>
       <r>    7.6929    1.0000 </r>
       <r>    7.9472    1.0000 </r>
       <r>    8.0650    1.0000 </r>
       <r>    8.3282    1.0000 </r>
       <r>    8.4646    1.0000 </r>
       <r>    8.6632    1.0000 </r>
       <r>    8.7853    1.0000 </r>
       <r>    8.8965    1.0005 </r>
       <r>    9.0972    1.0191 </r>
       <r>    9.1912    1.0355 </r>
       <r>    9.4240    0.5460 </r>
       <r>    9.5957    0.0088 </r>
       <r>    9.9272   -0.0014 </r>
       <r>   10.0637   -0.0000 </r>
       <r>   10.1768   -0.0000 </r>
       <r>   10.3868   -0.0000 </r>
       <r>   10.5718   -0.0000 </r>
       <r>   10.7519   -0.0000 </r>
       <r>   10.8754   -0.0000 </r>
       <r>   11.0518   -0.0000 </r>
       <r>   11.2971   -0.0000 </r>
       <r>   11.4935   -0.0000 </r>
       <r>   11.6558   -0.0000 </r>
       <r>   11.9450   -0.0000 </r>
       <r>   12.0737   -0.0000 </r>
       <r>   12.2147   -0.0000 </r>
       <r>   12.5758   -0.0000 </r>
       <r>   12.8853   -0.0000 </r>
       <r>   12.9672   -0.0000 </r>
       <r>   13.3163   -0.0000 </r>
       <r>   13.4602   -0.0000 </r>
       <r>   13.5150   -0.0000 </r>
      </set>
      <set comment="kpoint 36">
       <r>   -2.8489    1.0000 </r>
       <r>   -1.3833    1.0000 </r>
       <r>   -0.7365    1.0000 </r>
       <r>   -0.4450    1.0000 </r>
       <r>   -0.0978    1.0000 </r>
       <r>    0.1797    1.0000 </r>
       <r>    0.8103    1.0000 </r>
       <r>    1.1391    1.0000 </r>
       <r>    1.2820    1.0000 </r>
       <r>    1.4569    1.0000 </r>
       <r>    1.6149    1.0000 </r>
       <r>    2.1363    1.0000 </r>
       <r>    2.3609    1.0000 </r>
       <r>    2.7134    1.0000 </r>
       <r>    3.4969    1.0000 </r>
       <r>    3.7745    1.0000 </r>
       <r>    3.8403    1.0000 </r>
       <r>    4.6963    1.0000 </r>
       <r>    4.8612    1.0000 </r>
       <r>    5.1073    1.0000 </r>
       <r>    5.4481    1.0000 </r>
       <r>    5.7975    1.0000 </r>
       <r>    6.0054    1.0000 </r>
       <r>    6.2139    1.0000 </r>
       <r>    6.3850    1.0000 </r>
       <r>    6.5261    1.0000 </r>
       <r>    6.7926    1.0000 </r>
       <r>    6.9429    1.0000 </r>
       <r>    7.1431    1.0000 </r>
       <r>    7.2214    1.0000 </r>
       <r>    7.3984    1.0000 </r>
       <r>    7.6361    1.0000 </r>
       <r>    7.7198    1.0000 </r>
       <r>    7.8411    1.0000 </r>
       <r>    8.1080    1.0000 </r>
       <r>    8.2219    1.0000 </r>
       <r>    8.2964    1.0000 </r>
       <r>    8.6252    1.0000 </r>
       <r>    8.9617    1.0021 </r>
       <r>    9.0371    1.0083 </r>
       <r>    9.1524    1.0313 </r>
       <r>    9.3321    0.8777 </r>
       <r>    9.4870    0.2874 </r>
       <r>    9.5746    0.0405 </r>
       <r>    9.7868   -0.0160 </r>
       <r>    9.8699   -0.0044 </r>
       <r>   10.1417   -0.0000 </r>
       <r>   10.4034   -0.0000 </r>
       <r>   10.6663   -0.0000 </r>
       <r>   10.7986   -0.0000 </r>
       <r>   11.0907   -0.0000 </r>
       <r>   11.1751   -0.0000 </r>
       <r>   11.2957   -0.0000 </r>
       <r>   11.5213   -0.0000 </r>
       <r>   11.6721   -0.0000 </r>
       <r>   11.8777   -0.0000 </r>
       <r>   12.0072   -0.0000 </r>
       <r>   12.0997   -0.0000 </r>
       <r>   12.4229   -0.0000 </r>
       <r>   12.8425   -0.0000 </r>
       <r>   12.9723   -0.0000 </r>
       <r>   13.1558   -0.0000 </r>
       <r>   13.4754   -0.0000 </r>
       <r>   13.8964   -0.0000 </r>
      </set>
      <set comment="kpoint 37">
       <r>   -2.8514    1.0000 </r>
       <r>   -1.3026    1.0000 </r>
       <r>   -0.8238    1.0000 </r>
       <r>   -0.5421    1.0000 </r>
       <r>   -0.0801    1.0000 </r>
       <r>    0.3114    1.0000 </r>
       <r>    0.7537    1.0000 </r>
       <r>    0.9579    1.0000 </r>
       <r>    1.3643    1.0000 </r>
       <r>    1.4357    1.0000 </r>
       <r>    1.9819    1.0000 </r>
       <r>    2.1459    1.0000 </r>
       <r>    2.2035    1.0000 </r>
       <r>    2.7648    1.0000 </r>
       <r>    3.3424    1.0000 </r>
       <r>    3.7033    1.0000 </r>
       <r>    4.1339    1.0000 </r>
       <r>    4.3376    1.0000 </r>
       <r>    4.8966    1.0000 </r>
       <r>    5.1889    1.0000 </r>
       <r>    5.3236    1.0000 </r>
       <r>    5.6490    1.0000 </r>
       <r>    5.9339    1.0000 </r>
       <r>    6.2521    1.0000 </r>
       <r>    6.5171    1.0000 </r>
       <r>    6.6778    1.0000 </r>
       <r>    6.7603    1.0000 </r>
       <r>    6.9971    1.0000 </r>
       <r>    7.1823    1.0000 </r>
       <r>    7.2429    1.0000 </r>
       <r>    7.3775    1.0000 </r>
       <r>    7.6097    1.0000 </r>
       <r>    7.7516    1.0000 </r>
       <r>    7.8745    1.0000 </r>
       <r>    8.0352    1.0000 </r>
       <r>    8.3807    1.0000 </r>
       <r>    8.5376    1.0000 </r>
       <r>    8.7436    1.0000 </r>
       <r>    8.8546    1.0002 </r>
       <r>    8.9923    1.0038 </r>
       <r>    9.1856    1.0354 </r>
       <r>    9.2891    0.9696 </r>
       <r>    9.4054    0.6232 </r>
       <r>    9.4668    0.3667 </r>
       <r>    9.7519   -0.0238 </r>
       <r>    9.9901   -0.0003 </r>
       <r>   10.0701   -0.0000 </r>
       <r>   10.3787   -0.0000 </r>
       <r>   10.6395   -0.0000 </r>
       <r>   10.8064   -0.0000 </r>
       <r>   10.8656   -0.0000 </r>
       <r>   11.0885   -0.0000 </r>
       <r>   11.2746   -0.0000 </r>
       <r>   11.4489   -0.0000 </r>
       <r>   11.5597   -0.0000 </r>
       <r>   11.8683   -0.0000 </r>
       <r>   12.0919   -0.0000 </r>
       <r>   12.3520   -0.0000 </r>
       <r>   12.5049   -0.0000 </r>
       <r>   12.8941   -0.0000 </r>
       <r>   13.0806   -0.0000 </r>
       <r>   13.2536   -0.0000 </r>
       <r>   13.3618   -0.0000 </r>
       <r>   13.6814   -0.0000 </r>
      </set>
      <set comment="kpoint 38">
       <r>   -2.8563    1.0000 </r>
       <r>   -1.2499    1.0000 </r>
       <r>   -0.9063    1.0000 </r>
       <r>   -0.4639    1.0000 </r>
       <r>   -0.1092    1.0000 </r>
       <r>    0.2519    1.0000 </r>
       <r>    0.7161    1.0000 </r>
       <r>    1.1494    1.0000 </r>
       <r>    1.3079    1.0000 </r>
       <r>    1.4981    1.0000 </r>
       <r>    1.7533    1.0000 </r>
       <r>    2.1352    1.0000 </r>
       <r>    2.3094    1.0000 </r>
       <r>    2.6240    1.0000 </r>
       <r>    3.5381    1.0000 </r>
       <r>    3.7520    1.0000 </r>
       <r>    4.0509    1.0000 </r>
       <r>    4.4527    1.0000 </r>
       <r>    4.8180    1.0000 </r>
       <r>    5.0433    1.0000 </r>
       <r>    5.5492    1.0000 </r>
       <r>    5.7704    1.0000 </r>
       <r>    5.8917    1.0000 </r>
       <r>    6.2339    1.0000 </r>
       <r>    6.4118    1.0000 </r>
       <r>    6.6363    1.0000 </r>
       <r>    6.8176    1.0000 </r>
       <r>    6.9147    1.0000 </r>
       <r>    7.1253    1.0000 </r>
       <r>    7.2841    1.0000 </r>
       <r>    7.4118    1.0000 </r>
       <r>    7.5465    1.0000 </r>
       <r>    7.6327    1.0000 </r>
       <r>    7.9080    1.0000 </r>
       <r>    8.1472    1.0000 </r>
       <r>    8.3114    1.0000 </r>
       <r>    8.5278    1.0000 </r>
       <r>    8.5754    1.0000 </r>
       <r>    8.7448    1.0000 </r>
       <r>    8.9986    1.0043 </r>
       <r>    9.1933    1.0354 </r>
       <r>    9.3846    0.7054 </r>
       <r>    9.4595    0.3966 </r>
       <r>    9.6237   -0.0184 </r>
       <r>    9.7691   -0.0198 </r>
       <r>    9.8957   -0.0027 </r>
       <r>   10.1268   -0.0000 </r>
       <r>   10.4808   -0.0000 </r>
       <r>   10.7194   -0.0000 </r>
       <r>   10.8115   -0.0000 </r>
       <r>   10.8631   -0.0000 </r>
       <r>   11.0727   -0.0000 </r>
       <r>   11.2861   -0.0000 </r>
       <r>   11.5019   -0.0000 </r>
       <r>   11.6630   -0.0000 </r>
       <r>   11.8510   -0.0000 </r>
       <r>   12.0862   -0.0000 </r>
       <r>   12.1295   -0.0000 </r>
       <r>   12.5435   -0.0000 </r>
       <r>   12.7976   -0.0000 </r>
       <r>   12.9393   -0.0000 </r>
       <r>   13.1438   -0.0000 </r>
       <r>   13.5284   -0.0000 </r>
       <r>   13.7223   -0.0000 </r>
      </set>
      <set comment="kpoint 39">
       <r>   -2.8543    1.0000 </r>
       <r>   -1.3434    1.0000 </r>
       <r>   -0.8331    1.0000 </r>
       <r>   -0.3265    1.0000 </r>
       <r>   -0.0895    1.0000 </r>
       <r>    0.3283    1.0000 </r>
       <r>    0.5375    1.0000 </r>
       <r>    0.9132    1.0000 </r>
       <r>    1.2493    1.0000 </r>
       <r>    1.4587    1.0000 </r>
       <r>    1.9140    1.0000 </r>
       <r>    2.0843    1.0000 </r>
       <r>    2.6415    1.0000 </r>
       <r>    2.7427    1.0000 </r>
       <r>    3.3476    1.0000 </r>
       <r>    3.6349    1.0000 </r>
       <r>    3.9334    1.0000 </r>
       <r>    4.6928    1.0000 </r>
       <r>    4.8051    1.0000 </r>
       <r>    5.1006    1.0000 </r>
       <r>    5.4068    1.0000 </r>
       <r>    5.6818    1.0000 </r>
       <r>    6.0266    1.0000 </r>
       <r>    6.2418    1.0000 </r>
       <r>    6.4470    1.0000 </r>
       <r>    6.5828    1.0000 </r>
       <r>    6.7142    1.0000 </r>
       <r>    6.8926    1.0000 </r>
       <r>    7.0932    1.0000 </r>
       <r>    7.2278    1.0000 </r>
       <r>    7.3362    1.0000 </r>
       <r>    7.6609    1.0000 </r>
       <r>    7.8071    1.0000 </r>
       <r>    8.1041    1.0000 </r>
       <r>    8.1738    1.0000 </r>
       <r>    8.2825    1.0000 </r>
       <r>    8.4952    1.0000 </r>
       <r>    8.6392    1.0000 </r>
       <r>    8.8286    1.0001 </r>
       <r>    8.9460    1.0015 </r>
       <r>    9.1586    1.0324 </r>
       <r>    9.2841    0.9773 </r>
       <r>    9.3560    0.8065 </r>
       <r>    9.5444    0.1049 </r>
       <r>    9.6169   -0.0131 </r>
       <r>   10.0710   -0.0000 </r>
       <r>   10.2000   -0.0000 </r>
       <r>   10.3571   -0.0000 </r>
       <r>   10.5894   -0.0000 </r>
       <r>   10.6371   -0.0000 </r>
       <r>   10.9004   -0.0000 </r>
       <r>   11.2345   -0.0000 </r>
       <r>   11.4016   -0.0000 </r>
       <r>   11.4994   -0.0000 </r>
       <r>   11.6092   -0.0000 </r>
       <r>   11.8039   -0.0000 </r>
       <r>   11.9925   -0.0000 </r>
       <r>   12.1939   -0.0000 </r>
       <r>   12.6685   -0.0000 </r>
       <r>   12.8764   -0.0000 </r>
       <r>   13.0105   -0.0000 </r>
       <r>   13.2911   -0.0000 </r>
       <r>   13.4425   -0.0000 </r>
       <r>   13.6460   -0.0000 </r>
      </set>
      <set comment="kpoint 40">
       <r>   -2.8508    1.0000 </r>
       <r>   -1.3567    1.0000 </r>
       <r>   -0.7517    1.0000 </r>
       <r>   -0.5271    1.0000 </r>
       <r>   -0.0056    1.0000 </r>
       <r>    0.3170    1.0000 </r>
       <r>    0.6039    1.0000 </r>
       <r>    0.9541    1.0000 </r>
       <r>    1.2577    1.0000 </r>
       <r>    1.5879    1.0000 </r>
       <r>    1.8104    1.0000 </r>
       <r>    2.0874    1.0000 </r>
       <r>    2.3811    1.0000 </r>
       <r>    2.8511    1.0000 </r>
       <r>    3.4445    1.0000 </r>
       <r>    3.6310    1.0000 </r>
       <r>    3.8219    1.0000 </r>
       <r>    4.6952    1.0000 </r>
       <r>    4.8465    1.0000 </r>
       <r>    5.0979    1.0000 </r>
       <r>    5.5977    1.0000 </r>
       <r>    5.6873    1.0000 </r>
       <r>    6.0810    1.0000 </r>
       <r>    6.2629    1.0000 </r>
       <r>    6.3703    1.0000 </r>
       <r>    6.4071    1.0000 </r>
       <r>    6.5660    1.0000 </r>
       <r>    6.7942    1.0000 </r>
       <r>    7.1232    1.0000 </r>
       <r>    7.2504    1.0000 </r>
       <r>    7.5285    1.0000 </r>
       <r>    7.7410    1.0000 </r>
       <r>    7.8247    1.0000 </r>
       <r>    8.0098    1.0000 </r>
       <r>    8.1509    1.0000 </r>
       <r>    8.2914    1.0000 </r>
       <r>    8.4571    1.0000 </r>
       <r>    8.6281    1.0000 </r>
       <r>    8.8221    1.0001 </r>
       <r>    9.0665    1.0129 </r>
       <r>    9.1727    1.0344 </r>
       <r>    9.2158    1.0324 </r>
       <r>    9.4691    0.3572 </r>
       <r>    9.6026    0.0007 </r>
       <r>    9.8038   -0.0128 </r>
       <r>    9.9221   -0.0015 </r>
       <r>    9.9474   -0.0009 </r>
       <r>   10.4922   -0.0000 </r>
       <r>   10.5700   -0.0000 </r>
       <r>   10.8045   -0.0000 </r>
       <r>   10.9792   -0.0000 </r>
       <r>   11.1334   -0.0000 </r>
       <r>   11.2694   -0.0000 </r>
       <r>   11.4281   -0.0000 </r>
       <r>   11.5528   -0.0000 </r>
       <r>   11.7379   -0.0000 </r>
       <r>   11.9959   -0.0000 </r>
       <r>   12.3445   -0.0000 </r>
       <r>   12.6128   -0.0000 </r>
       <r>   12.9353   -0.0000 </r>
       <r>   13.0184   -0.0000 </r>
       <r>   13.2717   -0.0000 </r>
       <r>   13.4385   -0.0000 </r>
       <r>   13.6913   -0.0000 </r>
      </set>
      <set comment="kpoint 41">
       <r>   -2.6240    1.0000 </r>
       <r>   -1.4955    1.0000 </r>
       <r>   -1.1442    1.0000 </r>
       <r>   -0.8496    1.0000 </r>
       <r>   -0.2790    1.0000 </r>
       <r>    0.0908    1.0000 </r>
       <r>    1.0928    1.0000 </r>
       <r>    1.2660    1.0000 </r>
       <r>    1.7446    1.0000 </r>
       <r>    1.8571    1.0000 </r>
       <r>    2.4307    1.0000 </r>
       <r>    2.5759    1.0000 </r>
       <r>    2.6789    1.0000 </r>
       <r>    2.8215    1.0000 </r>
       <r>    3.2045    1.0000 </r>
       <r>    3.5568    1.0000 </r>
       <r>    3.6908    1.0000 </r>
       <r>    4.2573    1.0000 </r>
       <r>    4.6059    1.0000 </r>
       <r>    4.8268    1.0000 </r>
       <r>    4.9599    1.0000 </r>
       <r>    5.3166    1.0000 </r>
       <r>    5.5218    1.0000 </r>
       <r>    5.9351    1.0000 </r>
       <r>    6.0470    1.0000 </r>
       <r>    6.3428    1.0000 </r>
       <r>    6.5835    1.0000 </r>
       <r>    6.8984    1.0000 </r>
       <r>    7.0720    1.0000 </r>
       <r>    7.1999    1.0000 </r>
       <r>    7.3015    1.0000 </r>
       <r>    7.4363    1.0000 </r>
       <r>    7.8921    1.0000 </r>
       <r>    7.9458    1.0000 </r>
       <r>    8.1579    1.0000 </r>
       <r>    8.2957    1.0000 </r>
       <r>    8.5233    1.0000 </r>
       <r>    8.7620    1.0000 </r>
       <r>    8.9906    1.0037 </r>
       <r>    9.0945    1.0185 </r>
       <r>    9.2632    1.0035 </r>
       <r>    9.5315    0.1392 </r>
       <r>    9.6332   -0.0242 </r>
       <r>    9.7477   -0.0247 </r>
       <r>    9.9119   -0.0019 </r>
       <r>   10.0896   -0.0000 </r>
       <r>   10.1911   -0.0000 </r>
       <r>   10.4227   -0.0000 </r>
       <r>   11.2295   -0.0000 </r>
       <r>   11.3298   -0.0000 </r>
       <r>   11.5487   -0.0000 </r>
       <r>   11.6952   -0.0000 </r>
       <r>   11.8601   -0.0000 </r>
       <r>   12.0353   -0.0000 </r>
       <r>   12.3413   -0.0000 </r>
       <r>   12.4756   -0.0000 </r>
       <r>   12.6067   -0.0000 </r>
       <r>   12.6993   -0.0000 </r>
       <r>   12.7681   -0.0000 </r>
       <r>   13.0064   -0.0000 </r>
       <r>   13.1433   -0.0000 </r>
       <r>   13.4142   -0.0000 </r>
       <r>   13.4722   -0.0000 </r>
       <r>   13.6656   -0.0000 </r>
      </set>
      <set comment="kpoint 42">
       <r>   -2.6131    1.0000 </r>
       <r>   -1.5531    1.0000 </r>
       <r>   -1.2042    1.0000 </r>
       <r>   -0.7196    1.0000 </r>
       <r>   -0.1895    1.0000 </r>
       <r>    0.0588    1.0000 </r>
       <r>    0.8099    1.0000 </r>
       <r>    1.4552    1.0000 </r>
       <r>    1.8124    1.0000 </r>
       <r>    2.0102    1.0000 </r>
       <r>    2.2585    1.0000 </r>
       <r>    2.3697    1.0000 </r>
       <r>    2.6803    1.0000 </r>
       <r>    2.9348    1.0000 </r>
       <r>    3.2745    1.0000 </r>
       <r>    3.4573    1.0000 </r>
       <r>    3.6315    1.0000 </r>
       <r>    4.4441    1.0000 </r>
       <r>    4.6628    1.0000 </r>
       <r>    4.7287    1.0000 </r>
       <r>    5.0457    1.0000 </r>
       <r>    5.3119    1.0000 </r>
       <r>    5.5171    1.0000 </r>
       <r>    5.9626    1.0000 </r>
       <r>    6.1477    1.0000 </r>
       <r>    6.2377    1.0000 </r>
       <r>    6.5516    1.0000 </r>
       <r>    6.7370    1.0000 </r>
       <r>    7.0354    1.0000 </r>
       <r>    7.1531    1.0000 </r>
       <r>    7.3741    1.0000 </r>
       <r>    7.6826    1.0000 </r>
       <r>    7.8058    1.0000 </r>
       <r>    7.9350    1.0000 </r>
       <r>    8.1640    1.0000 </r>
       <r>    8.3114    1.0000 </r>
       <r>    8.5951    1.0000 </r>
       <r>    8.7335    1.0000 </r>
       <r>    8.8536    1.0002 </r>
       <r>    9.0492    1.0100 </r>
       <r>    9.3632    0.7825 </r>
       <r>    9.4739    0.3382 </r>
       <r>    9.6213   -0.0166 </r>
       <r>    9.7182   -0.0311 </r>
       <r>    9.8835   -0.0034 </r>
       <r>   10.0994   -0.0000 </r>
       <r>   10.1817   -0.0000 </r>
       <r>   10.5213   -0.0000 </r>
       <r>   11.0939   -0.0000 </r>
       <r>   11.3205   -0.0000 </r>
       <r>   11.4758   -0.0000 </r>
       <r>   11.6624   -0.0000 </r>
       <r>   11.9134   -0.0000 </r>
       <r>   12.1554   -0.0000 </r>
       <r>   12.3482   -0.0000 </r>
       <r>   12.5385   -0.0000 </r>
       <r>   12.5680   -0.0000 </r>
       <r>   12.7560   -0.0000 </r>
       <r>   12.8767   -0.0000 </r>
       <r>   12.9724   -0.0000 </r>
       <r>   13.1768   -0.0000 </r>
       <r>   13.2763   -0.0000 </r>
       <r>   13.3892   -0.0000 </r>
       <r>   13.5508   -0.0000 </r>
      </set>
      <set comment="kpoint 43">
       <r>   -2.6335    1.0000 </r>
       <r>   -1.4368    1.0000 </r>
       <r>   -1.2603    1.0000 </r>
       <r>   -0.7036    1.0000 </r>
       <r>   -0.2890    1.0000 </r>
       <r>    0.0418    1.0000 </r>
       <r>    0.9197    1.0000 </r>
       <r>    1.4864    1.0000 </r>
       <r>    1.6464    1.0000 </r>
       <r>    2.0117    1.0000 </r>
       <r>    2.0899    1.0000 </r>
       <r>    2.5699    1.0000 </r>
       <r>    2.7703    1.0000 </r>
       <r>    2.9279    1.0000 </r>
       <r>    3.1496    1.0000 </r>
       <r>    3.4975    1.0000 </r>
       <r>    3.8651    1.0000 </r>
       <r>    4.1963    1.0000 </r>
       <r>    4.4673    1.0000 </r>
       <r>    4.9483    1.0000 </r>
       <r>    5.2249    1.0000 </r>
       <r>    5.4137    1.0000 </r>
       <r>    5.6290    1.0000 </r>
       <r>    5.9073    1.0000 </r>
       <r>    6.1782    1.0000 </r>
       <r>    6.2823    1.0000 </r>
       <r>    6.4446    1.0000 </r>
       <r>    6.7359    1.0000 </r>
       <r>    6.8686    1.0000 </r>
       <r>    7.0440    1.0000 </r>
       <r>    7.2337    1.0000 </r>
       <r>    7.5738    1.0000 </r>
       <r>    7.6512    1.0000 </r>
       <r>    7.8637    1.0000 </r>
       <r>    8.0921    1.0000 </r>
       <r>    8.4150    1.0000 </r>
       <r>    8.5951    1.0000 </r>
       <r>    8.7663    1.0000 </r>
       <r>    8.9744    1.0027 </r>
       <r>    9.1605    1.0328 </r>
       <r>    9.3085    0.9338 </r>
       <r>    9.5388    0.1192 </r>
       <r>    9.6314   -0.0232 </r>
       <r>    9.8201   -0.0101 </r>
       <r>    9.9877   -0.0003 </r>
       <r>   10.1691   -0.0000 </r>
       <r>   10.2998   -0.0000 </r>
       <r>   10.3986   -0.0000 </r>
       <r>   11.0986   -0.0000 </r>
       <r>   11.4798   -0.0000 </r>
       <r>   11.5652   -0.0000 </r>
       <r>   11.7016   -0.0000 </r>
       <r>   11.8999   -0.0000 </r>
       <r>   12.1303   -0.0000 </r>
       <r>   12.2738   -0.0000 </r>
       <r>   12.4429   -0.0000 </r>
       <r>   12.4987   -0.0000 </r>
       <r>   12.7091   -0.0000 </r>
       <r>   12.8092   -0.0000 </r>
       <r>   13.0600   -0.0000 </r>
       <r>   13.1347   -0.0000 </r>
       <r>   13.2055   -0.0000 </r>
       <r>   13.4295   -0.0000 </r>
       <r>   13.5192   -0.0000 </r>
      </set>
      <set comment="kpoint 44">
       <r>   -2.6223    1.0000 </r>
       <r>   -1.5334    1.0000 </r>
       <r>   -1.1617    1.0000 </r>
       <r>   -0.7455    1.0000 </r>
       <r>   -0.2948    1.0000 </r>
       <r>    0.1391    1.0000 </r>
       <r>    0.8667    1.0000 </r>
       <r>    1.3149    1.0000 </r>
       <r>    1.7112    1.0000 </r>
       <r>    2.1203    1.0000 </r>
       <r>    2.2831    1.0000 </r>
       <r>    2.4684    1.0000 </r>
       <r>    2.6505    1.0000 </r>
       <r>    2.9529    1.0000 </r>
       <r>    3.1717    1.0000 </r>
       <r>    3.3920    1.0000 </r>
       <r>    4.0188    1.0000 </r>
       <r>    4.1964    1.0000 </r>
       <r>    4.6099    1.0000 </r>
       <r>    4.8526    1.0000 </r>
       <r>    5.1390    1.0000 </r>
       <r>    5.2087    1.0000 </r>
       <r>    5.5044    1.0000 </r>
       <r>    5.9337    1.0000 </r>
       <r>    6.0316    1.0000 </r>
       <r>    6.3509    1.0000 </r>
       <r>    6.4955    1.0000 </r>
       <r>    6.7357    1.0000 </r>
       <r>    7.0001    1.0000 </r>
       <r>    7.1722    1.0000 </r>
       <r>    7.2831    1.0000 </r>
       <r>    7.5956    1.0000 </r>
       <r>    7.7900    1.0000 </r>
       <r>    7.9816    1.0000 </r>
       <r>    8.1564    1.0000 </r>
       <r>    8.4039    1.0000 </r>
       <r>    8.5299    1.0000 </r>
       <r>    8.8232    1.0001 </r>
       <r>    9.0294    1.0073 </r>
       <r>    9.2279    1.0284 </r>
       <r>    9.3505    0.8243 </r>
       <r>    9.3959    0.6616 </r>
       <r>    9.4990    0.2433 </r>
       <r>    9.7778   -0.0179 </r>
       <r>    9.8204   -0.0100 </r>
       <r>   10.0631   -0.0000 </r>
       <r>   10.1827   -0.0000 </r>
       <r>   10.3641   -0.0000 </r>
       <r>   11.2040   -0.0000 </r>
       <r>   11.3957   -0.0000 </r>
       <r>   11.6352   -0.0000 </r>
       <r>   11.7228   -0.0000 </r>
       <r>   11.9826   -0.0000 </r>
       <r>   12.0772   -0.0000 </r>
       <r>   12.2853   -0.0000 </r>
       <r>   12.4102   -0.0000 </r>
       <r>   12.5706   -0.0000 </r>
       <r>   12.7037   -0.0000 </r>
       <r>   12.8412   -0.0000 </r>
       <r>   13.0040   -0.0000 </r>
       <r>   13.1332   -0.0000 </r>
       <r>   13.2405   -0.0000 </r>
       <r>   13.3967   -0.0000 </r>
       <r>   13.6164   -0.0000 </r>
      </set>
      <set comment="kpoint 45">
       <r>   -2.6174    1.0000 </r>
       <r>   -1.6190    1.0000 </r>
       <r>   -1.0730    1.0000 </r>
       <r>   -0.6302    1.0000 </r>
       <r>   -0.3644    1.0000 </r>
       <r>    0.0071    1.0000 </r>
       <r>    1.0841    1.0000 </r>
       <r>    1.3543    1.0000 </r>
       <r>    1.6703    1.0000 </r>
       <r>    1.9450    1.0000 </r>
       <r>    2.0819    1.0000 </r>
       <r>    2.5380    1.0000 </r>
       <r>    2.7154    1.0000 </r>
       <r>    2.9324    1.0000 </r>
       <r>    3.1485    1.0000 </r>
       <r>    3.4025    1.0000 </r>
       <r>    4.0836    1.0000 </r>
       <r>    4.2391    1.0000 </r>
       <r>    4.5696    1.0000 </r>
       <r>    4.9800    1.0000 </r>
       <r>    5.2360    1.0000 </r>
       <r>    5.3644    1.0000 </r>
       <r>    5.5230    1.0000 </r>
       <r>    5.9963    1.0000 </r>
       <r>    6.0748    1.0000 </r>
       <r>    6.2502    1.0000 </r>
       <r>    6.4447    1.0000 </r>
       <r>    6.6310    1.0000 </r>
       <r>    6.9384    1.0000 </r>
       <r>    7.0878    1.0000 </r>
       <r>    7.2886    1.0000 </r>
       <r>    7.4367    1.0000 </r>
       <r>    7.6724    1.0000 </r>
       <r>    7.9150    1.0000 </r>
       <r>    8.1587    1.0000 </r>
       <r>    8.3693    1.0000 </r>
       <r>    8.5914    1.0000 </r>
       <r>    8.7555    1.0000 </r>
       <r>    8.9387    1.0013 </r>
       <r>    9.2734    0.9919 </r>
       <r>    9.3076    0.9355 </r>
       <r>    9.6040   -0.0009 </r>
       <r>    9.6821   -0.0354 </r>
       <r>    9.7687   -0.0199 </r>
       <r>    9.8221   -0.0098 </r>
       <r>   10.0941   -0.0000 </r>
       <r>   10.2001   -0.0000 </r>
       <r>   10.4055   -0.0000 </r>
       <r>   11.1660   -0.0000 </r>
       <r>   11.4258   -0.0000 </r>
       <r>   11.6636   -0.0000 </r>
       <r>   11.7947   -0.0000 </r>
       <r>   11.9163   -0.0000 </r>
       <r>   12.0282   -0.0000 </r>
       <r>   12.2810   -0.0000 </r>
       <r>   12.4868   -0.0000 </r>
       <r>   12.6242   -0.0000 </r>
       <r>   12.6924   -0.0000 </r>
       <r>   12.8730   -0.0000 </r>
       <r>   13.0034   -0.0000 </r>
       <r>   13.1816   -0.0000 </r>
       <r>   13.2775   -0.0000 </r>
       <r>   13.4183   -0.0000 </r>
       <r>   13.5056   -0.0000 </r>
      </set>
      <set comment="kpoint 46">
       <r>   -2.6005    1.0000 </r>
       <r>   -1.6557    1.0000 </r>
       <r>   -1.1175    1.0000 </r>
       <r>   -0.7191    1.0000 </r>
       <r>   -0.1172    1.0000 </r>
       <r>    0.0703    1.0000 </r>
       <r>    0.9298    1.0000 </r>
       <r>    1.2037    1.0000 </r>
       <r>    1.6256    1.0000 </r>
       <r>    1.9369    1.0000 </r>
       <r>    2.2888    1.0000 </r>
       <r>    2.5655    1.0000 </r>
       <r>    2.6547    1.0000 </r>
       <r>    3.0057    1.0000 </r>
       <r>    3.2898    1.0000 </r>
       <r>    3.5943    1.0000 </r>
       <r>    3.8046    1.0000 </r>
       <r>    4.1510    1.0000 </r>
       <r>    4.6523    1.0000 </r>
       <r>    4.7631    1.0000 </r>
       <r>    5.0011    1.0000 </r>
       <r>    5.1858    1.0000 </r>
       <r>    5.6918    1.0000 </r>
       <r>    5.9777    1.0000 </r>
       <r>    6.0995    1.0000 </r>
       <r>    6.3073    1.0000 </r>
       <r>    6.4766    1.0000 </r>
       <r>    6.7936    1.0000 </r>
       <r>    7.0043    1.0000 </r>
       <r>    7.3294    1.0000 </r>
       <r>    7.4299    1.0000 </r>
       <r>    7.5936    1.0000 </r>
       <r>    7.8193    1.0000 </r>
       <r>    7.9897    1.0000 </r>
       <r>    8.0756    1.0000 </r>
       <r>    8.3550    1.0000 </r>
       <r>    8.3983    1.0000 </r>
       <r>    8.6403    1.0000 </r>
       <r>    8.8667    1.0002 </r>
       <r>    9.0651    1.0126 </r>
       <r>    9.2456    1.0186 </r>
       <r>    9.3628    0.7840 </r>
       <r>    9.5949    0.0098 </r>
       <r>    9.7568   -0.0226 </r>
       <r>    9.9224   -0.0015 </r>
       <r>   10.1491   -0.0000 </r>
       <r>   10.2375   -0.0000 </r>
       <r>   10.6436   -0.0000 </r>
       <r>   11.0464   -0.0000 </r>
       <r>   11.1980   -0.0000 </r>
       <r>   11.5858   -0.0000 </r>
       <r>   11.7578   -0.0000 </r>
       <r>   11.9823   -0.0000 </r>
       <r>   12.2718   -0.0000 </r>
       <r>   12.3662   -0.0000 </r>
       <r>   12.4288   -0.0000 </r>
       <r>   12.5522   -0.0000 </r>
       <r>   12.6853   -0.0000 </r>
       <r>   12.8376   -0.0000 </r>
       <r>   13.0448   -0.0000 </r>
       <r>   13.1909   -0.0000 </r>
       <r>   13.2737   -0.0000 </r>
       <r>   13.4710   -0.0000 </r>
       <r>   13.5456   -0.0000 </r>
      </set>
      <set comment="kpoint 47">
       <r>   -2.6337    1.0000 </r>
       <r>   -1.4725    1.0000 </r>
       <r>   -1.2102    1.0000 </r>
       <r>   -0.7301    1.0000 </r>
       <r>   -0.2641    1.0000 </r>
       <r>    0.0992    1.0000 </r>
       <r>    0.8083    1.0000 </r>
       <r>    1.3805    1.0000 </r>
       <r>    1.7111    1.0000 </r>
       <r>    1.8979    1.0000 </r>
       <r>    2.2884    1.0000 </r>
       <r>    2.5175    1.0000 </r>
       <r>    2.8369    1.0000 </r>
       <r>    2.9921    1.0000 </r>
       <r>    3.2532    1.0000 </r>
       <r>    3.5055    1.0000 </r>
       <r>    3.6178    1.0000 </r>
       <r>    4.3694    1.0000 </r>
       <r>    4.6449    1.0000 </r>
       <r>    4.7840    1.0000 </r>
       <r>    5.1488    1.0000 </r>
       <r>    5.2078    1.0000 </r>
       <r>    5.6175    1.0000 </r>
       <r>    5.7767    1.0000 </r>
       <r>    6.0422    1.0000 </r>
       <r>    6.2588    1.0000 </r>
       <r>    6.5519    1.0000 </r>
       <r>    6.7497    1.0000 </r>
       <r>    7.0675    1.0000 </r>
       <r>    7.2161    1.0000 </r>
       <r>    7.4726    1.0000 </r>
       <r>    7.5942    1.0000 </r>
       <r>    7.6858    1.0000 </r>
       <r>    7.8278    1.0000 </r>
       <r>    8.1810    1.0000 </r>
       <r>    8.4457    1.0000 </r>
       <r>    8.5207    1.0000 </r>
       <r>    8.8324    1.0001 </r>
       <r>    8.9052    1.0006 </r>
       <r>    9.0470    1.0097 </r>
       <r>    9.2844    0.9768 </r>
       <r>    9.4805    0.3124 </r>
       <r>    9.5743    0.0411 </r>
       <r>    9.6892   -0.0351 </r>
       <r>    9.8929   -0.0028 </r>
       <r>   10.0769   -0.0000 </r>
       <r>   10.2570   -0.0000 </r>
       <r>   10.4182   -0.0000 </r>
       <r>   11.1021   -0.0000 </r>
       <r>   11.3090   -0.0000 </r>
       <r>   11.4565   -0.0000 </r>
       <r>   11.7386   -0.0000 </r>
       <r>   12.0780   -0.0000 </r>
       <r>   12.1246   -0.0000 </r>
       <r>   12.3393   -0.0000 </r>
       <r>   12.5620   -0.0000 </r>
       <r>   12.7093   -0.0000 </r>
       <r>   12.8349   -0.0000 </r>
       <r>   12.9375   -0.0000 </r>
       <r>   12.9899   -0.0000 </r>
       <r>   13.2063   -0.0000 </r>
       <r>   13.3776   -0.0000 </r>
       <r>   13.4794   -0.0000 </r>
       <r>   13.6171   -0.0000 </r>
      </set>
      <set comment="kpoint 48">
       <r>   -2.6204    1.0000 </r>
       <r>   -1.5449    1.0000 </r>
       <r>   -1.2226    1.0000 </r>
       <r>   -0.5453    1.0000 </r>
       <r>   -0.4123    1.0000 </r>
       <r>    0.1775    1.0000 </r>
       <r>    0.8592    1.0000 </r>
       <r>    1.2538    1.0000 </r>
       <r>    1.6304    1.0000 </r>
       <r>    2.0639    1.0000 </r>
       <r>    2.3430    1.0000 </r>
       <r>    2.4968    1.0000 </r>
       <r>    2.6885    1.0000 </r>
       <r>    2.9505    1.0000 </r>
       <r>    3.2314    1.0000 </r>
       <r>    3.4261    1.0000 </r>
       <r>    4.0307    1.0000 </r>
       <r>    4.1947    1.0000 </r>
       <r>    4.5110    1.0000 </r>
       <r>    4.7239    1.0000 </r>
       <r>    5.1480    1.0000 </r>
       <r>    5.3401    1.0000 </r>
       <r>    5.5809    1.0000 </r>
       <r>    5.9115    1.0000 </r>
       <r>    6.0843    1.0000 </r>
       <r>    6.3533    1.0000 </r>
       <r>    6.4609    1.0000 </r>
       <r>    6.8015    1.0000 </r>
       <r>    6.9010    1.0000 </r>
       <r>    7.1938    1.0000 </r>
       <r>    7.4215    1.0000 </r>
       <r>    7.6066    1.0000 </r>
       <r>    7.7347    1.0000 </r>
       <r>    7.9004    1.0000 </r>
       <r>    8.1303    1.0000 </r>
       <r>    8.2419    1.0000 </r>
       <r>    8.6310    1.0000 </r>
       <r>    8.8154    1.0001 </r>
       <r>    9.0276    1.0071 </r>
       <r>    9.1639    1.0333 </r>
       <r>    9.2632    1.0035 </r>
       <r>    9.4453    0.4557 </r>
       <r>    9.6318   -0.0235 </r>
       <r>    9.7081   -0.0329 </r>
       <r>    9.8583   -0.0054 </r>
       <r>   10.0430   -0.0001 </r>
       <r>   10.1578   -0.0000 </r>
       <r>   10.3348   -0.0000 </r>
       <r>   11.0917   -0.0000 </r>
       <r>   11.4315   -0.0000 </r>
       <r>   11.5739   -0.0000 </r>
       <r>   11.8153   -0.0000 </r>
       <r>   11.9373   -0.0000 </r>
       <r>   12.1885   -0.0000 </r>
       <r>   12.2797   -0.0000 </r>
       <r>   12.4993   -0.0000 </r>
       <r>   12.6358   -0.0000 </r>
       <r>   12.7136   -0.0000 </r>
       <r>   12.9000   -0.0000 </r>
       <r>   13.0307   -0.0000 </r>
       <r>   13.1151   -0.0000 </r>
       <r>   13.2714   -0.0000 </r>
       <r>   13.3346   -0.0000 </r>
       <r>   13.4994   -0.0000 </r>
      </set>
      <set comment="kpoint 49">
       <r>   -2.6399    1.0000 </r>
       <r>   -1.4319    1.0000 </r>
       <r>   -1.2774    1.0000 </r>
       <r>   -0.5585    1.0000 </r>
       <r>   -0.4024    1.0000 </r>
       <r>    0.0666    1.0000 </r>
       <r>    0.9756    1.0000 </r>
       <r>    1.2179    1.0000 </r>
       <r>    1.5815    1.0000 </r>
       <r>    2.1498    1.0000 </r>
       <r>    2.3287    1.0000 </r>
       <r>    2.4048    1.0000 </r>
       <r>    2.5878    1.0000 </r>
       <r>    3.1275    1.0000 </r>
       <r>    3.3023    1.0000 </r>
       <r>    3.3508    1.0000 </r>
       <r>    3.9630    1.0000 </r>
       <r>    4.1950    1.0000 </r>
       <r>    4.5708    1.0000 </r>
       <r>    4.8489    1.0000 </r>
       <r>    5.1163    1.0000 </r>
       <r>    5.4366    1.0000 </r>
       <r>    5.4785    1.0000 </r>
       <r>    5.9925    1.0000 </r>
       <r>    6.1658    1.0000 </r>
       <r>    6.3944    1.0000 </r>
       <r>    6.5336    1.0000 </r>
       <r>    6.6649    1.0000 </r>
       <r>    6.9177    1.0000 </r>
       <r>    7.1655    1.0000 </r>
       <r>    7.2719    1.0000 </r>
       <r>    7.4954    1.0000 </r>
       <r>    7.5583    1.0000 </r>
       <r>    7.8502    1.0000 </r>
       <r>    8.1278    1.0000 </r>
       <r>    8.2159    1.0000 </r>
       <r>    8.5553    1.0000 </r>
       <r>    8.7168    1.0000 </r>
       <r>    8.8900    1.0004 </r>
       <r>    9.1329    1.0272 </r>
       <r>    9.4740    0.3377 </r>
       <r>    9.5559    0.0777 </r>
       <r>    9.6823   -0.0354 </r>
       <r>    9.8532   -0.0059 </r>
       <r>    9.9525   -0.0008 </r>
       <r>   10.0390   -0.0001 </r>
       <r>   10.1673   -0.0000 </r>
       <r>   10.4010   -0.0000 </r>
       <r>   11.2684   -0.0000 </r>
       <r>   11.5131   -0.0000 </r>
       <r>   11.6514   -0.0000 </r>
       <r>   11.7764   -0.0000 </r>
       <r>   11.9104   -0.0000 </r>
       <r>   12.1801   -0.0000 </r>
       <r>   12.2689   -0.0000 </r>
       <r>   12.4406   -0.0000 </r>
       <r>   12.5736   -0.0000 </r>
       <r>   12.8271   -0.0000 </r>
       <r>   12.8827   -0.0000 </r>
       <r>   12.9878   -0.0000 </r>
       <r>   13.0453   -0.0000 </r>
       <r>   13.2810   -0.0000 </r>
       <r>   13.3988   -0.0000 </r>
       <r>   13.4426   -0.0000 </r>
      </set>
      <set comment="kpoint 50">
       <r>   -2.6215    1.0000 </r>
       <r>   -1.5452    1.0000 </r>
       <r>   -1.1504    1.0000 </r>
       <r>   -0.7406    1.0000 </r>
       <r>   -0.2928    1.0000 </r>
       <r>    0.1189    1.0000 </r>
       <r>    1.0157    1.0000 </r>
       <r>    1.1336    1.0000 </r>
       <r>    1.7127    1.0000 </r>
       <r>    2.1502    1.0000 </r>
       <r>    2.2463    1.0000 </r>
       <r>    2.5185    1.0000 </r>
       <r>    2.7303    1.0000 </r>
       <r>    2.9913    1.0000 </r>
       <r>    3.1681    1.0000 </r>
       <r>    3.2677    1.0000 </r>
       <r>    3.9887    1.0000 </r>
       <r>    4.2510    1.0000 </r>
       <r>    4.6136    1.0000 </r>
       <r>    4.7226    1.0000 </r>
       <r>    5.0000    1.0000 </r>
       <r>    5.3001    1.0000 </r>
       <r>    5.5075    1.0000 </r>
       <r>    6.0118    1.0000 </r>
       <r>    6.1514    1.0000 </r>
       <r>    6.2755    1.0000 </r>
       <r>    6.5643    1.0000 </r>
       <r>    6.8846    1.0000 </r>
       <r>    7.0888    1.0000 </r>
       <r>    7.2814    1.0000 </r>
       <r>    7.4480    1.0000 </r>
       <r>    7.5612    1.0000 </r>
       <r>    7.6555    1.0000 </r>
       <r>    7.8044    1.0000 </r>
       <r>    7.9730    1.0000 </r>
       <r>    8.2862    1.0000 </r>
       <r>    8.5360    1.0000 </r>
       <r>    8.7199    1.0000 </r>
       <r>    9.0308    1.0075 </r>
       <r>    9.1165    1.0235 </r>
       <r>    9.3548    0.8104 </r>
       <r>    9.5125    0.1972 </r>
       <r>    9.6151   -0.0116 </r>
       <r>    9.6814   -0.0354 </r>
       <r>    9.8973   -0.0026 </r>
       <r>   10.0177   -0.0001 </r>
       <r>   10.2227   -0.0000 </r>
       <r>   10.3293   -0.0000 </r>
       <r>   11.2401   -0.0000 </r>
       <r>   11.5004   -0.0000 </r>
       <r>   11.5987   -0.0000 </r>
       <r>   11.8130   -0.0000 </r>
       <r>   11.9733   -0.0000 </r>
       <r>   12.0321   -0.0000 </r>
       <r>   12.2278   -0.0000 </r>
       <r>   12.3272   -0.0000 </r>
       <r>   12.5595   -0.0000 </r>
       <r>   12.8170   -0.0000 </r>
       <r>   12.8434   -0.0000 </r>
       <r>   13.1318   -0.0000 </r>
       <r>   13.2558   -0.0000 </r>
       <r>   13.3472   -0.0000 </r>
       <r>   13.4457   -0.0000 </r>
       <r>   13.5888   -0.0000 </r>
      </set>
      <set comment="kpoint 51">
       <r>   -2.6204    1.0000 </r>
       <r>   -1.6081    1.0000 </r>
       <r>   -1.1027    1.0000 </r>
       <r>   -0.6384    1.0000 </r>
       <r>   -0.2718    1.0000 </r>
       <r>    0.0017    1.0000 </r>
       <r>    0.8830    1.0000 </r>
       <r>    1.5196    1.0000 </r>
       <r>    1.6925    1.0000 </r>
       <r>    1.8989    1.0000 </r>
       <r>    2.1162    1.0000 </r>
       <r>    2.3192    1.0000 </r>
       <r>    2.7579    1.0000 </r>
       <r>    3.0246    1.0000 </r>
       <r>    3.2674    1.0000 </r>
       <r>    3.4177    1.0000 </r>
       <r>    4.0153    1.0000 </r>
       <r>    4.3987    1.0000 </r>
       <r>    4.6059    1.0000 </r>
       <r>    4.7030    1.0000 </r>
       <r>    5.1398    1.0000 </r>
       <r>    5.3524    1.0000 </r>
       <r>    5.6325    1.0000 </r>
       <r>    5.8615    1.0000 </r>
       <r>    6.0631    1.0000 </r>
       <r>    6.4169    1.0000 </r>
       <r>    6.4837    1.0000 </r>
       <r>    6.7667    1.0000 </r>
       <r>    6.9241    1.0000 </r>
       <r>    7.1272    1.0000 </r>
       <r>    7.3121    1.0000 </r>
       <r>    7.5550    1.0000 </r>
       <r>    7.6990    1.0000 </r>
       <r>    7.9642    1.0000 </r>
       <r>    8.1167    1.0000 </r>
       <r>    8.2374    1.0000 </r>
       <r>    8.4632    1.0000 </r>
       <r>    8.6191    1.0000 </r>
       <r>    8.8503    1.0001 </r>
       <r>    9.1185    1.0239 </r>
       <r>    9.2895    0.9688 </r>
       <r>    9.5467    0.0991 </r>
       <r>    9.6979   -0.0343 </r>
       <r>    9.8057   -0.0124 </r>
       <r>    9.9360   -0.0011 </r>
       <r>   10.0964   -0.0000 </r>
       <r>   10.1986   -0.0000 </r>
       <r>   10.5415   -0.0000 </r>
       <r>   11.2134   -0.0000 </r>
       <r>   11.3400   -0.0000 </r>
       <r>   11.6407   -0.0000 </r>
       <r>   11.7961   -0.0000 </r>
       <r>   11.8565   -0.0000 </r>
       <r>   12.1900   -0.0000 </r>
       <r>   12.3681   -0.0000 </r>
       <r>   12.4464   -0.0000 </r>
       <r>   12.6987   -0.0000 </r>
       <r>   12.7864   -0.0000 </r>
       <r>   12.9278   -0.0000 </r>
       <r>   13.0375   -0.0000 </r>
       <r>   13.2125   -0.0000 </r>
       <r>   13.2998   -0.0000 </r>
       <r>   13.4660   -0.0000 </r>
       <r>   13.5219   -0.0000 </r>
      </set>
      <set comment="kpoint 52">
       <r>   -2.5950    1.0000 </r>
       <r>   -1.6878    1.0000 </r>
       <r>   -1.0819    1.0000 </r>
       <r>   -0.5895    1.0000 </r>
       <r>   -0.3890    1.0000 </r>
       <r>    0.1312    1.0000 </r>
       <r>    0.9530    1.0000 </r>
       <r>    1.3102    1.0000 </r>
       <r>    1.7363    1.0000 </r>
       <r>    2.0088    1.0000 </r>
       <r>    2.1855    1.0000 </r>
       <r>    2.5163    1.0000 </r>
       <r>    2.6372    1.0000 </r>
       <r>    3.0053    1.0000 </r>
       <r>    3.1344    1.0000 </r>
       <r>    3.3183    1.0000 </r>
       <r>    3.9892    1.0000 </r>
       <r>    4.3102    1.0000 </r>
       <r>    4.6689    1.0000 </r>
       <r>    4.7168    1.0000 </r>
       <r>    5.0076    1.0000 </r>
       <r>    5.3488    1.0000 </r>
       <r>    5.6133    1.0000 </r>
       <r>    6.0376    1.0000 </r>
       <r>    6.0699    1.0000 </r>
       <r>    6.2853    1.0000 </r>
       <r>    6.5489    1.0000 </r>
       <r>    6.8698    1.0000 </r>
       <r>    7.0325    1.0000 </r>
       <r>    7.2157    1.0000 </r>
       <r>    7.3527    1.0000 </r>
       <r>    7.4763    1.0000 </r>
       <r>    7.7683    1.0000 </r>
       <r>    7.8913    1.0000 </r>
       <r>    8.0326    1.0000 </r>
       <r>    8.2719    1.0000 </r>
       <r>    8.4430    1.0000 </r>
       <r>    8.8625    1.0002 </r>
       <r>    8.9967    1.0041 </r>
       <r>    9.1375    1.0282 </r>
       <r>    9.2804    0.9826 </r>
       <r>    9.4694    0.3560 </r>
       <r>    9.6417   -0.0283 </r>
       <r>    9.7624   -0.0213 </r>
       <r>    9.8452   -0.0067 </r>
       <r>    9.9620   -0.0006 </r>
       <r>   10.2396   -0.0000 </r>
       <r>   10.5166   -0.0000 </r>
       <r>   11.1262   -0.0000 </r>
       <r>   11.3674   -0.0000 </r>
       <r>   11.5450   -0.0000 </r>
       <r>   11.7161   -0.0000 </r>
       <r>   11.9641   -0.0000 </r>
       <r>   12.1677   -0.0000 </r>
       <r>   12.2777   -0.0000 </r>
       <r>   12.4855   -0.0000 </r>
       <r>   12.5228   -0.0000 </r>
       <r>   12.6363   -0.0000 </r>
       <r>   12.8478   -0.0000 </r>
       <r>   13.0813   -0.0000 </r>
       <r>   13.1730   -0.0000 </r>
       <r>   13.3069   -0.0000 </r>
       <r>   13.4579   -0.0000 </r>
       <r>   13.5475   -0.0000 </r>
      </set>
      <set comment="kpoint 53">
       <r>   -2.2469    1.0000 </r>
       <r>   -1.8761    1.0000 </r>
       <r>   -1.5111    1.0000 </r>
       <r>   -0.9911    1.0000 </r>
       <r>   -0.1918    1.0000 </r>
       <r>    0.4489    1.0000 </r>
       <r>    1.0136    1.0000 </r>
       <r>    1.2100    1.0000 </r>
       <r>    1.7407    1.0000 </r>
       <r>    2.1150    1.0000 </r>
       <r>    2.4812    1.0000 </r>
       <r>    2.7980    1.0000 </r>
       <r>    3.1072    1.0000 </r>
       <r>    3.2396    1.0000 </r>
       <r>    3.3715    1.0000 </r>
       <r>    3.6349    1.0000 </r>
       <r>    3.7663    1.0000 </r>
       <r>    4.2035    1.0000 </r>
       <r>    4.3584    1.0000 </r>
       <r>    4.7109    1.0000 </r>
       <r>    4.9055    1.0000 </r>
       <r>    4.9798    1.0000 </r>
       <r>    5.1685    1.0000 </r>
       <r>    5.5603    1.0000 </r>
       <r>    5.7547    1.0000 </r>
       <r>    5.9197    1.0000 </r>
       <r>    6.1136    1.0000 </r>
       <r>    6.2443    1.0000 </r>
       <r>    6.5264    1.0000 </r>
       <r>    6.6588    1.0000 </r>
       <r>    7.4470    1.0000 </r>
       <r>    7.7274    1.0000 </r>
       <r>    7.9708    1.0000 </r>
       <r>    8.1370    1.0000 </r>
       <r>    8.3431    1.0000 </r>
       <r>    8.5259    1.0000 </r>
       <r>    8.6851    1.0000 </r>
       <r>    8.9534    1.0017 </r>
       <r>    9.2286    1.0281 </r>
       <r>    9.4468    0.4494 </r>
       <r>    9.6673   -0.0348 </r>
       <r>    9.7184   -0.0311 </r>
       <r>   10.0204   -0.0001 </r>
       <r>   10.1946   -0.0000 </r>
       <r>   10.2492   -0.0000 </r>
       <r>   10.5092   -0.0000 </r>
       <r>   10.6734   -0.0000 </r>
       <r>   10.8007   -0.0000 </r>
       <r>   11.1285   -0.0000 </r>
       <r>   11.2193   -0.0000 </r>
       <r>   11.4429   -0.0000 </r>
       <r>   11.5994   -0.0000 </r>
       <r>   11.8335   -0.0000 </r>
       <r>   11.9939   -0.0000 </r>
       <r>   12.1489   -0.0000 </r>
       <r>   12.3824   -0.0000 </r>
       <r>   12.5176   -0.0000 </r>
       <r>   12.6232   -0.0000 </r>
       <r>   12.7281   -0.0000 </r>
       <r>   12.8642   -0.0000 </r>
       <r>   13.1208   -0.0000 </r>
       <r>   13.3360   -0.0000 </r>
       <r>   13.4943   -0.0000 </r>
       <r>   13.7747   -0.0000 </r>
      </set>
      <set comment="kpoint 54">
       <r>   -2.1791    1.0000 </r>
       <r>   -2.0130    1.0000 </r>
       <r>   -1.4784    1.0000 </r>
       <r>   -0.9166    1.0000 </r>
       <r>   -0.1510    1.0000 </r>
       <r>    0.4242    1.0000 </r>
       <r>    0.8221    1.0000 </r>
       <r>    1.2529    1.0000 </r>
       <r>    1.9745    1.0000 </r>
       <r>    2.1274    1.0000 </r>
       <r>    2.4024    1.0000 </r>
       <r>    2.6188    1.0000 </r>
       <r>    2.8995    1.0000 </r>
       <r>    3.1775    1.0000 </r>
       <r>    3.5089    1.0000 </r>
       <r>    3.7197    1.0000 </r>
       <r>    4.0284    1.0000 </r>
       <r>    4.2083    1.0000 </r>
       <r>    4.5278    1.0000 </r>
       <r>    4.6931    1.0000 </r>
       <r>    4.7483    1.0000 </r>
       <r>    5.0216    1.0000 </r>
       <r>    5.2382    1.0000 </r>
       <r>    5.4257    1.0000 </r>
       <r>    5.6106    1.0000 </r>
       <r>    5.8977    1.0000 </r>
       <r>    6.0461    1.0000 </r>
       <r>    6.2700    1.0000 </r>
       <r>    6.5749    1.0000 </r>
       <r>    6.8067    1.0000 </r>
       <r>    7.5543    1.0000 </r>
       <r>    7.7285    1.0000 </r>
       <r>    7.7965    1.0000 </r>
       <r>    8.0595    1.0000 </r>
       <r>    8.4270    1.0000 </r>
       <r>    8.6446    1.0000 </r>
       <r>    8.7847    1.0000 </r>
       <r>    8.9016    1.0005 </r>
       <r>    9.1660    1.0336 </r>
       <r>    9.3259    0.8936 </r>
       <r>    9.5256    0.1565 </r>
       <r>    9.7297   -0.0288 </r>
       <r>    9.9730   -0.0005 </r>
       <r>   10.1323   -0.0000 </r>
       <r>   10.3069   -0.0000 </r>
       <r>   10.5160   -0.0000 </r>
       <r>   10.6614   -0.0000 </r>
       <r>   10.8893   -0.0000 </r>
       <r>   10.9345   -0.0000 </r>
       <r>   11.0559   -0.0000 </r>
       <r>   11.4065   -0.0000 </r>
       <r>   11.6583   -0.0000 </r>
       <r>   11.9381   -0.0000 </r>
       <r>   12.0649   -0.0000 </r>
       <r>   12.2136   -0.0000 </r>
       <r>   12.3521   -0.0000 </r>
       <r>   12.5918   -0.0000 </r>
       <r>   12.6512   -0.0000 </r>
       <r>   12.9275   -0.0000 </r>
       <r>   13.0325   -0.0000 </r>
       <r>   13.3160   -0.0000 </r>
       <r>   13.3790   -0.0000 </r>
       <r>   13.4538   -0.0000 </r>
       <r>   13.6022   -0.0000 </r>
      </set>
      <set comment="kpoint 55">
       <r>   -2.3270    1.0000 </r>
       <r>   -1.7402    1.0000 </r>
       <r>   -1.5441    1.0000 </r>
       <r>   -0.9342    1.0000 </r>
       <r>   -0.1706    1.0000 </r>
       <r>    0.3727    1.0000 </r>
       <r>    0.7245    1.0000 </r>
       <r>    1.3296    1.0000 </r>
       <r>    1.7779    1.0000 </r>
       <r>    2.0868    1.0000 </r>
       <r>    2.5283    1.0000 </r>
       <r>    2.8965    1.0000 </r>
       <r>    3.0121    1.0000 </r>
       <r>    3.2353    1.0000 </r>
       <r>    3.4526    1.0000 </r>
       <r>    3.7506    1.0000 </r>
       <r>    3.9221    1.0000 </r>
       <r>    4.2358    1.0000 </r>
       <r>    4.3590    1.0000 </r>
       <r>    4.5847    1.0000 </r>
       <r>    4.7802    1.0000 </r>
       <r>    5.1481    1.0000 </r>
       <r>    5.3281    1.0000 </r>
       <r>    5.4331    1.0000 </r>
       <r>    5.6413    1.0000 </r>
       <r>    5.8623    1.0000 </r>
       <r>    6.1209    1.0000 </r>
       <r>    6.2756    1.0000 </r>
       <r>    6.3540    1.0000 </r>
       <r>    6.5608    1.0000 </r>
       <r>    7.3471    1.0000 </r>
       <r>    7.6655    1.0000 </r>
       <r>    7.9795    1.0000 </r>
       <r>    8.1557    1.0000 </r>
       <r>    8.3737    1.0000 </r>
       <r>    8.6396    1.0000 </r>
       <r>    8.7129    1.0000 </r>
       <r>    9.0500    1.0101 </r>
       <r>    9.3597    0.7946 </r>
       <r>    9.4499    0.4364 </r>
       <r>    9.6502   -0.0314 </r>
       <r>    9.7778   -0.0179 </r>
       <r>    9.9471   -0.0009 </r>
       <r>   10.0970   -0.0000 </r>
       <r>   10.2570   -0.0000 </r>
       <r>   10.4430   -0.0000 </r>
       <r>   10.6541   -0.0000 </r>
       <r>   10.9413   -0.0000 </r>
       <r>   11.0415   -0.0000 </r>
       <r>   11.2597   -0.0000 </r>
       <r>   11.4033   -0.0000 </r>
       <r>   11.5531   -0.0000 </r>
       <r>   11.7926   -0.0000 </r>
       <r>   11.8915   -0.0000 </r>
       <r>   12.2070   -0.0000 </r>
       <r>   12.2955   -0.0000 </r>
       <r>   12.4895   -0.0000 </r>
       <r>   12.6298   -0.0000 </r>
       <r>   12.9271   -0.0000 </r>
       <r>   13.1486   -0.0000 </r>
       <r>   13.1992   -0.0000 </r>
       <r>   13.3913   -0.0000 </r>
       <r>   13.5440   -0.0000 </r>
       <r>   13.7935   -0.0000 </r>
      </set>
      <set comment="kpoint 56">
       <r>   -2.3292    1.0000 </r>
       <r>   -1.7293    1.0000 </r>
       <r>   -1.5011    1.0000 </r>
       <r>   -1.0471    1.0000 </r>
       <r>   -0.0637    1.0000 </r>
       <r>    0.2866    1.0000 </r>
       <r>    0.7188    1.0000 </r>
       <r>    1.4188    1.0000 </r>
       <r>    1.8239    1.0000 </r>
       <r>    2.1106    1.0000 </r>
       <r>    2.5506    1.0000 </r>
       <r>    2.7817    1.0000 </r>
       <r>    2.9391    1.0000 </r>
       <r>    3.1493    1.0000 </r>
       <r>    3.4918    1.0000 </r>
       <r>    3.7315    1.0000 </r>
       <r>    4.1080    1.0000 </r>
       <r>    4.2333    1.0000 </r>
       <r>    4.4986    1.0000 </r>
       <r>    4.5795    1.0000 </r>
       <r>    4.7601    1.0000 </r>
       <r>    5.0580    1.0000 </r>
       <r>    5.2451    1.0000 </r>
       <r>    5.3434    1.0000 </r>
       <r>    5.4520    1.0000 </r>
       <r>    5.6997    1.0000 </r>
       <r>    6.1345    1.0000 </r>
       <r>    6.3158    1.0000 </r>
       <r>    6.5393    1.0000 </r>
       <r>    6.7811    1.0000 </r>
       <r>    7.4421    1.0000 </r>
       <r>    7.7948    1.0000 </r>
       <r>    7.9960    1.0000 </r>
       <r>    8.1048    1.0000 </r>
       <r>    8.4170    1.0000 </r>
       <r>    8.6118    1.0000 </r>
       <r>    8.6854    1.0000 </r>
       <r>    8.8246    1.0001 </r>
       <r>    9.3947    0.6663 </r>
       <r>    9.5684    0.0519 </r>
       <r>    9.6555   -0.0328 </r>
       <r>    9.7021   -0.0338 </r>
       <r>    9.9168   -0.0017 </r>
       <r>   10.1394   -0.0000 </r>
       <r>   10.1612   -0.0000 </r>
       <r>   10.5067   -0.0000 </r>
       <r>   10.6344   -0.0000 </r>
       <r>   10.8649   -0.0000 </r>
       <r>   11.0480   -0.0000 </r>
       <r>   11.2337   -0.0000 </r>
       <r>   11.4116   -0.0000 </r>
       <r>   11.6092   -0.0000 </r>
       <r>   11.8169   -0.0000 </r>
       <r>   11.9008   -0.0000 </r>
       <r>   12.0882   -0.0000 </r>
       <r>   12.2577   -0.0000 </r>
       <r>   12.5398   -0.0000 </r>
       <r>   12.8022   -0.0000 </r>
       <r>   12.9540   -0.0000 </r>
       <r>   13.0722   -0.0000 </r>
       <r>   13.2353   -0.0000 </r>
       <r>   13.3823   -0.0000 </r>
       <r>   13.5081   -0.0000 </r>
       <r>   13.6457   -0.0000 </r>
      </set>
      <set comment="kpoint 57">
       <r>   -2.2775    1.0000 </r>
       <r>   -1.7948    1.0000 </r>
       <r>   -1.5805    1.0000 </r>
       <r>   -0.9720    1.0000 </r>
       <r>   -0.0565    1.0000 </r>
       <r>    0.3861    1.0000 </r>
       <r>    0.7666    1.0000 </r>
       <r>    1.1799    1.0000 </r>
       <r>    1.8561    1.0000 </r>
       <r>    2.3520    1.0000 </r>
       <r>    2.5518    1.0000 </r>
       <r>    2.6459    1.0000 </r>
       <r>    2.9377    1.0000 </r>
       <r>    3.2882    1.0000 </r>
       <r>    3.3214    1.0000 </r>
       <r>    3.7633    1.0000 </r>
       <r>    3.9383    1.0000 </r>
       <r>    4.1338    1.0000 </r>
       <r>    4.3489    1.0000 </r>
       <r>    4.6487    1.0000 </r>
       <r>    4.7753    1.0000 </r>
       <r>    4.9654    1.0000 </r>
       <r>    5.3453    1.0000 </r>
       <r>    5.5521    1.0000 </r>
       <r>    5.7303    1.0000 </r>
       <r>    5.8555    1.0000 </r>
       <r>    6.0616    1.0000 </r>
       <r>    6.2835    1.0000 </r>
       <r>    6.5435    1.0000 </r>
       <r>    6.7172    1.0000 </r>
       <r>    7.3310    1.0000 </r>
       <r>    7.7276    1.0000 </r>
       <r>    7.9602    1.0000 </r>
       <r>    8.0837    1.0000 </r>
       <r>    8.3928    1.0000 </r>
       <r>    8.4873    1.0000 </r>
       <r>    8.8205    1.0001 </r>
       <r>    8.9860    1.0034 </r>
       <r>    9.2268    1.0288 </r>
       <r>    9.4363    0.4940 </r>
       <r>    9.5707    0.0475 </r>
       <r>    9.7708   -0.0194 </r>
       <r>    9.9337   -0.0012 </r>
       <r>   10.1139   -0.0000 </r>
       <r>   10.3943   -0.0000 </r>
       <r>   10.5448   -0.0000 </r>
       <r>   10.6535   -0.0000 </r>
       <r>   10.7186   -0.0000 </r>
       <r>   10.9542   -0.0000 </r>
       <r>   11.1818   -0.0000 </r>
       <r>   11.5226   -0.0000 </r>
       <r>   11.7657   -0.0000 </r>
       <r>   11.8547   -0.0000 </r>
       <r>   11.9448   -0.0000 </r>
       <r>   12.1492   -0.0000 </r>
       <r>   12.3233   -0.0000 </r>
       <r>   12.5861   -0.0000 </r>
       <r>   12.6585   -0.0000 </r>
       <r>   12.8837   -0.0000 </r>
       <r>   13.0351   -0.0000 </r>
       <r>   13.2128   -0.0000 </r>
       <r>   13.3987   -0.0000 </r>
       <r>   13.5673   -0.0000 </r>
       <r>   13.6232   -0.0000 </r>
      </set>
      <set comment="kpoint 58">
       <r>   -2.1597    1.0000 </r>
       <r>   -2.0380    1.0000 </r>
       <r>   -1.4580    1.0000 </r>
       <r>   -0.9220    1.0000 </r>
       <r>   -0.2380    1.0000 </r>
       <r>    0.4030    1.0000 </r>
       <r>    1.0397    1.0000 </r>
       <r>    1.3905    1.0000 </r>
       <r>    1.6335    1.0000 </r>
       <r>    2.1778    1.0000 </r>
       <r>    2.4822    1.0000 </r>
       <r>    2.5750    1.0000 </r>
       <r>    2.9196    1.0000 </r>
       <r>    3.0637    1.0000 </r>
       <r>    3.5666    1.0000 </r>
       <r>    3.7669    1.0000 </r>
       <r>    3.8847    1.0000 </r>
       <r>    4.2911    1.0000 </r>
       <r>    4.4536    1.0000 </r>
       <r>    4.6453    1.0000 </r>
       <r>    4.7486    1.0000 </r>
       <r>    5.0495    1.0000 </r>
       <r>    5.4723    1.0000 </r>
       <r>    5.6097    1.0000 </r>
       <r>    5.7052    1.0000 </r>
       <r>    5.8370    1.0000 </r>
       <r>    6.0464    1.0000 </r>
       <r>    6.1163    1.0000 </r>
       <r>    6.4354    1.0000 </r>
       <r>    6.6204    1.0000 </r>
       <r>    7.5937    1.0000 </r>
       <r>    7.7666    1.0000 </r>
       <r>    7.9356    1.0000 </r>
       <r>    8.1772    1.0000 </r>
       <r>    8.4097    1.0000 </r>
       <r>    8.4709    1.0000 </r>
       <r>    8.6643    1.0000 </r>
       <r>    8.9216    1.0009 </r>
       <r>    9.2530    1.0130 </r>
       <r>    9.3805    0.7208 </r>
       <r>    9.5898    0.0168 </r>
       <r>    9.6985   -0.0343 </r>
       <r>    9.9074   -0.0021 </r>
       <r>   10.0712   -0.0000 </r>
       <r>   10.2598   -0.0000 </r>
       <r>   10.5140   -0.0000 </r>
       <r>   10.7354   -0.0000 </r>
       <r>   10.9614   -0.0000 </r>
       <r>   11.0952   -0.0000 </r>
       <r>   11.2565   -0.0000 </r>
       <r>   11.5011   -0.0000 </r>
       <r>   11.6476   -0.0000 </r>
       <r>   11.8172   -0.0000 </r>
       <r>   11.9036   -0.0000 </r>
       <r>   12.0370   -0.0000 </r>
       <r>   12.2811   -0.0000 </r>
       <r>   12.5160   -0.0000 </r>
       <r>   12.6161   -0.0000 </r>
       <r>   12.8320   -0.0000 </r>
       <r>   13.1096   -0.0000 </r>
       <r>   13.2095   -0.0000 </r>
       <r>   13.3302   -0.0000 </r>
       <r>   13.5076   -0.0000 </r>
       <r>   13.7404   -0.0000 </r>
      </set>
      <set comment="kpoint 59">
       <r>   -2.2514    1.0000 </r>
       <r>   -1.8855    1.0000 </r>
       <r>   -1.4998    1.0000 </r>
       <r>   -0.9639    1.0000 </r>
       <r>   -0.1973    1.0000 </r>
       <r>    0.4283    1.0000 </r>
       <r>    0.8557    1.0000 </r>
       <r>    1.4814    1.0000 </r>
       <r>    1.6410    1.0000 </r>
       <r>    2.2701    1.0000 </r>
       <r>    2.4354    1.0000 </r>
       <r>    2.6855    1.0000 </r>
       <r>    2.8417    1.0000 </r>
       <r>    3.1193    1.0000 </r>
       <r>    3.4857    1.0000 </r>
       <r>    3.7874    1.0000 </r>
       <r>    3.9977    1.0000 </r>
       <r>    4.2204    1.0000 </r>
       <r>    4.4746    1.0000 </r>
       <r>    4.6103    1.0000 </r>
       <r>    4.6700    1.0000 </r>
       <r>    4.9630    1.0000 </r>
       <r>    5.4435    1.0000 </r>
       <r>    5.6404    1.0000 </r>
       <r>    5.6910    1.0000 </r>
       <r>    5.8564    1.0000 </r>
       <r>    5.9506    1.0000 </r>
       <r>    6.2624    1.0000 </r>
       <r>    6.5082    1.0000 </r>
       <r>    6.6188    1.0000 </r>
       <r>    7.5773    1.0000 </r>
       <r>    7.7466    1.0000 </r>
       <r>    7.9679    1.0000 </r>
       <r>    8.1762    1.0000 </r>
       <r>    8.3423    1.0000 </r>
       <r>    8.5083    1.0000 </r>
       <r>    8.7284    1.0000 </r>
       <r>    8.8255    1.0001 </r>
       <r>    9.2462    1.0182 </r>
       <r>    9.4451    0.4565 </r>
       <r>    9.5022    0.2320 </r>
       <r>    9.7290   -0.0289 </r>
       <r>    9.8853   -0.0033 </r>
       <r>   10.1784   -0.0000 </r>
       <r>   10.3498   -0.0000 </r>
       <r>   10.5632   -0.0000 </r>
       <r>   10.6311   -0.0000 </r>
       <r>   10.9080   -0.0000 </r>
       <r>   11.1092   -0.0000 </r>
       <r>   11.2625   -0.0000 </r>
       <r>   11.4265   -0.0000 </r>
       <r>   11.6265   -0.0000 </r>
       <r>   11.8642   -0.0000 </r>
       <r>   12.0387   -0.0000 </r>
       <r>   12.1396   -0.0000 </r>
       <r>   12.2442   -0.0000 </r>
       <r>   12.5062   -0.0000 </r>
       <r>   12.5576   -0.0000 </r>
       <r>   12.8013   -0.0000 </r>
       <r>   12.9763   -0.0000 </r>
       <r>   13.1746   -0.0000 </r>
       <r>   13.3384   -0.0000 </r>
       <r>   13.5228   -0.0000 </r>
       <r>   13.6853   -0.0000 </r>
      </set>
      <set comment="kpoint 60">
       <r>   -2.2074    1.0000 </r>
       <r>   -1.9661    1.0000 </r>
       <r>   -1.4605    1.0000 </r>
       <r>   -1.0324    1.0000 </r>
       <r>    0.0821    1.0000 </r>
       <r>    0.3757    1.0000 </r>
       <r>    0.7036    1.0000 </r>
       <r>    1.1947    1.0000 </r>
       <r>    1.9028    1.0000 </r>
       <r>    2.0706    1.0000 </r>
       <r>    2.5095    1.0000 </r>
       <r>    2.7705    1.0000 </r>
       <r>    3.0210    1.0000 </r>
       <r>    3.1451    1.0000 </r>
       <r>    3.5080    1.0000 </r>
       <r>    3.7791    1.0000 </r>
       <r>    3.9513    1.0000 </r>
       <r>    4.2242    1.0000 </r>
       <r>    4.4654    1.0000 </r>
       <r>    4.5520    1.0000 </r>
       <r>    4.7617    1.0000 </r>
       <r>    5.0031    1.0000 </r>
       <r>    5.1584    1.0000 </r>
       <r>    5.4095    1.0000 </r>
       <r>    5.6887    1.0000 </r>
       <r>    5.8071    1.0000 </r>
       <r>    6.0857    1.0000 </r>
       <r>    6.2795    1.0000 </r>
       <r>    6.5312    1.0000 </r>
       <r>    6.9187    1.0000 </r>
       <r>    7.6816    1.0000 </r>
       <r>    7.8079    1.0000 </r>
       <r>    7.9558    1.0000 </r>
       <r>    8.1755    1.0000 </r>
       <r>    8.2962    1.0000 </r>
       <r>    8.5209    1.0000 </r>
       <r>    8.6497    1.0000 </r>
       <r>    8.8098    1.0000 </r>
       <r>    9.0487    1.0099 </r>
       <r>    9.3803    0.7216 </r>
       <r>    9.5180    0.1797 </r>
       <r>    9.5838    0.0254 </r>
       <r>    9.9870   -0.0003 </r>
       <r>   10.2390   -0.0000 </r>
       <r>   10.4261   -0.0000 </r>
       <r>   10.4552   -0.0000 </r>
       <r>   10.5704   -0.0000 </r>
       <r>   10.8773   -0.0000 </r>
       <r>   11.1099   -0.0000 </r>
       <r>   11.2778   -0.0000 </r>
       <r>   11.3866   -0.0000 </r>
       <r>   11.7594   -0.0000 </r>
       <r>   11.9589   -0.0000 </r>
       <r>   12.0212   -0.0000 </r>
       <r>   12.2526   -0.0000 </r>
       <r>   12.2879   -0.0000 </r>
       <r>   12.5319   -0.0000 </r>
       <r>   12.8239   -0.0000 </r>
       <r>   12.8749   -0.0000 </r>
       <r>   12.9185   -0.0000 </r>
       <r>   13.1413   -0.0000 </r>
       <r>   13.2181   -0.0000 </r>
       <r>   13.5287   -0.0000 </r>
       <r>   13.5966   -0.0000 </r>
      </set>
      <set comment="kpoint 61">
       <r>   -2.3112    1.0000 </r>
       <r>   -1.7321    1.0000 </r>
       <r>   -1.5693    1.0000 </r>
       <r>   -0.9881    1.0000 </r>
       <r>   -0.1161    1.0000 </r>
       <r>    0.4168    1.0000 </r>
       <r>    0.6761    1.0000 </r>
       <r>    1.2906    1.0000 </r>
       <r>    1.8600    1.0000 </r>
       <r>    2.2839    1.0000 </r>
       <r>    2.5103    1.0000 </r>
       <r>    2.7098    1.0000 </r>
       <r>    2.8944    1.0000 </r>
       <r>    3.3088    1.0000 </r>
       <r>    3.4912    1.0000 </r>
       <r>    3.7052    1.0000 </r>
       <r>    3.9551    1.0000 </r>
       <r>    4.1746    1.0000 </r>
       <r>    4.4685    1.0000 </r>
       <r>    4.5882    1.0000 </r>
       <r>    4.7309    1.0000 </r>
       <r>    4.9469    1.0000 </r>
       <r>    5.1573    1.0000 </r>
       <r>    5.4796    1.0000 </r>
       <r>    5.6446    1.0000 </r>
       <r>    5.9174    1.0000 </r>
       <r>    6.1411    1.0000 </r>
       <r>    6.3711    1.0000 </r>
       <r>    6.5274    1.0000 </r>
       <r>    6.6413    1.0000 </r>
       <r>    7.4321    1.0000 </r>
       <r>    7.7194    1.0000 </r>
       <r>    7.9352    1.0000 </r>
       <r>    8.1052    1.0000 </r>
       <r>    8.2832    1.0000 </r>
       <r>    8.5957    1.0000 </r>
       <r>    8.7684    1.0000 </r>
       <r>    8.9277    1.0010 </r>
       <r>    9.2720    0.9936 </r>
       <r>    9.5564    0.0765 </r>
       <r>    9.6828   -0.0354 </r>
       <r>    9.7617   -0.0215 </r>
       <r>    9.8643   -0.0048 </r>
       <r>   10.1413   -0.0000 </r>
       <r>   10.3281   -0.0000 </r>
       <r>   10.5419   -0.0000 </r>
       <r>   10.7053   -0.0000 </r>
       <r>   10.8944   -0.0000 </r>
       <r>   11.0263   -0.0000 </r>
       <r>   11.1099   -0.0000 </r>
       <r>   11.5362   -0.0000 </r>
       <r>   11.5627   -0.0000 </r>
       <r>   11.8406   -0.0000 </r>
       <r>   11.8838   -0.0000 </r>
       <r>   12.1609   -0.0000 </r>
       <r>   12.2277   -0.0000 </r>
       <r>   12.3542   -0.0000 </r>
       <r>   12.6374   -0.0000 </r>
       <r>   12.9473   -0.0000 </r>
       <r>   13.0987   -0.0000 </r>
       <r>   13.2680   -0.0000 </r>
       <r>   13.3270   -0.0000 </r>
       <r>   13.5873   -0.0000 </r>
       <r>   13.7353   -0.0000 </r>
      </set>
      <set comment="kpoint 62">
       <r>   -2.3112    1.0000 </r>
       <r>   -1.7469    1.0000 </r>
       <r>   -1.5015    1.0000 </r>
       <r>   -1.0761    1.0000 </r>
       <r>   -0.0800    1.0000 </r>
       <r>    0.2731    1.0000 </r>
       <r>    0.9167    1.0000 </r>
       <r>    1.2278    1.0000 </r>
       <r>    1.9932    1.0000 </r>
       <r>    2.1199    1.0000 </r>
       <r>    2.4444    1.0000 </r>
       <r>    2.7056    1.0000 </r>
       <r>    2.9882    1.0000 </r>
       <r>    3.2560    1.0000 </r>
       <r>    3.5935    1.0000 </r>
       <r>    3.7681    1.0000 </r>
       <r>    3.9347    1.0000 </r>
       <r>    4.1131    1.0000 </r>
       <r>    4.3208    1.0000 </r>
       <r>    4.6256    1.0000 </r>
       <r>    4.7085    1.0000 </r>
       <r>    4.9155    1.0000 </r>
       <r>    5.2596    1.0000 </r>
       <r>    5.4042    1.0000 </r>
       <r>    5.6150    1.0000 </r>
       <r>    5.8749    1.0000 </r>
       <r>    6.1057    1.0000 </r>
       <r>    6.2755    1.0000 </r>
       <r>    6.5898    1.0000 </r>
       <r>    6.8757    1.0000 </r>
       <r>    7.4918    1.0000 </r>
       <r>    7.7477    1.0000 </r>
       <r>    7.9110    1.0000 </r>
       <r>    8.1024    1.0000 </r>
       <r>    8.4766    1.0000 </r>
       <r>    8.5932    1.0000 </r>
       <r>    8.7184    1.0000 </r>
       <r>    9.0353    1.0080 </r>
       <r>    9.1446    1.0298 </r>
       <r>    9.3067    0.9375 </r>
       <r>    9.4877    0.2847 </r>
       <r>    9.8921   -0.0028 </r>
       <r>    9.9900   -0.0003 </r>
       <r>   10.1789   -0.0000 </r>
       <r>   10.4610   -0.0000 </r>
       <r>   10.5027   -0.0000 </r>
       <r>   10.5936   -0.0000 </r>
       <r>   10.8899   -0.0000 </r>
       <r>   11.0433   -0.0000 </r>
       <r>   11.2383   -0.0000 </r>
       <r>   11.3240   -0.0000 </r>
       <r>   11.4528   -0.0000 </r>
       <r>   11.7992   -0.0000 </r>
       <r>   11.9456   -0.0000 </r>
       <r>   12.1048   -0.0000 </r>
       <r>   12.3251   -0.0000 </r>
       <r>   12.4801   -0.0000 </r>
       <r>   12.6826   -0.0000 </r>
       <r>   12.8898   -0.0000 </r>
       <r>   13.0095   -0.0000 </r>
       <r>   13.2065   -0.0000 </r>
       <r>   13.4161   -0.0000 </r>
       <r>   13.5812   -0.0000 </r>
       <r>   13.6400   -0.0000 </r>
      </set>
      <set comment="kpoint 63">
       <r>   -2.3068    1.0000 </r>
       <r>   -1.7565    1.0000 </r>
       <r>   -1.5937    1.0000 </r>
       <r>   -0.9080    1.0000 </r>
       <r>   -0.0809    1.0000 </r>
       <r>    0.3210    1.0000 </r>
       <r>    0.7738    1.0000 </r>
       <r>    1.3078    1.0000 </r>
       <r>    1.6262    1.0000 </r>
       <r>    2.2253    1.0000 </r>
       <r>    2.5538    1.0000 </r>
       <r>    2.7290    1.0000 </r>
       <r>    2.9911    1.0000 </r>
       <r>    3.2493    1.0000 </r>
       <r>    3.4510    1.0000 </r>
       <r>    3.8257    1.0000 </r>
       <r>    4.0055    1.0000 </r>
       <r>    4.1669    1.0000 </r>
       <r>    4.4353    1.0000 </r>
       <r>    4.6000    1.0000 </r>
       <r>    4.7867    1.0000 </r>
       <r>    5.0797    1.0000 </r>
       <r>    5.2946    1.0000 </r>
       <r>    5.4299    1.0000 </r>
       <r>    5.6464    1.0000 </r>
       <r>    5.8656    1.0000 </r>
       <r>    6.0709    1.0000 </r>
       <r>    6.3092    1.0000 </r>
       <r>    6.4267    1.0000 </r>
       <r>    6.6383    1.0000 </r>
       <r>    7.3529    1.0000 </r>
       <r>    7.8468    1.0000 </r>
       <r>    7.9791    1.0000 </r>
       <r>    8.0565    1.0000 </r>
       <r>    8.3071    1.0000 </r>
       <r>    8.5123    1.0000 </r>
       <r>    8.6914    1.0000 </r>
       <r>    9.1287    1.0263 </r>
       <r>    9.2881    0.9711 </r>
       <r>    9.3613    0.7890 </r>
       <r>    9.5292    0.1459 </r>
       <r>    9.6935   -0.0348 </r>
       <r>    9.9772   -0.0004 </r>
       <r>   10.0403   -0.0001 </r>
       <r>   10.2807   -0.0000 </r>
       <r>   10.4616   -0.0000 </r>
       <r>   10.7597   -0.0000 </r>
       <r>   10.8312   -0.0000 </r>
       <r>   11.0592   -0.0000 </r>
       <r>   11.3180   -0.0000 </r>
       <r>   11.4259   -0.0000 </r>
       <r>   11.6637   -0.0000 </r>
       <r>   11.8160   -0.0000 </r>
       <r>   12.0142   -0.0000 </r>
       <r>   12.2589   -0.0000 </r>
       <r>   12.3818   -0.0000 </r>
       <r>   12.4280   -0.0000 </r>
       <r>   12.8595   -0.0000 </r>
       <r>   12.9887   -0.0000 </r>
       <r>   13.1102   -0.0000 </r>
       <r>   13.1548   -0.0000 </r>
       <r>   13.2454   -0.0000 </r>
       <r>   13.3971   -0.0000 </r>
       <r>   13.5884   -0.0000 </r>
      </set>
      <set comment="kpoint 64">
       <r>   -2.1699    1.0000 </r>
       <r>   -2.0107    1.0000 </r>
       <r>   -1.4478    1.0000 </r>
       <r>   -1.0305    1.0000 </r>
       <r>   -0.1010    1.0000 </r>
       <r>    0.4350    1.0000 </r>
       <r>    0.9356    1.0000 </r>
       <r>    1.2859    1.0000 </r>
       <r>    1.7389    1.0000 </r>
       <r>    2.0232    1.0000 </r>
       <r>    2.4806    1.0000 </r>
       <r>    2.8522    1.0000 </r>
       <r>    3.0721    1.0000 </r>
       <r>    3.1874    1.0000 </r>
       <r>    3.4660    1.0000 </r>
       <r>    3.6065    1.0000 </r>
       <r>    3.7510    1.0000 </r>
       <r>    4.1451    1.0000 </r>
       <r>    4.5398    1.0000 </r>
       <r>    4.6386    1.0000 </r>
       <r>    4.8353    1.0000 </r>
       <r>    5.0514    1.0000 </r>
       <r>    5.2370    1.0000 </r>
       <r>    5.4835    1.0000 </r>
       <r>    5.6766    1.0000 </r>
       <r>    5.9510    1.0000 </r>
       <r>    6.1539    1.0000 </r>
       <r>    6.2679    1.0000 </r>
       <r>    6.4302    1.0000 </r>
       <r>    6.7167    1.0000 </r>
       <r>    7.5794    1.0000 </r>
       <r>    7.8360    1.0000 </r>
       <r>    7.9697    1.0000 </r>
       <r>    8.1398    1.0000 </r>
       <r>    8.2697    1.0000 </r>
       <r>    8.6228    1.0000 </r>
       <r>    8.6852    1.0000 </r>
       <r>    8.8985    1.0005 </r>
       <r>    8.9555    1.0018 </r>
       <r>    9.3777    0.7314 </r>
       <r>    9.6297   -0.0223 </r>
       <r>    9.6814   -0.0354 </r>
       <r>    9.8584   -0.0054 </r>
       <r>   10.1414   -0.0000 </r>
       <r>   10.3447   -0.0000 </r>
       <r>   10.4730   -0.0000 </r>
       <r>   10.7411   -0.0000 </r>
       <r>   11.0792   -0.0000 </r>
       <r>   11.1724   -0.0000 </r>
       <r>   11.3596   -0.0000 </r>
       <r>   11.3959   -0.0000 </r>
       <r>   11.5797   -0.0000 </r>
       <r>   11.8856   -0.0000 </r>
       <r>   12.0468   -0.0000 </r>
       <r>   12.1661   -0.0000 </r>
       <r>   12.3222   -0.0000 </r>
       <r>   12.4157   -0.0000 </r>
       <r>   12.5550   -0.0000 </r>
       <r>   12.6746   -0.0000 </r>
       <r>   13.0128   -0.0000 </r>
       <r>   13.0921   -0.0000 </r>
       <r>   13.2969   -0.0000 </r>
       <r>   13.5176   -0.0000 </r>
       <r>   13.7447   -0.0000 </r>
      </set>
      <set comment="kpoint 65">
       <r>   -2.2811    1.0000 </r>
       <r>   -1.7584    1.0000 </r>
       <r>   -1.6494    1.0000 </r>
       <r>   -0.8944    1.0000 </r>
       <r>   -0.1174    1.0000 </r>
       <r>    0.4485    1.0000 </r>
       <r>    0.7377    1.0000 </r>
       <r>    1.2916    1.0000 </r>
       <r>    1.6750    1.0000 </r>
       <r>    2.1961    1.0000 </r>
       <r>    2.4724    1.0000 </r>
       <r>    2.7670    1.0000 </r>
       <r>    2.9903    1.0000 </r>
       <r>    3.2054    1.0000 </r>
       <r>    3.4768    1.0000 </r>
       <r>    3.8239    1.0000 </r>
       <r>    3.9790    1.0000 </r>
       <r>    4.3039    1.0000 </r>
       <r>    4.4081    1.0000 </r>
       <r>    4.5959    1.0000 </r>
       <r>    4.7528    1.0000 </r>
       <r>    4.9736    1.0000 </r>
       <r>    5.2074    1.0000 </r>
       <r>    5.4621    1.0000 </r>
       <r>    5.6442    1.0000 </r>
       <r>    5.8581    1.0000 </r>
       <r>    6.0697    1.0000 </r>
       <r>    6.2687    1.0000 </r>
       <r>    6.4609    1.0000 </r>
       <r>    6.7988    1.0000 </r>
       <r>    7.5871    1.0000 </r>
       <r>    7.7617    1.0000 </r>
       <r>    8.0119    1.0000 </r>
       <r>    8.1426    1.0000 </r>
       <r>    8.3328    1.0000 </r>
       <r>    8.4616    1.0000 </r>
       <r>    8.7200    1.0000 </r>
       <r>    9.0202    1.0063 </r>
       <r>    9.1363    1.0280 </r>
       <r>    9.2920    0.9647 </r>
       <r>    9.5339    0.1325 </r>
       <r>    9.6799   -0.0355 </r>
       <r>    9.8216   -0.0098 </r>
       <r>   10.1879   -0.0000 </r>
       <r>   10.3600   -0.0000 </r>
       <r>   10.4647   -0.0000 </r>
       <r>   10.7241   -0.0000 </r>
       <r>   10.7972   -0.0000 </r>
       <r>   11.1109   -0.0000 </r>
       <r>   11.2817   -0.0000 </r>
       <r>   11.4078   -0.0000 </r>
       <r>   11.5769   -0.0000 </r>
       <r>   11.9405   -0.0000 </r>
       <r>   11.9589   -0.0000 </r>
       <r>   12.2016   -0.0000 </r>
       <r>   12.3840   -0.0000 </r>
       <r>   12.5057   -0.0000 </r>
       <r>   12.7688   -0.0000 </r>
       <r>   12.8989   -0.0000 </r>
       <r>   12.9894   -0.0000 </r>
       <r>   13.2660   -0.0000 </r>
       <r>   13.4305   -0.0000 </r>
       <r>   13.5247   -0.0000 </r>
       <r>   13.7232   -0.0000 </r>
      </set>
      <set comment="kpoint 66">
       <r>   -2.2173    1.0000 </r>
       <r>   -1.9863    1.0000 </r>
       <r>   -1.4380    1.0000 </r>
       <r>   -0.9176    1.0000 </r>
       <r>   -0.1600    1.0000 </r>
       <r>    0.4111    1.0000 </r>
       <r>    0.8123    1.0000 </r>
       <r>    1.1602    1.0000 </r>
       <r>    1.9046    1.0000 </r>
       <r>    2.1623    1.0000 </r>
       <r>    2.4534    1.0000 </r>
       <r>    2.7537    1.0000 </r>
       <r>    2.9022    1.0000 </r>
       <r>    3.3144    1.0000 </r>
       <r>    3.4931    1.0000 </r>
       <r>    3.6997    1.0000 </r>
       <r>    3.9744    1.0000 </r>
       <r>    4.2021    1.0000 </r>
       <r>    4.4235    1.0000 </r>
       <r>    4.6431    1.0000 </r>
       <r>    4.8113    1.0000 </r>
       <r>    5.0147    1.0000 </r>
       <r>    5.2762    1.0000 </r>
       <r>    5.4728    1.0000 </r>
       <r>    5.6358    1.0000 </r>
       <r>    5.8125    1.0000 </r>
       <r>    5.9597    1.0000 </r>
       <r>    6.3869    1.0000 </r>
       <r>    6.4924    1.0000 </r>
       <r>    6.6538    1.0000 </r>
       <r>    7.5053    1.0000 </r>
       <r>    7.7851    1.0000 </r>
       <r>    7.9306    1.0000 </r>
       <r>    8.1288    1.0000 </r>
       <r>    8.4299    1.0000 </r>
       <r>    8.5237    1.0000 </r>
       <r>    8.7329    1.0000 </r>
       <r>    8.9777    1.0029 </r>
       <r>    9.1667    1.0337 </r>
       <r>    9.4211    0.5578 </r>
       <r>    9.6370   -0.0262 </r>
       <r>    9.7566   -0.0227 </r>
       <r>    9.9064   -0.0021 </r>
       <r>   10.0711   -0.0000 </r>
       <r>   10.2066   -0.0000 </r>
       <r>   10.4812   -0.0000 </r>
       <r>   10.7108   -0.0000 </r>
       <r>   10.8684   -0.0000 </r>
       <r>   11.0880   -0.0000 </r>
       <r>   11.3000   -0.0000 </r>
       <r>   11.4055   -0.0000 </r>
       <r>   11.7270   -0.0000 </r>
       <r>   11.8058   -0.0000 </r>
       <r>   11.9659   -0.0000 </r>
       <r>   12.0976   -0.0000 </r>
       <r>   12.2506   -0.0000 </r>
       <r>   12.4716   -0.0000 </r>
       <r>   12.6356   -0.0000 </r>
       <r>   12.8073   -0.0000 </r>
       <r>   13.0879   -0.0000 </r>
       <r>   13.2896   -0.0000 </r>
       <r>   13.4668   -0.0000 </r>
       <r>   13.6129   -0.0000 </r>
       <r>   13.7186   -0.0000 </r>
      </set>
      <set comment="kpoint 67">
       <r>   -2.3075    1.0000 </r>
       <r>   -1.7457    1.0000 </r>
       <r>   -1.4569    1.0000 </r>
       <r>   -1.1497    1.0000 </r>
       <r>   -0.1729    1.0000 </r>
       <r>    0.3596    1.0000 </r>
       <r>    1.0171    1.0000 </r>
       <r>    1.2908    1.0000 </r>
       <r>    1.9431    1.0000 </r>
       <r>    2.2437    1.0000 </r>
       <r>    2.4416    1.0000 </r>
       <r>    2.5513    1.0000 </r>
       <r>    2.9833    1.0000 </r>
       <r>    3.0342    1.0000 </r>
       <r>    3.4685    1.0000 </r>
       <r>    3.7376    1.0000 </r>
       <r>    3.9995    1.0000 </r>
       <r>    4.1974    1.0000 </r>
       <r>    4.3497    1.0000 </r>
       <r>    4.6385    1.0000 </r>
       <r>    4.7450    1.0000 </r>
       <r>    5.1321    1.0000 </r>
       <r>    5.3029    1.0000 </r>
       <r>    5.4304    1.0000 </r>
       <r>    5.6902    1.0000 </r>
       <r>    5.8751    1.0000 </r>
       <r>    6.0638    1.0000 </r>
       <r>    6.2945    1.0000 </r>
       <r>    6.3968    1.0000 </r>
       <r>    6.8297    1.0000 </r>
       <r>    7.3958    1.0000 </r>
       <r>    7.7732    1.0000 </r>
       <r>    7.9417    1.0000 </r>
       <r>    8.0932    1.0000 </r>
       <r>    8.4413    1.0000 </r>
       <r>    8.5894    1.0000 </r>
       <r>    8.6686    1.0000 </r>
       <r>    8.9600    1.0020 </r>
       <r>    9.2651    1.0014 </r>
       <r>    9.4027    0.6340 </r>
       <r>    9.5466    0.0994 </r>
       <r>    9.8688   -0.0044 </r>
       <r>   10.0246   -0.0001 </r>
       <r>   10.1982   -0.0000 </r>
       <r>   10.3528   -0.0000 </r>
       <r>   10.5196   -0.0000 </r>
       <r>   10.6222   -0.0000 </r>
       <r>   10.8954   -0.0000 </r>
       <r>   10.9795   -0.0000 </r>
       <r>   11.2472   -0.0000 </r>
       <r>   11.3988   -0.0000 </r>
       <r>   11.5755   -0.0000 </r>
       <r>   11.9185   -0.0000 </r>
       <r>   12.0560   -0.0000 </r>
       <r>   12.1216   -0.0000 </r>
       <r>   12.2181   -0.0000 </r>
       <r>   12.4084   -0.0000 </r>
       <r>   12.6189   -0.0000 </r>
       <r>   12.7873   -0.0000 </r>
       <r>   12.9910   -0.0000 </r>
       <r>   13.1103   -0.0000 </r>
       <r>   13.3482   -0.0000 </r>
       <r>   13.4306   -0.0000 </r>
       <r>   13.6538   -0.0000 </r>
      </set>
      <set comment="kpoint 68">
       <r>   -2.2805    1.0000 </r>
       <r>   -1.7750    1.0000 </r>
       <r>   -1.5362    1.0000 </r>
       <r>   -1.0798    1.0000 </r>
       <r>   -0.1153    1.0000 </r>
       <r>    0.4380    1.0000 </r>
       <r>    0.7706    1.0000 </r>
       <r>    1.4282    1.0000 </r>
       <r>    1.9771    1.0000 </r>
       <r>    2.2152    1.0000 </r>
       <r>    2.4041    1.0000 </r>
       <r>    2.6705    1.0000 </r>
       <r>    2.8438    1.0000 </r>
       <r>    2.9522    1.0000 </r>
       <r>    3.4520    1.0000 </r>
       <r>    3.8462    1.0000 </r>
       <r>    3.9710    1.0000 </r>
       <r>    4.3243    1.0000 </r>
       <r>    4.4258    1.0000 </r>
       <r>    4.5932    1.0000 </r>
       <r>    4.7906    1.0000 </r>
       <r>    4.8488    1.0000 </r>
       <r>    5.3460    1.0000 </r>
       <r>    5.5138    1.0000 </r>
       <r>    5.6258    1.0000 </r>
       <r>    5.8881    1.0000 </r>
       <r>    6.1618    1.0000 </r>
       <r>    6.2704    1.0000 </r>
       <r>    6.4659    1.0000 </r>
       <r>    6.7706    1.0000 </r>
       <r>    7.5476    1.0000 </r>
       <r>    7.8085    1.0000 </r>
       <r>    7.9096    1.0000 </r>
       <r>    8.1098    1.0000 </r>
       <r>    8.2193    1.0000 </r>
       <r>    8.5197    1.0000 </r>
       <r>    8.7055    1.0000 </r>
       <r>    9.0057    1.0049 </r>
       <r>    9.2684    0.9978 </r>
       <r>    9.4243    0.5447 </r>
       <r>    9.5562    0.0770 </r>
       <r>    9.7574   -0.0225 </r>
       <r>   10.0518   -0.0001 </r>
       <r>   10.0948   -0.0000 </r>
       <r>   10.3229   -0.0000 </r>
       <r>   10.5056   -0.0000 </r>
       <r>   10.7250   -0.0000 </r>
       <r>   10.8283   -0.0000 </r>
       <r>   11.0804   -0.0000 </r>
       <r>   11.2524   -0.0000 </r>
       <r>   11.3639   -0.0000 </r>
       <r>   11.7015   -0.0000 </r>
       <r>   11.8242   -0.0000 </r>
       <r>   11.9918   -0.0000 </r>
       <r>   12.1038   -0.0000 </r>
       <r>   12.3779   -0.0000 </r>
       <r>   12.5083   -0.0000 </r>
       <r>   12.7075   -0.0000 </r>
       <r>   12.7764   -0.0000 </r>
       <r>   12.8879   -0.0000 </r>
       <r>   13.1226   -0.0000 </r>
       <r>   13.1989   -0.0000 </r>
       <r>   13.3818   -0.0000 </r>
       <r>   13.6815   -0.0000 </r>
      </set>
      <set comment="kpoint 69">
       <r>   -2.2595    1.0000 </r>
       <r>   -1.8806    1.0000 </r>
       <r>   -1.5190    1.0000 </r>
       <r>   -0.9141    1.0000 </r>
       <r>   -0.1473    1.0000 </r>
       <r>    0.4710    1.0000 </r>
       <r>    0.6550    1.0000 </r>
       <r>    1.3262    1.0000 </r>
       <r>    1.8421    1.0000 </r>
       <r>    2.1800    1.0000 </r>
       <r>    2.3612    1.0000 </r>
       <r>    2.7196    1.0000 </r>
       <r>    2.9908    1.0000 </r>
       <r>    3.2612    1.0000 </r>
       <r>    3.6359    1.0000 </r>
       <r>    3.8183    1.0000 </r>
       <r>    3.9776    1.0000 </r>
       <r>    4.2319    1.0000 </r>
       <r>    4.4219    1.0000 </r>
       <r>    4.5601    1.0000 </r>
       <r>    4.6925    1.0000 </r>
       <r>    4.9435    1.0000 </r>
       <r>    5.1160    1.0000 </r>
       <r>    5.4532    1.0000 </r>
       <r>    5.6617    1.0000 </r>
       <r>    5.8238    1.0000 </r>
       <r>    6.0808    1.0000 </r>
       <r>    6.2799    1.0000 </r>
       <r>    6.4995    1.0000 </r>
       <r>    6.8165    1.0000 </r>
       <r>    7.5325    1.0000 </r>
       <r>    7.7326    1.0000 </r>
       <r>    8.0264    1.0000 </r>
       <r>    8.0776    1.0000 </r>
       <r>    8.4368    1.0000 </r>
       <r>    8.5521    1.0000 </r>
       <r>    8.7619    1.0000 </r>
       <r>    8.9911    1.0037 </r>
       <r>    9.2444    1.0194 </r>
       <r>    9.3718    0.7525 </r>
       <r>    9.5223    0.1662 </r>
       <r>    9.7862   -0.0162 </r>
       <r>    9.8899   -0.0030 </r>
       <r>   10.2453   -0.0000 </r>
       <r>   10.3252   -0.0000 </r>
       <r>   10.5222   -0.0000 </r>
       <r>   10.6092   -0.0000 </r>
       <r>   10.8754   -0.0000 </r>
       <r>   10.9314   -0.0000 </r>
       <r>   11.1586   -0.0000 </r>
       <r>   11.4028   -0.0000 </r>
       <r>   11.5843   -0.0000 </r>
       <r>   11.7177   -0.0000 </r>
       <r>   11.9309   -0.0000 </r>
       <r>   12.1107   -0.0000 </r>
       <r>   12.3321   -0.0000 </r>
       <r>   12.5074   -0.0000 </r>
       <r>   12.6690   -0.0000 </r>
       <r>   12.9961   -0.0000 </r>
       <r>   13.1573   -0.0000 </r>
       <r>   13.2937   -0.0000 </r>
       <r>   13.4878   -0.0000 </r>
       <r>   13.6515   -0.0000 </r>
       <r>   13.7966   -0.0000 </r>
      </set>
      <set comment="kpoint 70">
       <r>   -2.2416    1.0000 </r>
       <r>   -1.9398    1.0000 </r>
       <r>   -1.4536    1.0000 </r>
       <r>   -0.9607    1.0000 </r>
       <r>   -0.0599    1.0000 </r>
       <r>    0.3849    1.0000 </r>
       <r>    0.6765    1.0000 </r>
       <r>    1.3012    1.0000 </r>
       <r>    1.9009    1.0000 </r>
       <r>    2.3196    1.0000 </r>
       <r>    2.3842    1.0000 </r>
       <r>    2.5593    1.0000 </r>
       <r>    2.8193    1.0000 </r>
       <r>    3.3370    1.0000 </r>
       <r>    3.5162    1.0000 </r>
       <r>    3.7320    1.0000 </r>
       <r>    4.0246    1.0000 </r>
       <r>    4.2740    1.0000 </r>
       <r>    4.4543    1.0000 </r>
       <r>    4.5514    1.0000 </r>
       <r>    4.7768    1.0000 </r>
       <r>    5.0735    1.0000 </r>
       <r>    5.2914    1.0000 </r>
       <r>    5.4899    1.0000 </r>
       <r>    5.6007    1.0000 </r>
       <r>    5.7944    1.0000 </r>
       <r>    6.0208    1.0000 </r>
       <r>    6.4170    1.0000 </r>
       <r>    6.5674    1.0000 </r>
       <r>    6.6599    1.0000 </r>
       <r>    7.3502    1.0000 </r>
       <r>    7.7148    1.0000 </r>
       <r>    7.9748    1.0000 </r>
       <r>    8.1132    1.0000 </r>
       <r>    8.4249    1.0000 </r>
       <r>    8.5505    1.0000 </r>
       <r>    8.7273    1.0000 </r>
       <r>    8.9308    1.0011 </r>
       <r>    9.1088    1.0217 </r>
       <r>    9.4838    0.2994 </r>
       <r>    9.5753    0.0393 </r>
       <r>    9.7409   -0.0263 </r>
       <r>    9.9188   -0.0016 </r>
       <r>   10.0773   -0.0000 </r>
       <r>   10.1825   -0.0000 </r>
       <r>   10.4708   -0.0000 </r>
       <r>   10.6454   -0.0000 </r>
       <r>   10.9479   -0.0000 </r>
       <r>   11.0912   -0.0000 </r>
       <r>   11.2627   -0.0000 </r>
       <r>   11.6167   -0.0000 </r>
       <r>   11.7577   -0.0000 </r>
       <r>   11.8171   -0.0000 </r>
       <r>   11.9467   -0.0000 </r>
       <r>   12.1945   -0.0000 </r>
       <r>   12.3001   -0.0000 </r>
       <r>   12.5049   -0.0000 </r>
       <r>   12.5911   -0.0000 </r>
       <r>   12.8855   -0.0000 </r>
       <r>   13.0083   -0.0000 </r>
       <r>   13.2642   -0.0000 </r>
       <r>   13.2806   -0.0000 </r>
       <r>   13.5389   -0.0000 </r>
       <r>   13.8061   -0.0000 </r>
      </set>
      <set comment="kpoint 71">
       <r>   -2.2325    1.0000 </r>
       <r>   -1.9723    1.0000 </r>
       <r>   -1.4409    1.0000 </r>
       <r>   -0.8758    1.0000 </r>
       <r>   -0.1970    1.0000 </r>
       <r>    0.3285    1.0000 </r>
       <r>    0.9402    1.0000 </r>
       <r>    1.1812    1.0000 </r>
       <r>    1.7685    1.0000 </r>
       <r>    2.1720    1.0000 </r>
       <r>    2.5008    1.0000 </r>
       <r>    2.6292    1.0000 </r>
       <r>    2.9969    1.0000 </r>
       <r>    3.2474    1.0000 </r>
       <r>    3.5242    1.0000 </r>
       <r>    3.8503    1.0000 </r>
       <r>    3.9427    1.0000 </r>
       <r>    4.2519    1.0000 </r>
       <r>    4.4735    1.0000 </r>
       <r>    4.6828    1.0000 </r>
       <r>    4.8375    1.0000 </r>
       <r>    4.9794    1.0000 </r>
       <r>    5.1864    1.0000 </r>
       <r>    5.4100    1.0000 </r>
       <r>    5.5970    1.0000 </r>
       <r>    5.8508    1.0000 </r>
       <r>    6.0384    1.0000 </r>
       <r>    6.2930    1.0000 </r>
       <r>    6.4202    1.0000 </r>
       <r>    6.6529    1.0000 </r>
       <r>    7.4472    1.0000 </r>
       <r>    7.7498    1.0000 </r>
       <r>    7.9036    1.0000 </r>
       <r>    8.1867    1.0000 </r>
       <r>    8.3542    1.0000 </r>
       <r>    8.5105    1.0000 </r>
       <r>    8.8023    1.0000 </r>
       <r>    9.1616    1.0329 </r>
       <r>    9.2963    0.9572 </r>
       <r>    9.5075    0.2138 </r>
       <r>    9.6110   -0.0079 </r>
       <r>    9.6722   -0.0352 </r>
       <r>    9.9605   -0.0006 </r>
       <r>   10.0905   -0.0000 </r>
       <r>   10.1824   -0.0000 </r>
       <r>   10.4132   -0.0000 </r>
       <r>   10.6331   -0.0000 </r>
       <r>   10.9565   -0.0000 </r>
       <r>   11.1018   -0.0000 </r>
       <r>   11.2279   -0.0000 </r>
       <r>   11.3921   -0.0000 </r>
       <r>   11.5020   -0.0000 </r>
       <r>   11.7911   -0.0000 </r>
       <r>   11.9335   -0.0000 </r>
       <r>   12.0611   -0.0000 </r>
       <r>   12.3161   -0.0000 </r>
       <r>   12.4951   -0.0000 </r>
       <r>   12.6221   -0.0000 </r>
       <r>   12.9492   -0.0000 </r>
       <r>   13.1573   -0.0000 </r>
       <r>   13.3458   -0.0000 </r>
       <r>   13.4695   -0.0000 </r>
       <r>   13.6504   -0.0000 </r>
       <r>   13.7645   -0.0000 </r>
      </set>
      <set comment="kpoint 72">
       <r>   -2.3264    1.0000 </r>
       <r>   -1.6932    1.0000 </r>
       <r>   -1.5288    1.0000 </r>
       <r>   -1.0747    1.0000 </r>
       <r>   -0.1673    1.0000 </r>
       <r>    0.3623    1.0000 </r>
       <r>    0.8030    1.0000 </r>
       <r>    1.6046    1.0000 </r>
       <r>    1.7959    1.0000 </r>
       <r>    2.0992    1.0000 </r>
       <r>    2.4167    1.0000 </r>
       <r>    2.6355    1.0000 </r>
       <r>    2.9409    1.0000 </r>
       <r>    3.1306    1.0000 </r>
       <r>    3.4281    1.0000 </r>
       <r>    3.7879    1.0000 </r>
       <r>    3.9566    1.0000 </r>
       <r>    4.2465    1.0000 </r>
       <r>    4.5392    1.0000 </r>
       <r>    4.6672    1.0000 </r>
       <r>    4.7558    1.0000 </r>
       <r>    5.1590    1.0000 </r>
       <r>    5.2474    1.0000 </r>
       <r>    5.4471    1.0000 </r>
       <r>    5.6012    1.0000 </r>
       <r>    5.7273    1.0000 </r>
       <r>    6.1132    1.0000 </r>
       <r>    6.3215    1.0000 </r>
       <r>    6.4908    1.0000 </r>
       <r>    6.6352    1.0000 </r>
       <r>    7.4294    1.0000 </r>
       <r>    7.7952    1.0000 </r>
       <r>    7.9135    1.0000 </r>
       <r>    8.1605    1.0000 </r>
       <r>    8.3974    1.0000 </r>
       <r>    8.4711    1.0000 </r>
       <r>    8.7781    1.0000 </r>
       <r>    8.9537    1.0017 </r>
       <r>    9.2099    1.0337 </r>
       <r>    9.4188    0.5678 </r>
       <r>    9.6390   -0.0271 </r>
       <r>    9.7527   -0.0236 </r>
       <r>    9.9482   -0.0009 </r>
       <r>   10.1649   -0.0000 </r>
       <r>   10.3788   -0.0000 </r>
       <r>   10.4613   -0.0000 </r>
       <r>   10.7760   -0.0000 </r>
       <r>   10.8995   -0.0000 </r>
       <r>   11.0466   -0.0000 </r>
       <r>   11.1123   -0.0000 </r>
       <r>   11.3732   -0.0000 </r>
       <r>   11.6659   -0.0000 </r>
       <r>   11.8339   -0.0000 </r>
       <r>   12.0328   -0.0000 </r>
       <r>   12.1418   -0.0000 </r>
       <r>   12.3212   -0.0000 </r>
       <r>   12.4479   -0.0000 </r>
       <r>   12.6895   -0.0000 </r>
       <r>   12.7856   -0.0000 </r>
       <r>   13.0077   -0.0000 </r>
       <r>   13.1903   -0.0000 </r>
       <r>   13.3526   -0.0000 </r>
       <r>   13.5058   -0.0000 </r>
       <r>   13.5705   -0.0000 </r>
      </set>
      <set comment="kpoint 73">
       <r>   -2.2442    1.0000 </r>
       <r>   -1.8425    1.0000 </r>
       <r>   -1.5806    1.0000 </r>
       <r>   -1.0000    1.0000 </r>
       <r>    0.0460    1.0000 </r>
       <r>    0.3321    1.0000 </r>
       <r>    0.7561    1.0000 </r>
       <r>    1.2146    1.0000 </r>
       <r>    1.9576    1.0000 </r>
       <r>    2.2381    1.0000 </r>
       <r>    2.5380    1.0000 </r>
       <r>    2.6779    1.0000 </r>
       <r>    2.8949    1.0000 </r>
       <r>    3.1406    1.0000 </r>
       <r>    3.4208    1.0000 </r>
       <r>    3.7766    1.0000 </r>
       <r>    3.9573    1.0000 </r>
       <r>    4.1277    1.0000 </r>
       <r>    4.4348    1.0000 </r>
       <r>    4.5867    1.0000 </r>
       <r>    4.8462    1.0000 </r>
       <r>    5.0259    1.0000 </r>
       <r>    5.1872    1.0000 </r>
       <r>    5.4205    1.0000 </r>
       <r>    5.6063    1.0000 </r>
       <r>    5.8301    1.0000 </r>
       <r>    6.1029    1.0000 </r>
       <r>    6.3672    1.0000 </r>
       <r>    6.5590    1.0000 </r>
       <r>    6.9259    1.0000 </r>
       <r>    7.6332    1.0000 </r>
       <r>    7.7862    1.0000 </r>
       <r>    7.9328    1.0000 </r>
       <r>    8.1089    1.0000 </r>
       <r>    8.2864    1.0000 </r>
       <r>    8.4694    1.0000 </r>
       <r>    8.5886    1.0000 </r>
       <r>    9.0269    1.0070 </r>
       <r>    9.1315    1.0269 </r>
       <r>    9.3713    0.7543 </r>
       <r>    9.5955    0.0091 </r>
       <r>    9.7502   -0.0241 </r>
       <r>    9.9540   -0.0007 </r>
       <r>   10.0912   -0.0000 </r>
       <r>   10.2925   -0.0000 </r>
       <r>   10.4920   -0.0000 </r>
       <r>   10.6375   -0.0000 </r>
       <r>   10.8142   -0.0000 </r>
       <r>   11.0713   -0.0000 </r>
       <r>   11.2662   -0.0000 </r>
       <r>   11.4647   -0.0000 </r>
       <r>   11.6866   -0.0000 </r>
       <r>   11.8497   -0.0000 </r>
       <r>   12.0498   -0.0000 </r>
       <r>   12.2160   -0.0000 </r>
       <r>   12.3404   -0.0000 </r>
       <r>   12.4807   -0.0000 </r>
       <r>   12.7157   -0.0000 </r>
       <r>   12.8444   -0.0000 </r>
       <r>   13.0693   -0.0000 </r>
       <r>   13.2428   -0.0000 </r>
       <r>   13.3530   -0.0000 </r>
       <r>   13.4737   -0.0000 </r>
       <r>   13.7265   -0.0000 </r>
      </set>
      <set comment="kpoint 74">
       <r>   -2.2416    1.0000 </r>
       <r>   -1.9458    1.0000 </r>
       <r>   -1.4294    1.0000 </r>
       <r>   -0.9810    1.0000 </r>
       <r>   -0.0779    1.0000 </r>
       <r>    0.3467    1.0000 </r>
       <r>    0.8286    1.0000 </r>
       <r>    1.2254    1.0000 </r>
       <r>    1.7983    1.0000 </r>
       <r>    2.1112    1.0000 </r>
       <r>    2.5633    1.0000 </r>
       <r>    2.7099    1.0000 </r>
       <r>    3.0618    1.0000 </r>
       <r>    3.1617    1.0000 </r>
       <r>    3.5242    1.0000 </r>
       <r>    3.6489    1.0000 </r>
       <r>    3.9609    1.0000 </r>
       <r>    4.1853    1.0000 </r>
       <r>    4.3785    1.0000 </r>
       <r>    4.7045    1.0000 </r>
       <r>    4.9183    1.0000 </r>
       <r>    5.1218    1.0000 </r>
       <r>    5.2451    1.0000 </r>
       <r>    5.3364    1.0000 </r>
       <r>    5.6962    1.0000 </r>
       <r>    5.8562    1.0000 </r>
       <r>    6.0197    1.0000 </r>
       <r>    6.2985    1.0000 </r>
       <r>    6.5303    1.0000 </r>
       <r>    6.6715    1.0000 </r>
       <r>    7.3277    1.0000 </r>
       <r>    7.5700    1.0000 </r>
       <r>    7.9197    1.0000 </r>
       <r>    8.2151    1.0000 </r>
       <r>    8.3999    1.0000 </r>
       <r>    8.5504    1.0000 </r>
       <r>    8.7851    1.0000 </r>
       <r>    9.0810    1.0156 </r>
       <r>    9.2794    0.9840 </r>
       <r>    9.4760    0.3298 </r>
       <r>    9.5446    0.1044 </r>
       <r>    9.8070   -0.0122 </r>
       <r>    9.9457   -0.0009 </r>
       <r>   10.1091   -0.0000 </r>
       <r>   10.1878   -0.0000 </r>
       <r>   10.4814   -0.0000 </r>
       <r>   10.6010   -0.0000 </r>
       <r>   10.7447   -0.0000 </r>
       <r>   11.0317   -0.0000 </r>
       <r>   11.2534   -0.0000 </r>
       <r>   11.4639   -0.0000 </r>
       <r>   11.7326   -0.0000 </r>
       <r>   11.8860   -0.0000 </r>
       <r>   11.9647   -0.0000 </r>
       <r>   12.1316   -0.0000 </r>
       <r>   12.3644   -0.0000 </r>
       <r>   12.5728   -0.0000 </r>
       <r>   12.8073   -0.0000 </r>
       <r>   12.9386   -0.0000 </r>
       <r>   13.0349   -0.0000 </r>
       <r>   13.1916   -0.0000 </r>
       <r>   13.3022   -0.0000 </r>
       <r>   13.5283   -0.0000 </r>
       <r>   13.7020   -0.0000 </r>
      </set>
      <set comment="kpoint 75">
       <r>   -2.2422    1.0000 </r>
       <r>   -1.9112    1.0000 </r>
       <r>   -1.5027    1.0000 </r>
       <r>   -0.9251    1.0000 </r>
       <r>   -0.1759    1.0000 </r>
       <r>    0.4635    1.0000 </r>
       <r>    0.8223    1.0000 </r>
       <r>    1.1608    1.0000 </r>
       <r>    1.8231    1.0000 </r>
       <r>    2.2169    1.0000 </r>
       <r>    2.4483    1.0000 </r>
       <r>    2.7690    1.0000 </r>
       <r>    2.9995    1.0000 </r>
       <r>    3.3287    1.0000 </r>
       <r>    3.5826    1.0000 </r>
       <r>    3.7440    1.0000 </r>
       <r>    3.8630    1.0000 </r>
       <r>    4.0768    1.0000 </r>
       <r>    4.3350    1.0000 </r>
       <r>    4.4893    1.0000 </r>
       <r>    4.7809    1.0000 </r>
       <r>    5.0693    1.0000 </r>
       <r>    5.2748    1.0000 </r>
       <r>    5.4170    1.0000 </r>
       <r>    5.7057    1.0000 </r>
       <r>    5.8789    1.0000 </r>
       <r>    6.0984    1.0000 </r>
       <r>    6.3121    1.0000 </r>
       <r>    6.5470    1.0000 </r>
       <r>    6.6952    1.0000 </r>
       <r>    7.5211    1.0000 </r>
       <r>    7.7475    1.0000 </r>
       <r>    8.0485    1.0000 </r>
       <r>    8.1721    1.0000 </r>
       <r>    8.4322    1.0000 </r>
       <r>    8.5440    1.0000 </r>
       <r>    8.6580    1.0000 </r>
       <r>    8.9212    1.0008 </r>
       <r>    9.1552    1.0318 </r>
       <r>    9.3270    0.8908 </r>
       <r>    9.6079   -0.0050 </r>
       <r>    9.7054   -0.0333 </r>
       <r>    9.9833   -0.0004 </r>
       <r>   10.1763   -0.0000 </r>
       <r>   10.3597   -0.0000 </r>
       <r>   10.5690   -0.0000 </r>
       <r>   10.6450   -0.0000 </r>
       <r>   10.8716   -0.0000 </r>
       <r>   11.0160   -0.0000 </r>
       <r>   11.0846   -0.0000 </r>
       <r>   11.3102   -0.0000 </r>
       <r>   11.7089   -0.0000 </r>
       <r>   11.7694   -0.0000 </r>
       <r>   11.9143   -0.0000 </r>
       <r>   12.1465   -0.0000 </r>
       <r>   12.2716   -0.0000 </r>
       <r>   12.5113   -0.0000 </r>
       <r>   12.7553   -0.0000 </r>
       <r>   12.9337   -0.0000 </r>
       <r>   13.1047   -0.0000 </r>
       <r>   13.2085   -0.0000 </r>
       <r>   13.3858   -0.0000 </r>
       <r>   13.5753   -0.0000 </r>
       <r>   13.6760   -0.0000 </r>
      </set>
      <set comment="kpoint 76">
       <r>   -2.3003    1.0000 </r>
       <r>   -1.6908    1.0000 </r>
       <r>   -1.6458    1.0000 </r>
       <r>   -0.9468    1.0000 </r>
       <r>   -0.2401    1.0000 </r>
       <r>    0.4238    1.0000 </r>
       <r>    0.8532    1.0000 </r>
       <r>    1.5150    1.0000 </r>
       <r>    1.8179    1.0000 </r>
       <r>    2.0495    1.0000 </r>
       <r>    2.3242    1.0000 </r>
       <r>    2.7990    1.0000 </r>
       <r>    2.9152    1.0000 </r>
       <r>    3.1352    1.0000 </r>
       <r>    3.3627    1.0000 </r>
       <r>    3.7939    1.0000 </r>
       <r>    4.0063    1.0000 </r>
       <r>    4.3050    1.0000 </r>
       <r>    4.4223    1.0000 </r>
       <r>    4.6563    1.0000 </r>
       <r>    4.7509    1.0000 </r>
       <r>    5.0748    1.0000 </r>
       <r>    5.3005    1.0000 </r>
       <r>    5.5246    1.0000 </r>
       <r>    5.6817    1.0000 </r>
       <r>    5.8767    1.0000 </r>
       <r>    6.1118    1.0000 </r>
       <r>    6.2860    1.0000 </r>
       <r>    6.3946    1.0000 </r>
       <r>    6.5979    1.0000 </r>
       <r>    7.4247    1.0000 </r>
       <r>    7.7525    1.0000 </r>
       <r>    7.8747    1.0000 </r>
       <r>    8.1953    1.0000 </r>
       <r>    8.2882    1.0000 </r>
       <r>    8.5996    1.0000 </r>
       <r>    8.7455    1.0000 </r>
       <r>    8.9292    1.0010 </r>
       <r>    9.3078    0.9352 </r>
       <r>    9.4537    0.4208 </r>
       <r>    9.6170   -0.0132 </r>
       <r>    9.7886   -0.0157 </r>
       <r>    9.9292   -0.0013 </r>
       <r>   10.1621   -0.0000 </r>
       <r>   10.3025   -0.0000 </r>
       <r>   10.5497   -0.0000 </r>
       <r>   10.6636   -0.0000 </r>
       <r>   10.8365   -0.0000 </r>
       <r>   11.0299   -0.0000 </r>
       <r>   11.2073   -0.0000 </r>
       <r>   11.3309   -0.0000 </r>
       <r>   11.5629   -0.0000 </r>
       <r>   11.7677   -0.0000 </r>
       <r>   11.9757   -0.0000 </r>
       <r>   12.1714   -0.0000 </r>
       <r>   12.3698   -0.0000 </r>
       <r>   12.4815   -0.0000 </r>
       <r>   12.7550   -0.0000 </r>
       <r>   12.8732   -0.0000 </r>
       <r>   13.1193   -0.0000 </r>
       <r>   13.1665   -0.0000 </r>
       <r>   13.2621   -0.0000 </r>
       <r>   13.4553   -0.0000 </r>
       <r>   13.6052   -0.0000 </r>
      </set>
      <set comment="kpoint 77">
       <r>   -2.4695    1.0000 </r>
       <r>   -1.9071    1.0000 </r>
       <r>   -1.1386    1.0000 </r>
       <r>   -0.6817    1.0000 </r>
       <r>   -0.1736    1.0000 </r>
       <r>    0.4023    1.0000 </r>
       <r>    0.8319    1.0000 </r>
       <r>    1.1252    1.0000 </r>
       <r>    1.6259    1.0000 </r>
       <r>    1.8702    1.0000 </r>
       <r>    2.1228    1.0000 </r>
       <r>    2.4282    1.0000 </r>
       <r>    2.8382    1.0000 </r>
       <r>    3.0787    1.0000 </r>
       <r>    3.5724    1.0000 </r>
       <r>    3.8711    1.0000 </r>
       <r>    4.0157    1.0000 </r>
       <r>    4.3788    1.0000 </r>
       <r>    4.4606    1.0000 </r>
       <r>    4.8327    1.0000 </r>
       <r>    4.9320    1.0000 </r>
       <r>    5.1993    1.0000 </r>
       <r>    5.4324    1.0000 </r>
       <r>    5.7339    1.0000 </r>
       <r>    5.9293    1.0000 </r>
       <r>    6.1008    1.0000 </r>
       <r>    6.2944    1.0000 </r>
       <r>    6.4905    1.0000 </r>
       <r>    6.7479    1.0000 </r>
       <r>    7.0983    1.0000 </r>
       <r>    7.2640    1.0000 </r>
       <r>    7.5664    1.0000 </r>
       <r>    7.7896    1.0000 </r>
       <r>    7.8770    1.0000 </r>
       <r>    8.1847    1.0000 </r>
       <r>    8.4653    1.0000 </r>
       <r>    8.5907    1.0000 </r>
       <r>    8.8331    1.0001 </r>
       <r>    9.0083    1.0051 </r>
       <r>    9.0942    1.0184 </r>
       <r>    9.4618    0.3872 </r>
       <r>    9.5239    0.1615 </r>
       <r>    9.8360   -0.0079 </r>
       <r>   10.0641   -0.0000 </r>
       <r>   10.3661   -0.0000 </r>
       <r>   10.5178   -0.0000 </r>
       <r>   10.6040   -0.0000 </r>
       <r>   10.7921   -0.0000 </r>
       <r>   11.0772   -0.0000 </r>
       <r>   11.2488   -0.0000 </r>
       <r>   11.3409   -0.0000 </r>
       <r>   11.5644   -0.0000 </r>
       <r>   11.7009   -0.0000 </r>
       <r>   11.9602   -0.0000 </r>
       <r>   12.0576   -0.0000 </r>
       <r>   12.3277   -0.0000 </r>
       <r>   12.5314   -0.0000 </r>
       <r>   12.6271   -0.0000 </r>
       <r>   12.8350   -0.0000 </r>
       <r>   13.0440   -0.0000 </r>
       <r>   13.1168   -0.0000 </r>
       <r>   13.2991   -0.0000 </r>
       <r>   13.5097   -0.0000 </r>
       <r>   13.6076   -0.0000 </r>
      </set>
      <set comment="kpoint 78">
       <r>   -2.5497    1.0000 </r>
       <r>   -1.6135    1.0000 </r>
       <r>   -1.3959    1.0000 </r>
       <r>   -0.6130    1.0000 </r>
       <r>   -0.0183    1.0000 </r>
       <r>    0.2436    1.0000 </r>
       <r>    0.6822    1.0000 </r>
       <r>    1.0792    1.0000 </r>
       <r>    1.5236    1.0000 </r>
       <r>    1.8117    1.0000 </r>
       <r>    2.3122    1.0000 </r>
       <r>    2.6370    1.0000 </r>
       <r>    2.8925    1.0000 </r>
       <r>    3.1894    1.0000 </r>
       <r>    3.5933    1.0000 </r>
       <r>    3.8244    1.0000 </r>
       <r>    4.0035    1.0000 </r>
       <r>    4.1934    1.0000 </r>
       <r>    4.5580    1.0000 </r>
       <r>    4.8117    1.0000 </r>
       <r>    5.0613    1.0000 </r>
       <r>    5.1155    1.0000 </r>
       <r>    5.4431    1.0000 </r>
       <r>    5.6250    1.0000 </r>
       <r>    5.8637    1.0000 </r>
       <r>    6.0704    1.0000 </r>
       <r>    6.4498    1.0000 </r>
       <r>    6.5066    1.0000 </r>
       <r>    6.6944    1.0000 </r>
       <r>    6.8799    1.0000 </r>
       <r>    7.3118    1.0000 </r>
       <r>    7.4598    1.0000 </r>
       <r>    7.8853    1.0000 </r>
       <r>    8.1170    1.0000 </r>
       <r>    8.2212    1.0000 </r>
       <r>    8.3925    1.0000 </r>
       <r>    8.5288    1.0000 </r>
       <r>    8.6096    1.0000 </r>
       <r>    8.8645    1.0002 </r>
       <r>    9.1102    1.0220 </r>
       <r>    9.4030    0.6327 </r>
       <r>    9.6467   -0.0302 </r>
       <r>    9.9081   -0.0021 </r>
       <r>   10.1418   -0.0000 </r>
       <r>   10.3050   -0.0000 </r>
       <r>   10.5881   -0.0000 </r>
       <r>   10.7335   -0.0000 </r>
       <r>   10.8527   -0.0000 </r>
       <r>   10.9506   -0.0000 </r>
       <r>   11.1079   -0.0000 </r>
       <r>   11.4546   -0.0000 </r>
       <r>   11.6384   -0.0000 </r>
       <r>   11.7450   -0.0000 </r>
       <r>   11.9246   -0.0000 </r>
       <r>   12.1478   -0.0000 </r>
       <r>   12.3787   -0.0000 </r>
       <r>   12.7046   -0.0000 </r>
       <r>   12.7582   -0.0000 </r>
       <r>   12.8777   -0.0000 </r>
       <r>   13.0249   -0.0000 </r>
       <r>   13.0870   -0.0000 </r>
       <r>   13.2012   -0.0000 </r>
       <r>   13.4453   -0.0000 </r>
       <r>   13.5786   -0.0000 </r>
      </set>
      <set comment="kpoint 79">
       <r>   -2.5127    1.0000 </r>
       <r>   -1.7938    1.0000 </r>
       <r>   -1.2296    1.0000 </r>
       <r>   -0.6361    1.0000 </r>
       <r>   -0.0746    1.0000 </r>
       <r>    0.3153    1.0000 </r>
       <r>    0.6074    1.0000 </r>
       <r>    1.1858    1.0000 </r>
       <r>    1.5980    1.0000 </r>
       <r>    1.8333    1.0000 </r>
       <r>    2.2189    1.0000 </r>
       <r>    2.5731    1.0000 </r>
       <r>    2.7661    1.0000 </r>
       <r>    3.3259    1.0000 </r>
       <r>    3.5114    1.0000 </r>
       <r>    3.8966    1.0000 </r>
       <r>    4.1399    1.0000 </r>
       <r>    4.3372    1.0000 </r>
       <r>    4.4968    1.0000 </r>
       <r>    4.7443    1.0000 </r>
       <r>    5.0023    1.0000 </r>
       <r>    5.0768    1.0000 </r>
       <r>    5.3918    1.0000 </r>
       <r>    5.4640    1.0000 </r>
       <r>    5.7995    1.0000 </r>
       <r>    5.9531    1.0000 </r>
       <r>    6.2937    1.0000 </r>
       <r>    6.6386    1.0000 </r>
       <r>    6.8657    1.0000 </r>
       <r>    7.1030    1.0000 </r>
       <r>    7.2079    1.0000 </r>
       <r>    7.4569    1.0000 </r>
       <r>    7.7004    1.0000 </r>
       <r>    8.1749    1.0000 </r>
       <r>    8.2630    1.0000 </r>
       <r>    8.4472    1.0000 </r>
       <r>    8.6505    1.0000 </r>
       <r>    8.8540    1.0002 </r>
       <r>    9.0798    1.0154 </r>
       <r>    9.4344    0.5020 </r>
       <r>    9.4486    0.4418 </r>
       <r>    9.5407    0.1144 </r>
       <r>    9.7529   -0.0235 </r>
       <r>    9.9799   -0.0004 </r>
       <r>   10.2579   -0.0000 </r>
       <r>   10.5369   -0.0000 </r>
       <r>   10.6780   -0.0000 </r>
       <r>   10.7908   -0.0000 </r>
       <r>   10.9912   -0.0000 </r>
       <r>   11.1549   -0.0000 </r>
       <r>   11.3176   -0.0000 </r>
       <r>   11.4168   -0.0000 </r>
       <r>   11.5106   -0.0000 </r>
       <r>   11.7139   -0.0000 </r>
       <r>   12.2158   -0.0000 </r>
       <r>   12.4219   -0.0000 </r>
       <r>   12.5569   -0.0000 </r>
       <r>   12.8046   -0.0000 </r>
       <r>   12.9233   -0.0000 </r>
       <r>   13.0256   -0.0000 </r>
       <r>   13.2424   -0.0000 </r>
       <r>   13.3075   -0.0000 </r>
       <r>   13.4077   -0.0000 </r>
       <r>   13.5115   -0.0000 </r>
      </set>
      <set comment="kpoint 80">
       <r>   -2.5479    1.0000 </r>
       <r>   -1.6208    1.0000 </r>
       <r>   -1.2667    1.0000 </r>
       <r>   -0.8734    1.0000 </r>
       <r>    0.0006    1.0000 </r>
       <r>    0.3043    1.0000 </r>
       <r>    0.6056    1.0000 </r>
       <r>    1.3648    1.0000 </r>
       <r>    1.5085    1.0000 </r>
       <r>    1.9977    1.0000 </r>
       <r>    2.1794    1.0000 </r>
       <r>    2.5144    1.0000 </r>
       <r>    2.8809    1.0000 </r>
       <r>    3.2809    1.0000 </r>
       <r>    3.4502    1.0000 </r>
       <r>    3.6635    1.0000 </r>
       <r>    4.0363    1.0000 </r>
       <r>    4.3339    1.0000 </r>
       <r>    4.6422    1.0000 </r>
       <r>    4.7293    1.0000 </r>
       <r>    4.9114    1.0000 </r>
       <r>    5.2340    1.0000 </r>
       <r>    5.2933    1.0000 </r>
       <r>    5.5743    1.0000 </r>
       <r>    5.7190    1.0000 </r>
       <r>    6.2247    1.0000 </r>
       <r>    6.4057    1.0000 </r>
       <r>    6.5622    1.0000 </r>
       <r>    6.7444    1.0000 </r>
       <r>    6.9679    1.0000 </r>
       <r>    7.1897    1.0000 </r>
       <r>    7.5432    1.0000 </r>
       <r>    7.7683    1.0000 </r>
       <r>    8.0567    1.0000 </r>
       <r>    8.2852    1.0000 </r>
       <r>    8.4860    1.0000 </r>
       <r>    8.6403    1.0000 </r>
       <r>    8.7878    1.0000 </r>
       <r>    8.9183    1.0008 </r>
       <r>    9.3649    0.7768 </r>
       <r>    9.4685    0.3599 </r>
       <r>    9.7169   -0.0314 </r>
       <r>    9.8824   -0.0034 </r>
       <r>   10.0204   -0.0001 </r>
       <r>   10.2435   -0.0000 </r>
       <r>   10.4740   -0.0000 </r>
       <r>   10.7308   -0.0000 </r>
       <r>   10.9189   -0.0000 </r>
       <r>   10.9792   -0.0000 </r>
       <r>   11.1764   -0.0000 </r>
       <r>   11.2353   -0.0000 </r>
       <r>   11.4909   -0.0000 </r>
       <r>   11.7247   -0.0000 </r>
       <r>   11.9379   -0.0000 </r>
       <r>   12.1359   -0.0000 </r>
       <r>   12.2559   -0.0000 </r>
       <r>   12.4690   -0.0000 </r>
       <r>   12.6229   -0.0000 </r>
       <r>   12.7324   -0.0000 </r>
       <r>   12.9903   -0.0000 </r>
       <r>   13.0822   -0.0000 </r>
       <r>   13.1974   -0.0000 </r>
       <r>   13.4137   -0.0000 </r>
       <r>   13.5887   -0.0000 </r>
      </set>
      <set comment="kpoint 81">
       <r>   -2.4803    1.0000 </r>
       <r>   -1.8811    1.0000 </r>
       <r>   -1.1472    1.0000 </r>
       <r>   -0.6899    1.0000 </r>
       <r>   -0.1135    1.0000 </r>
       <r>    0.2874    1.0000 </r>
       <r>    0.7194    1.0000 </r>
       <r>    1.3001    1.0000 </r>
       <r>    1.6332    1.0000 </r>
       <r>    1.8571    1.0000 </r>
       <r>    2.1226    1.0000 </r>
       <r>    2.5503    1.0000 </r>
       <r>    2.8979    1.0000 </r>
       <r>    3.1036    1.0000 </r>
       <r>    3.3943    1.0000 </r>
       <r>    3.7152    1.0000 </r>
       <r>    4.0889    1.0000 </r>
       <r>    4.2827    1.0000 </r>
       <r>    4.5984    1.0000 </r>
       <r>    4.7949    1.0000 </r>
       <r>    4.9550    1.0000 </r>
       <r>    5.1653    1.0000 </r>
       <r>    5.4299    1.0000 </r>
       <r>    5.7634    1.0000 </r>
       <r>    5.9333    1.0000 </r>
       <r>    6.1229    1.0000 </r>
       <r>    6.2072    1.0000 </r>
       <r>    6.6166    1.0000 </r>
       <r>    6.8436    1.0000 </r>
       <r>    6.9749    1.0000 </r>
       <r>    7.1412    1.0000 </r>
       <r>    7.4822    1.0000 </r>
       <r>    7.9054    1.0000 </r>
       <r>    8.0353    1.0000 </r>
       <r>    8.1928    1.0000 </r>
       <r>    8.3780    1.0000 </r>
       <r>    8.5560    1.0000 </r>
       <r>    8.8793    1.0003 </r>
       <r>    9.0210    1.0064 </r>
       <r>    9.2025    1.0348 </r>
       <r>    9.4677    0.3629 </r>
       <r>    9.6796   -0.0355 </r>
       <r>    9.8442   -0.0068 </r>
       <r>    9.9064   -0.0021 </r>
       <r>   10.1961   -0.0000 </r>
       <r>   10.4420   -0.0000 </r>
       <r>   10.6868   -0.0000 </r>
       <r>   10.9404   -0.0000 </r>
       <r>   11.0908   -0.0000 </r>
       <r>   11.1928   -0.0000 </r>
       <r>   11.3538   -0.0000 </r>
       <r>   11.5665   -0.0000 </r>
       <r>   11.6441   -0.0000 </r>
       <r>   11.8446   -0.0000 </r>
       <r>   12.0424   -0.0000 </r>
       <r>   12.3766   -0.0000 </r>
       <r>   12.5022   -0.0000 </r>
       <r>   12.5912   -0.0000 </r>
       <r>   12.7438   -0.0000 </r>
       <r>   13.0233   -0.0000 </r>
       <r>   13.0730   -0.0000 </r>
       <r>   13.2730   -0.0000 </r>
       <r>   13.3949   -0.0000 </r>
       <r>   13.7323   -0.0000 </r>
      </set>
      <set comment="kpoint 82">
       <r>   -2.5481    1.0000 </r>
       <r>   -1.6345    1.0000 </r>
       <r>   -1.3380    1.0000 </r>
       <r>   -0.6634    1.0000 </r>
       <r>   -0.1574    1.0000 </r>
       <r>    0.3648    1.0000 </r>
       <r>    0.6660    1.0000 </r>
       <r>    1.2541    1.0000 </r>
       <r>    1.5508    1.0000 </r>
       <r>    1.7580    1.0000 </r>
       <r>    2.1526    1.0000 </r>
       <r>    2.6504    1.0000 </r>
       <r>    2.9970    1.0000 </r>
       <r>    3.2397    1.0000 </r>
       <r>    3.5136    1.0000 </r>
       <r>    3.7286    1.0000 </r>
       <r>    4.0536    1.0000 </r>
       <r>    4.2063    1.0000 </r>
       <r>    4.4629    1.0000 </r>
       <r>    4.7973    1.0000 </r>
       <r>    4.9863    1.0000 </r>
       <r>    5.1811    1.0000 </r>
       <r>    5.4627    1.0000 </r>
       <r>    5.7398    1.0000 </r>
       <r>    5.9125    1.0000 </r>
       <r>    6.1162    1.0000 </r>
       <r>    6.2743    1.0000 </r>
       <r>    6.4730    1.0000 </r>
       <r>    6.7635    1.0000 </r>
       <r>    7.0045    1.0000 </r>
       <r>    7.1214    1.0000 </r>
       <r>    7.5145    1.0000 </r>
       <r>    7.7651    1.0000 </r>
       <r>    8.0277    1.0000 </r>
       <r>    8.2973    1.0000 </r>
       <r>    8.4292    1.0000 </r>
       <r>    8.5827    1.0000 </r>
       <r>    8.8742    1.0003 </r>
       <r>    9.0474    1.0097 </r>
       <r>    9.2071    1.0342 </r>
       <r>    9.4114    0.5986 </r>
       <r>    9.6079   -0.0049 </r>
       <r>    9.7796   -0.0175 </r>
       <r>    9.8687   -0.0045 </r>
       <r>   10.1683   -0.0000 </r>
       <r>   10.5009   -0.0000 </r>
       <r>   10.7840   -0.0000 </r>
       <r>   10.8943   -0.0000 </r>
       <r>   11.0121   -0.0000 </r>
       <r>   11.2247   -0.0000 </r>
       <r>   11.4197   -0.0000 </r>
       <r>   11.6440   -0.0000 </r>
       <r>   11.8507   -0.0000 </r>
       <r>   11.8910   -0.0000 </r>
       <r>   12.0298   -0.0000 </r>
       <r>   12.3297   -0.0000 </r>
       <r>   12.5103   -0.0000 </r>
       <r>   12.6787   -0.0000 </r>
       <r>   12.8576   -0.0000 </r>
       <r>   12.9921   -0.0000 </r>
       <r>   13.2516   -0.0000 </r>
       <r>   13.3528   -0.0000 </r>
       <r>   13.5542   -0.0000 </r>
       <r>   13.6428   -0.0000 </r>
      </set>
      <set comment="kpoint 83">
       <r>   -2.4761    1.0000 </r>
       <r>   -1.8751    1.0000 </r>
       <r>   -1.1924    1.0000 </r>
       <r>   -0.7183    1.0000 </r>
       <r>   -0.0571    1.0000 </r>
       <r>    0.4773    1.0000 </r>
       <r>    0.7622    1.0000 </r>
       <r>    1.0797    1.0000 </r>
       <r>    1.4949    1.0000 </r>
       <r>    1.8318    1.0000 </r>
       <r>    2.0253    1.0000 </r>
       <r>    2.6358    1.0000 </r>
       <r>    2.9249    1.0000 </r>
       <r>    3.3652    1.0000 </r>
       <r>    3.4913    1.0000 </r>
       <r>    3.8883    1.0000 </r>
       <r>    4.0529    1.0000 </r>
       <r>    4.1896    1.0000 </r>
       <r>    4.3622    1.0000 </r>
       <r>    4.6202    1.0000 </r>
       <r>    4.9272    1.0000 </r>
       <r>    5.2515    1.0000 </r>
       <r>    5.5076    1.0000 </r>
       <r>    5.6363    1.0000 </r>
       <r>    5.9242    1.0000 </r>
       <r>    6.1448    1.0000 </r>
       <r>    6.3960    1.0000 </r>
       <r>    6.6146    1.0000 </r>
       <r>    6.6762    1.0000 </r>
       <r>    7.1247    1.0000 </r>
       <r>    7.2191    1.0000 </r>
       <r>    7.5022    1.0000 </r>
       <r>    7.7508    1.0000 </r>
       <r>    8.0621    1.0000 </r>
       <r>    8.1652    1.0000 </r>
       <r>    8.4196    1.0000 </r>
       <r>    8.6681    1.0000 </r>
       <r>    8.7841    1.0000 </r>
       <r>    9.0225    1.0065 </r>
       <r>    9.2284    1.0281 </r>
       <r>    9.4191    0.5666 </r>
       <r>    9.5259    0.1555 </r>
       <r>    9.6923   -0.0349 </r>
       <r>    9.9992   -0.0002 </r>
       <r>   10.2573   -0.0000 </r>
       <r>   10.5475   -0.0000 </r>
       <r>   10.6147   -0.0000 </r>
       <r>   10.7758   -0.0000 </r>
       <r>   11.0465   -0.0000 </r>
       <r>   11.2811   -0.0000 </r>
       <r>   11.4187   -0.0000 </r>
       <r>   11.6991   -0.0000 </r>
       <r>   11.7539   -0.0000 </r>
       <r>   12.0222   -0.0000 </r>
       <r>   12.1608   -0.0000 </r>
       <r>   12.2633   -0.0000 </r>
       <r>   12.3455   -0.0000 </r>
       <r>   12.7480   -0.0000 </r>
       <r>   12.8417   -0.0000 </r>
       <r>   12.9595   -0.0000 </r>
       <r>   13.1657   -0.0000 </r>
       <r>   13.2955   -0.0000 </r>
       <r>   13.4011   -0.0000 </r>
       <r>   13.5848   -0.0000 </r>
      </set>
      <set comment="kpoint 84">
       <r>   -2.5294    1.0000 </r>
       <r>   -1.6311    1.0000 </r>
       <r>   -1.3742    1.0000 </r>
       <r>   -0.7792    1.0000 </r>
       <r>   -0.0216    1.0000 </r>
       <r>    0.3648    1.0000 </r>
       <r>    0.7245    1.0000 </r>
       <r>    1.1216    1.0000 </r>
       <r>    1.6382    1.0000 </r>
       <r>    1.8810    1.0000 </r>
       <r>    2.2500    1.0000 </r>
       <r>    2.5685    1.0000 </r>
       <r>    2.9615    1.0000 </r>
       <r>    3.1930    1.0000 </r>
       <r>    3.3947    1.0000 </r>
       <r>    3.8007    1.0000 </r>
       <r>    3.8454    1.0000 </r>
       <r>    4.1164    1.0000 </r>
       <r>    4.6397    1.0000 </r>
       <r>    4.7420    1.0000 </r>
       <r>    5.0461    1.0000 </r>
       <r>    5.2201    1.0000 </r>
       <r>    5.5105    1.0000 </r>
       <r>    5.6180    1.0000 </r>
       <r>    5.9459    1.0000 </r>
       <r>    6.0888    1.0000 </r>
       <r>    6.2990    1.0000 </r>
       <r>    6.4432    1.0000 </r>
       <r>    6.7722    1.0000 </r>
       <r>    6.9634    1.0000 </r>
       <r>    7.2715    1.0000 </r>
       <r>    7.4989    1.0000 </r>
       <r>    7.8734    1.0000 </r>
       <r>    8.0476    1.0000 </r>
       <r>    8.1039    1.0000 </r>
       <r>    8.4327    1.0000 </r>
       <r>    8.6371    1.0000 </r>
       <r>    8.8514    1.0001 </r>
       <r>    9.0956    1.0187 </r>
       <r>    9.3345    0.8710 </r>
       <r>    9.4578    0.4036 </r>
       <r>    9.6773   -0.0354 </r>
       <r>    9.7442   -0.0255 </r>
       <r>   10.0333   -0.0001 </r>
       <r>   10.2728   -0.0000 </r>
       <r>   10.6044   -0.0000 </r>
       <r>   10.6359   -0.0000 </r>
       <r>   10.7978   -0.0000 </r>
       <r>   10.8925   -0.0000 </r>
       <r>   11.1184   -0.0000 </r>
       <r>   11.3864   -0.0000 </r>
       <r>   11.5062   -0.0000 </r>
       <r>   11.7560   -0.0000 </r>
       <r>   11.9186   -0.0000 </r>
       <r>   12.1521   -0.0000 </r>
       <r>   12.4508   -0.0000 </r>
       <r>   12.5426   -0.0000 </r>
       <r>   12.6726   -0.0000 </r>
       <r>   12.8269   -0.0000 </r>
       <r>   12.9268   -0.0000 </r>
       <r>   13.1289   -0.0000 </r>
       <r>   13.3104   -0.0000 </r>
       <r>   13.4158   -0.0000 </r>
       <r>   13.5260   -0.0000 </r>
      </set>
      <set comment="kpoint 85">
       <r>   -2.4986    1.0000 </r>
       <r>   -1.8280    1.0000 </r>
       <r>   -1.1736    1.0000 </r>
       <r>   -0.7196    1.0000 </r>
       <r>   -0.1252    1.0000 </r>
       <r>    0.4151    1.0000 </r>
       <r>    0.6522    1.0000 </r>
       <r>    1.2132    1.0000 </r>
       <r>    1.4559    1.0000 </r>
       <r>    2.0714    1.0000 </r>
       <r>    2.1306    1.0000 </r>
       <r>    2.5908    1.0000 </r>
       <r>    3.0177    1.0000 </r>
       <r>    3.1620    1.0000 </r>
       <r>    3.3475    1.0000 </r>
       <r>    3.7090    1.0000 </r>
       <r>    4.0246    1.0000 </r>
       <r>    4.2433    1.0000 </r>
       <r>    4.5095    1.0000 </r>
       <r>    4.8130    1.0000 </r>
       <r>    4.9268    1.0000 </r>
       <r>    5.0892    1.0000 </r>
       <r>    5.3956    1.0000 </r>
       <r>    5.7386    1.0000 </r>
       <r>    5.8702    1.0000 </r>
       <r>    6.2148    1.0000 </r>
       <r>    6.4130    1.0000 </r>
       <r>    6.6510    1.0000 </r>
       <r>    6.7780    1.0000 </r>
       <r>    6.9664    1.0000 </r>
       <r>    7.1562    1.0000 </r>
       <r>    7.5155    1.0000 </r>
       <r>    7.8513    1.0000 </r>
       <r>    8.0433    1.0000 </r>
       <r>    8.2077    1.0000 </r>
       <r>    8.3866    1.0000 </r>
       <r>    8.6084    1.0000 </r>
       <r>    8.8025    1.0000 </r>
       <r>    8.9680    1.0024 </r>
       <r>    9.2197    1.0313 </r>
       <r>    9.4744    0.3363 </r>
       <r>    9.6242   -0.0187 </r>
       <r>    9.8202   -0.0100 </r>
       <r>   10.0627   -0.0000 </r>
       <r>   10.2074   -0.0000 </r>
       <r>   10.4798   -0.0000 </r>
       <r>   10.7130   -0.0000 </r>
       <r>   10.8887   -0.0000 </r>
       <r>   11.0470   -0.0000 </r>
       <r>   11.2276   -0.0000 </r>
       <r>   11.3146   -0.0000 </r>
       <r>   11.3926   -0.0000 </r>
       <r>   11.6396   -0.0000 </r>
       <r>   11.8603   -0.0000 </r>
       <r>   12.0646   -0.0000 </r>
       <r>   12.3737   -0.0000 </r>
       <r>   12.5708   -0.0000 </r>
       <r>   12.7317   -0.0000 </r>
       <r>   12.8725   -0.0000 </r>
       <r>   12.9936   -0.0000 </r>
       <r>   13.0436   -0.0000 </r>
       <r>   13.2850   -0.0000 </r>
       <r>   13.4634   -0.0000 </r>
       <r>   13.5463   -0.0000 </r>
      </set>
      <set comment="kpoint 86">
       <r>   -2.5583    1.0000 </r>
       <r>   -1.6414    1.0000 </r>
       <r>   -1.2285    1.0000 </r>
       <r>   -0.8069    1.0000 </r>
       <r>   -0.0497    1.0000 </r>
       <r>    0.3099    1.0000 </r>
       <r>    0.5989    1.0000 </r>
       <r>    1.3045    1.0000 </r>
       <r>    1.3694    1.0000 </r>
       <r>    1.9575    1.0000 </r>
       <r>    2.3544    1.0000 </r>
       <r>    2.6126    1.0000 </r>
       <r>    2.8009    1.0000 </r>
       <r>    3.2056    1.0000 </r>
       <r>    3.5563    1.0000 </r>
       <r>    3.7929    1.0000 </r>
       <r>    4.0328    1.0000 </r>
       <r>    4.2499    1.0000 </r>
       <r>    4.3541    1.0000 </r>
       <r>    4.8504    1.0000 </r>
       <r>    5.0274    1.0000 </r>
       <r>    5.2527    1.0000 </r>
       <r>    5.5338    1.0000 </r>
       <r>    5.6520    1.0000 </r>
       <r>    5.8462    1.0000 </r>
       <r>    6.1427    1.0000 </r>
       <r>    6.2918    1.0000 </r>
       <r>    6.5210    1.0000 </r>
       <r>    6.5737    1.0000 </r>
       <r>    6.7918    1.0000 </r>
       <r>    7.1965    1.0000 </r>
       <r>    7.4610    1.0000 </r>
       <r>    7.7795    1.0000 </r>
       <r>    8.1649    1.0000 </r>
       <r>    8.2265    1.0000 </r>
       <r>    8.5124    1.0000 </r>
       <r>    8.6278    1.0000 </r>
       <r>    8.7683    1.0000 </r>
       <r>    9.1267    1.0258 </r>
       <r>    9.1862    1.0354 </r>
       <r>    9.4584    0.4011 </r>
       <r>    9.6067   -0.0037 </r>
       <r>    9.8644   -0.0048 </r>
       <r>   10.1031   -0.0000 </r>
       <r>   10.1829   -0.0000 </r>
       <r>   10.4767   -0.0000 </r>
       <r>   10.7201   -0.0000 </r>
       <r>   10.9664   -0.0000 </r>
       <r>   11.0759   -0.0000 </r>
       <r>   11.3153   -0.0000 </r>
       <r>   11.4066   -0.0000 </r>
       <r>   11.4500   -0.0000 </r>
       <r>   11.5587   -0.0000 </r>
       <r>   11.9083   -0.0000 </r>
       <r>   12.1933   -0.0000 </r>
       <r>   12.2764   -0.0000 </r>
       <r>   12.4387   -0.0000 </r>
       <r>   12.6986   -0.0000 </r>
       <r>   12.8167   -0.0000 </r>
       <r>   13.0193   -0.0000 </r>
       <r>   13.1412   -0.0000 </r>
       <r>   13.2367   -0.0000 </r>
       <r>   13.4214   -0.0000 </r>
       <r>   13.5619   -0.0000 </r>
      </set>
      <set comment="kpoint 87">
       <r>   -2.4988    1.0000 </r>
       <r>   -1.8313    1.0000 </r>
       <r>   -1.2025    1.0000 </r>
       <r>   -0.7164    1.0000 </r>
       <r>    0.0851    1.0000 </r>
       <r>    0.3632    1.0000 </r>
       <r>    0.5770    1.0000 </r>
       <r>    1.0963    1.0000 </r>
       <r>    1.5441    1.0000 </r>
       <r>    1.7969    1.0000 </r>
       <r>    2.1314    1.0000 </r>
       <r>    2.6176    1.0000 </r>
       <r>    2.9825    1.0000 </r>
       <r>    3.3102    1.0000 </r>
       <r>    3.6192    1.0000 </r>
       <r>    3.8266    1.0000 </r>
       <r>    4.0429    1.0000 </r>
       <r>    4.2775    1.0000 </r>
       <r>    4.4120    1.0000 </r>
       <r>    4.8484    1.0000 </r>
       <r>    4.8826    1.0000 </r>
       <r>    5.1139    1.0000 </r>
       <r>    5.2107    1.0000 </r>
       <r>    5.5997    1.0000 </r>
       <r>    5.8943    1.0000 </r>
       <r>    6.0294    1.0000 </r>
       <r>    6.4684    1.0000 </r>
       <r>    6.6208    1.0000 </r>
       <r>    6.7214    1.0000 </r>
       <r>    7.1021    1.0000 </r>
       <r>    7.2600    1.0000 </r>
       <r>    7.5817    1.0000 </r>
       <r>    7.8136    1.0000 </r>
       <r>    8.1354    1.0000 </r>
       <r>    8.2045    1.0000 </r>
       <r>    8.4098    1.0000 </r>
       <r>    8.5294    1.0000 </r>
       <r>    8.7337    1.0000 </r>
       <r>    9.0490    1.0100 </r>
       <r>    9.3342    0.8719 </r>
       <r>    9.4330    0.5077 </r>
       <r>    9.5305    0.1420 </r>
       <r>    9.6661   -0.0347 </r>
       <r>    9.8830   -0.0034 </r>
       <r>   10.2922   -0.0000 </r>
       <r>   10.4953   -0.0000 </r>
       <r>   10.8284   -0.0000 </r>
       <r>   10.9706   -0.0000 </r>
       <r>   11.0681   -0.0000 </r>
       <r>   11.1680   -0.0000 </r>
       <r>   11.3591   -0.0000 </r>
       <r>   11.4577   -0.0000 </r>
       <r>   11.5829   -0.0000 </r>
       <r>   11.7792   -0.0000 </r>
       <r>   12.2261   -0.0000 </r>
       <r>   12.3361   -0.0000 </r>
       <r>   12.5486   -0.0000 </r>
       <r>   12.5849   -0.0000 </r>
       <r>   12.8974   -0.0000 </r>
       <r>   12.9987   -0.0000 </r>
       <r>   13.2073   -0.0000 </r>
       <r>   13.3200   -0.0000 </r>
       <r>   13.5068   -0.0000 </r>
       <r>   13.5816   -0.0000 </r>
      </set>
      <set comment="kpoint 88">
       <r>   -2.5274    1.0000 </r>
       <r>   -1.6652    1.0000 </r>
       <r>   -1.2661    1.0000 </r>
       <r>   -0.8749    1.0000 </r>
       <r>   -0.1287    1.0000 </r>
       <r>    0.3794    1.0000 </r>
       <r>    0.9817    1.0000 </r>
       <r>    1.1152    1.0000 </r>
       <r>    1.6014    1.0000 </r>
       <r>    1.8001    1.0000 </r>
       <r>    2.1909    1.0000 </r>
       <r>    2.6466    1.0000 </r>
       <r>    2.9048    1.0000 </r>
       <r>    3.2291    1.0000 </r>
       <r>    3.3562    1.0000 </r>
       <r>    3.8049    1.0000 </r>
       <r>    3.9296    1.0000 </r>
       <r>    4.1157    1.0000 </r>
       <r>    4.4872    1.0000 </r>
       <r>    4.8356    1.0000 </r>
       <r>    5.0012    1.0000 </r>
       <r>    5.2176    1.0000 </r>
       <r>    5.3555    1.0000 </r>
       <r>    5.6659    1.0000 </r>
       <r>    5.9226    1.0000 </r>
       <r>    6.0942    1.0000 </r>
       <r>    6.3067    1.0000 </r>
       <r>    6.5718    1.0000 </r>
       <r>    6.6879    1.0000 </r>
       <r>    7.1228    1.0000 </r>
       <r>    7.3282    1.0000 </r>
       <r>    7.4767    1.0000 </r>
       <r>    7.9140    1.0000 </r>
       <r>    8.0466    1.0000 </r>
       <r>    8.1551    1.0000 </r>
       <r>    8.3132    1.0000 </r>
       <r>    8.6165    1.0000 </r>
       <r>    8.8401    1.0001 </r>
       <r>    9.1336    1.0274 </r>
       <r>    9.3811    0.7187 </r>
       <r>    9.4605    0.3924 </r>
       <r>    9.6520   -0.0319 </r>
       <r>    9.8005   -0.0134 </r>
       <r>   10.0253   -0.0001 </r>
       <r>   10.1635   -0.0000 </r>
       <r>   10.4058   -0.0000 </r>
       <r>   10.6189   -0.0000 </r>
       <r>   10.8868   -0.0000 </r>
       <r>   11.0949   -0.0000 </r>
       <r>   11.2254   -0.0000 </r>
       <r>   11.3889   -0.0000 </r>
       <r>   11.5154   -0.0000 </r>
       <r>   11.6582   -0.0000 </r>
       <r>   12.0103   -0.0000 </r>
       <r>   12.1613   -0.0000 </r>
       <r>   12.3059   -0.0000 </r>
       <r>   12.4513   -0.0000 </r>
       <r>   12.6122   -0.0000 </r>
       <r>   12.7719   -0.0000 </r>
       <r>   12.8984   -0.0000 </r>
       <r>   13.0984   -0.0000 </r>
       <r>   13.1927   -0.0000 </r>
       <r>   13.3419   -0.0000 </r>
       <r>   13.5463   -0.0000 </r>
      </set>
      <set comment="kpoint 89">
       <r>   -2.5144    1.0000 </r>
       <r>   -1.7957    1.0000 </r>
       <r>   -1.2110    1.0000 </r>
       <r>   -0.6797    1.0000 </r>
       <r>   -0.0536    1.0000 </r>
       <r>    0.3212    1.0000 </r>
       <r>    0.6284    1.0000 </r>
       <r>    1.2835    1.0000 </r>
       <r>    1.5634    1.0000 </r>
       <r>    1.7739    1.0000 </r>
       <r>    2.2539    1.0000 </r>
       <r>    2.4561    1.0000 </r>
       <r>    2.8034    1.0000 </r>
       <r>    3.2569    1.0000 </r>
       <r>    3.4975    1.0000 </r>
       <r>    3.7978    1.0000 </r>
       <r>    4.0417    1.0000 </r>
       <r>    4.3891    1.0000 </r>
       <r>    4.5115    1.0000 </r>
       <r>    4.8233    1.0000 </r>
       <r>    4.9804    1.0000 </r>
       <r>    5.2900    1.0000 </r>
       <r>    5.4293    1.0000 </r>
       <r>    5.6149    1.0000 </r>
       <r>    5.8464    1.0000 </r>
       <r>    6.2320    1.0000 </r>
       <r>    6.3078    1.0000 </r>
       <r>    6.3624    1.0000 </r>
       <r>    6.6875    1.0000 </r>
       <r>    7.1338    1.0000 </r>
       <r>    7.2733    1.0000 </r>
       <r>    7.4616    1.0000 </r>
       <r>    7.7639    1.0000 </r>
       <r>    8.0081    1.0000 </r>
       <r>    8.1189    1.0000 </r>
       <r>    8.4569    1.0000 </r>
       <r>    8.6775    1.0000 </r>
       <r>    8.7874    1.0000 </r>
       <r>    8.9679    1.0023 </r>
       <r>    9.1333    1.0273 </r>
       <r>    9.2770    0.9872 </r>
       <r>    9.5312    0.1402 </r>
       <r>    9.8898   -0.0030 </r>
       <r>    9.9977   -0.0003 </r>
       <r>   10.3685   -0.0000 </r>
       <r>   10.4394   -0.0000 </r>
       <r>   10.7309   -0.0000 </r>
       <r>   10.9836   -0.0000 </r>
       <r>   11.0369   -0.0000 </r>
       <r>   11.1807   -0.0000 </r>
       <r>   11.4306   -0.0000 </r>
       <r>   11.5052   -0.0000 </r>
       <r>   11.7212   -0.0000 </r>
       <r>   11.9041   -0.0000 </r>
       <r>   12.1348   -0.0000 </r>
       <r>   12.4041   -0.0000 </r>
       <r>   12.5739   -0.0000 </r>
       <r>   12.7500   -0.0000 </r>
       <r>   12.9193   -0.0000 </r>
       <r>   13.0156   -0.0000 </r>
       <r>   13.1584   -0.0000 </r>
       <r>   13.2635   -0.0000 </r>
       <r>   13.4067   -0.0000 </r>
       <r>   13.6246   -0.0000 </r>
      </set>
      <set comment="kpoint 90">
       <r>   -2.5227    1.0000 </r>
       <r>   -1.7046    1.0000 </r>
       <r>   -1.2748    1.0000 </r>
       <r>   -0.7828    1.0000 </r>
       <r>   -0.0235    1.0000 </r>
       <r>    0.2107    1.0000 </r>
       <r>    0.8107    1.0000 </r>
       <r>    1.2537    1.0000 </r>
       <r>    1.6332    1.0000 </r>
       <r>    1.8042    1.0000 </r>
       <r>    2.1154    1.0000 </r>
       <r>    2.7109    1.0000 </r>
       <r>    2.8931    1.0000 </r>
       <r>    3.2638    1.0000 </r>
       <r>    3.5078    1.0000 </r>
       <r>    3.8052    1.0000 </r>
       <r>    3.8848    1.0000 </r>
       <r>    4.3432    1.0000 </r>
       <r>    4.4465    1.0000 </r>
       <r>    4.6237    1.0000 </r>
       <r>    4.9391    1.0000 </r>
       <r>    5.0656    1.0000 </r>
       <r>    5.1678    1.0000 </r>
       <r>    5.6608    1.0000 </r>
       <r>    5.9243    1.0000 </r>
       <r>    6.1401    1.0000 </r>
       <r>    6.5094    1.0000 </r>
       <r>    6.6659    1.0000 </r>
       <r>    6.8637    1.0000 </r>
       <r>    7.1037    1.0000 </r>
       <r>    7.2398    1.0000 </r>
       <r>    7.5135    1.0000 </r>
       <r>    7.7716    1.0000 </r>
       <r>    8.1021    1.0000 </r>
       <r>    8.3269    1.0000 </r>
       <r>    8.4035    1.0000 </r>
       <r>    8.5468    1.0000 </r>
       <r>    8.7469    1.0000 </r>
       <r>    9.0512    1.0103 </r>
       <r>    9.2183    1.0317 </r>
       <r>    9.4806    0.3118 </r>
       <r>    9.6385   -0.0269 </r>
       <r>    9.7879   -0.0158 </r>
       <r>    9.9970   -0.0003 </r>
       <r>   10.2768   -0.0000 </r>
       <r>   10.4439   -0.0000 </r>
       <r>   10.7396   -0.0000 </r>
       <r>   10.8838   -0.0000 </r>
       <r>   11.0633   -0.0000 </r>
       <r>   11.1612   -0.0000 </r>
       <r>   11.2950   -0.0000 </r>
       <r>   11.4905   -0.0000 </r>
       <r>   11.6114   -0.0000 </r>
       <r>   11.7433   -0.0000 </r>
       <r>   12.0500   -0.0000 </r>
       <r>   12.3613   -0.0000 </r>
       <r>   12.4784   -0.0000 </r>
       <r>   12.6676   -0.0000 </r>
       <r>   12.8205   -0.0000 </r>
       <r>   13.0680   -0.0000 </r>
       <r>   13.1036   -0.0000 </r>
       <r>   13.2160   -0.0000 </r>
       <r>   13.5684   -0.0000 </r>
       <r>   13.6967   -0.0000 </r>
      </set>
      <set comment="kpoint 91">
       <r>   -2.5462    1.0000 </r>
       <r>   -1.6747    1.0000 </r>
       <r>   -1.2199    1.0000 </r>
       <r>   -0.7901    1.0000 </r>
       <r>   -0.1552    1.0000 </r>
       <r>    0.3691    1.0000 </r>
       <r>    0.6879    1.0000 </r>
       <r>    1.2933    1.0000 </r>
       <r>    1.4605    1.0000 </r>
       <r>    1.9864    1.0000 </r>
       <r>    2.1847    1.0000 </r>
       <r>    2.6335    1.0000 </r>
       <r>    2.7941    1.0000 </r>
       <r>    3.0518    1.0000 </r>
       <r>    3.5630    1.0000 </r>
       <r>    3.8630    1.0000 </r>
       <r>    4.1201    1.0000 </r>
       <r>    4.2588    1.0000 </r>
       <r>    4.4511    1.0000 </r>
       <r>    4.7547    1.0000 </r>
       <r>    4.9341    1.0000 </r>
       <r>    5.2878    1.0000 </r>
       <r>    5.4663    1.0000 </r>
       <r>    5.6073    1.0000 </r>
       <r>    5.8918    1.0000 </r>
       <r>    6.1839    1.0000 </r>
       <r>    6.2751    1.0000 </r>
       <r>    6.4097    1.0000 </r>
       <r>    6.7427    1.0000 </r>
       <r>    7.0082    1.0000 </r>
       <r>    7.1279    1.0000 </r>
       <r>    7.3758    1.0000 </r>
       <r>    7.8806    1.0000 </r>
       <r>    8.0987    1.0000 </r>
       <r>    8.2034    1.0000 </r>
       <r>    8.3955    1.0000 </r>
       <r>    8.5832    1.0000 </r>
       <r>    8.9010    1.0005 </r>
       <r>    9.0966    1.0189 </r>
       <r>    9.3311    0.8801 </r>
       <r>    9.5588    0.0713 </r>
       <r>    9.6549   -0.0326 </r>
       <r>    9.8943   -0.0027 </r>
       <r>   10.0169   -0.0002 </r>
       <r>   10.2567   -0.0000 </r>
       <r>   10.3400   -0.0000 </r>
       <r>   10.4941   -0.0000 </r>
       <r>   10.8376   -0.0000 </r>
       <r>   11.0297   -0.0000 </r>
       <r>   11.2419   -0.0000 </r>
       <r>   11.3795   -0.0000 </r>
       <r>   11.4852   -0.0000 </r>
       <r>   11.7013   -0.0000 </r>
       <r>   11.9528   -0.0000 </r>
       <r>   12.1535   -0.0000 </r>
       <r>   12.3618   -0.0000 </r>
       <r>   12.5515   -0.0000 </r>
       <r>   12.6989   -0.0000 </r>
       <r>   12.8568   -0.0000 </r>
       <r>   12.9639   -0.0000 </r>
       <r>   13.1417   -0.0000 </r>
       <r>   13.2447   -0.0000 </r>
       <r>   13.3844   -0.0000 </r>
       <r>   13.5097   -0.0000 </r>
      </set>
      <set comment="kpoint 92">
       <r>   -2.5077    1.0000 </r>
       <r>   -1.7738    1.0000 </r>
       <r>   -1.1907    1.0000 </r>
       <r>   -0.8397    1.0000 </r>
       <r>   -0.0872    1.0000 </r>
       <r>    0.4799    1.0000 </r>
       <r>    0.8542    1.0000 </r>
       <r>    0.9977    1.0000 </r>
       <r>    1.4538    1.0000 </r>
       <r>    1.9543    1.0000 </r>
       <r>    2.4523    1.0000 </r>
       <r>    2.5866    1.0000 </r>
       <r>    2.7539    1.0000 </r>
       <r>    2.9962    1.0000 </r>
       <r>    3.4114    1.0000 </r>
       <r>    3.8044    1.0000 </r>
       <r>    4.1603    1.0000 </r>
       <r>    4.2759    1.0000 </r>
       <r>    4.4705    1.0000 </r>
       <r>    4.7857    1.0000 </r>
       <r>    4.9241    1.0000 </r>
       <r>    5.2749    1.0000 </r>
       <r>    5.4166    1.0000 </r>
       <r>    5.5496    1.0000 </r>
       <r>    5.8129    1.0000 </r>
       <r>    6.2257    1.0000 </r>
       <r>    6.3483    1.0000 </r>
       <r>    6.6262    1.0000 </r>
       <r>    6.8290    1.0000 </r>
       <r>    7.0134    1.0000 </r>
       <r>    7.1746    1.0000 </r>
       <r>    7.4679    1.0000 </r>
       <r>    7.6824    1.0000 </r>
       <r>    8.0496    1.0000 </r>
       <r>    8.1699    1.0000 </r>
       <r>    8.3237    1.0000 </r>
       <r>    8.5918    1.0000 </r>
       <r>    8.8527    1.0002 </r>
       <r>    9.1590    1.0325 </r>
       <r>    9.3640    0.7801 </r>
       <r>    9.4784    0.3205 </r>
       <r>    9.6509   -0.0316 </r>
       <r>    9.8754   -0.0039 </r>
       <r>   10.1651   -0.0000 </r>
       <r>   10.3178   -0.0000 </r>
       <r>   10.3498   -0.0000 </r>
       <r>   10.5601   -0.0000 </r>
       <r>   10.7067   -0.0000 </r>
       <r>   11.0600   -0.0000 </r>
       <r>   11.3549   -0.0000 </r>
       <r>   11.4973   -0.0000 </r>
       <r>   11.5844   -0.0000 </r>
       <r>   11.7251   -0.0000 </r>
       <r>   11.7930   -0.0000 </r>
       <r>   12.0208   -0.0000 </r>
       <r>   12.3458   -0.0000 </r>
       <r>   12.4328   -0.0000 </r>
       <r>   12.5894   -0.0000 </r>
       <r>   12.7317   -0.0000 </r>
       <r>   12.8676   -0.0000 </r>
       <r>   13.0486   -0.0000 </r>
       <r>   13.2931   -0.0000 </r>
       <r>   13.4347   -0.0000 </r>
       <r>   13.5692   -0.0000 </r>
      </set>
      <set comment="kpoint 93">
       <r>   -2.4875    1.0000 </r>
       <r>   -1.8732    1.0000 </r>
       <r>   -1.1651    1.0000 </r>
       <r>   -0.6457    1.0000 </r>
       <r>   -0.1341    1.0000 </r>
       <r>    0.3682    1.0000 </r>
       <r>    0.7298    1.0000 </r>
       <r>    1.1042    1.0000 </r>
       <r>    1.6364    1.0000 </r>
       <r>    1.8704    1.0000 </r>
       <r>    2.2393    1.0000 </r>
       <r>    2.4216    1.0000 </r>
       <r>    2.6828    1.0000 </r>
       <r>    3.3038    1.0000 </r>
       <r>    3.5100    1.0000 </r>
       <r>    3.8976    1.0000 </r>
       <r>    3.9870    1.0000 </r>
       <r>    4.3537    1.0000 </r>
       <r>    4.5456    1.0000 </r>
       <r>    4.7859    1.0000 </r>
       <r>    5.1180    1.0000 </r>
       <r>    5.2429    1.0000 </r>
       <r>    5.4048    1.0000 </r>
       <r>    5.5007    1.0000 </r>
       <r>    5.8631    1.0000 </r>
       <r>    6.1749    1.0000 </r>
       <r>    6.2381    1.0000 </r>
       <r>    6.4181    1.0000 </r>
       <r>    6.7326    1.0000 </r>
       <r>    6.9828    1.0000 </r>
       <r>    7.3469    1.0000 </r>
       <r>    7.5231    1.0000 </r>
       <r>    7.8507    1.0000 </r>
       <r>    8.1175    1.0000 </r>
       <r>    8.2177    1.0000 </r>
       <r>    8.4106    1.0000 </r>
       <r>    8.5991    1.0000 </r>
       <r>    8.7676    1.0000 </r>
       <r>    8.9418    1.0013 </r>
       <r>    9.1628    1.0331 </r>
       <r>    9.3625    0.7850 </r>
       <r>    9.5634    0.0618 </r>
       <r>    9.8051   -0.0125 </r>
       <r>   10.0748   -0.0000 </r>
       <r>   10.3790   -0.0000 </r>
       <r>   10.4955   -0.0000 </r>
       <r>   10.7179   -0.0000 </r>
       <r>   10.7699   -0.0000 </r>
       <r>   11.0513   -0.0000 </r>
       <r>   11.1129   -0.0000 </r>
       <r>   11.3771   -0.0000 </r>
       <r>   11.4273   -0.0000 </r>
       <r>   11.7530   -0.0000 </r>
       <r>   11.9213   -0.0000 </r>
       <r>   12.1484   -0.0000 </r>
       <r>   12.3772   -0.0000 </r>
       <r>   12.5465   -0.0000 </r>
       <r>   12.8310   -0.0000 </r>
       <r>   13.0094   -0.0000 </r>
       <r>   13.0971   -0.0000 </r>
       <r>   13.1669   -0.0000 </r>
       <r>   13.2909   -0.0000 </r>
       <r>   13.4029   -0.0000 </r>
       <r>   13.5256   -0.0000 </r>
      </set>
      <set comment="kpoint 94">
       <r>   -2.5107    1.0000 </r>
       <r>   -1.7238    1.0000 </r>
       <r>   -1.3326    1.0000 </r>
       <r>   -0.7085    1.0000 </r>
       <r>    0.0391    1.0000 </r>
       <r>    0.2324    1.0000 </r>
       <r>    0.6642    1.0000 </r>
       <r>    1.2387    1.0000 </r>
       <r>    1.7324    1.0000 </r>
       <r>    1.8242    1.0000 </r>
       <r>    2.1788    1.0000 </r>
       <r>    2.6005    1.0000 </r>
       <r>    2.8436    1.0000 </r>
       <r>    3.2746    1.0000 </r>
       <r>    3.4338    1.0000 </r>
       <r>    3.6956    1.0000 </r>
       <r>    4.0307    1.0000 </r>
       <r>    4.2625    1.0000 </r>
       <r>    4.4201    1.0000 </r>
       <r>    4.8126    1.0000 </r>
       <r>    4.9064    1.0000 </r>
       <r>    5.2325    1.0000 </r>
       <r>    5.3718    1.0000 </r>
       <r>    5.4836    1.0000 </r>
       <r>    5.7130    1.0000 </r>
       <r>    6.2448    1.0000 </r>
       <r>    6.4820    1.0000 </r>
       <r>    6.6142    1.0000 </r>
       <r>    6.8446    1.0000 </r>
       <r>    7.0696    1.0000 </r>
       <r>    7.3003    1.0000 </r>
       <r>    7.4923    1.0000 </r>
       <r>    7.8802    1.0000 </r>
       <r>    8.1258    1.0000 </r>
       <r>    8.2705    1.0000 </r>
       <r>    8.4550    1.0000 </r>
       <r>    8.5450    1.0000 </r>
       <r>    8.7522    1.0000 </r>
       <r>    9.0214    1.0064 </r>
       <r>    9.1767    1.0348 </r>
       <r>    9.3985    0.6509 </r>
       <r>    9.6378   -0.0266 </r>
       <r>    9.6782   -0.0354 </r>
       <r>   10.0485   -0.0001 </r>
       <r>   10.2744   -0.0000 </r>
       <r>   10.4179   -0.0000 </r>
       <r>   10.7043   -0.0000 </r>
       <r>   10.9165   -0.0000 </r>
       <r>   10.9883   -0.0000 </r>
       <r>   11.1774   -0.0000 </r>
       <r>   11.3359   -0.0000 </r>
       <r>   11.5724   -0.0000 </r>
       <r>   11.6569   -0.0000 </r>
       <r>   11.8580   -0.0000 </r>
       <r>   12.1192   -0.0000 </r>
       <r>   12.3815   -0.0000 </r>
       <r>   12.5153   -0.0000 </r>
       <r>   12.7033   -0.0000 </r>
       <r>   12.8117   -0.0000 </r>
       <r>   12.8824   -0.0000 </r>
       <r>   13.0846   -0.0000 </r>
       <r>   13.2916   -0.0000 </r>
       <r>   13.4533   -0.0000 </r>
       <r>   13.5741   -0.0000 </r>
      </set>
      <set comment="kpoint 95">
       <r>   -2.5441    1.0000 </r>
       <r>   -1.6960    1.0000 </r>
       <r>   -1.2682    1.0000 </r>
       <r>   -0.6591    1.0000 </r>
       <r>    0.0011    1.0000 </r>
       <r>    0.1731    1.0000 </r>
       <r>    0.6170    1.0000 </r>
       <r>    1.2066    1.0000 </r>
       <r>    1.5433    1.0000 </r>
       <r>    1.8958    1.0000 </r>
       <r>    2.1089    1.0000 </r>
       <r>    2.6847    1.0000 </r>
       <r>    2.9346    1.0000 </r>
       <r>    3.2735    1.0000 </r>
       <r>    3.6252    1.0000 </r>
       <r>    3.7694    1.0000 </r>
       <r>    4.0545    1.0000 </r>
       <r>    4.2839    1.0000 </r>
       <r>    4.4441    1.0000 </r>
       <r>    4.7991    1.0000 </r>
       <r>    5.0029    1.0000 </r>
       <r>    5.1827    1.0000 </r>
       <r>    5.2704    1.0000 </r>
       <r>    5.5601    1.0000 </r>
       <r>    5.8192    1.0000 </r>
       <r>    6.0497    1.0000 </r>
       <r>    6.3632    1.0000 </r>
       <r>    6.5533    1.0000 </r>
       <r>    6.8251    1.0000 </r>
       <r>    6.9028    1.0000 </r>
       <r>    7.1801    1.0000 </r>
       <r>    7.4219    1.0000 </r>
       <r>    7.9389    1.0000 </r>
       <r>    8.0447    1.0000 </r>
       <r>    8.3478    1.0000 </r>
       <r>    8.5050    1.0000 </r>
       <r>    8.6362    1.0000 </r>
       <r>    8.7693    1.0000 </r>
       <r>    8.9896    1.0036 </r>
       <r>    9.3560    0.8066 </r>
       <r>    9.5173    0.1819 </r>
       <r>    9.5707    0.0476 </r>
       <r>    9.7534   -0.0234 </r>
       <r>   10.0574   -0.0000 </r>
       <r>   10.2818   -0.0000 </r>
       <r>   10.4478   -0.0000 </r>
       <r>   10.6892   -0.0000 </r>
       <r>   10.8341   -0.0000 </r>
       <r>   10.9999   -0.0000 </r>
       <r>   11.1029   -0.0000 </r>
       <r>   11.1776   -0.0000 </r>
       <r>   11.3089   -0.0000 </r>
       <r>   11.6807   -0.0000 </r>
       <r>   11.9553   -0.0000 </r>
       <r>   12.1479   -0.0000 </r>
       <r>   12.3628   -0.0000 </r>
       <r>   12.6698   -0.0000 </r>
       <r>   12.7920   -0.0000 </r>
       <r>   12.9391   -0.0000 </r>
       <r>   13.1218   -0.0000 </r>
       <r>   13.2004   -0.0000 </r>
       <r>   13.3689   -0.0000 </r>
       <r>   13.5654   -0.0000 </r>
       <r>   13.6040   -0.0000 </r>
      </set>
      <set comment="kpoint 96">
       <r>   -2.5352    1.0000 </r>
       <r>   -1.6668    1.0000 </r>
       <r>   -1.2225    1.0000 </r>
       <r>   -0.8977    1.0000 </r>
       <r>   -0.0908    1.0000 </r>
       <r>    0.4836    1.0000 </r>
       <r>    0.5518    1.0000 </r>
       <r>    1.3193    1.0000 </r>
       <r>    1.7859    1.0000 </r>
       <r>    1.9010    1.0000 </r>
       <r>    2.0978    1.0000 </r>
       <r>    2.4272    1.0000 </r>
       <r>    2.8400    1.0000 </r>
       <r>    3.2170    1.0000 </r>
       <r>    3.4204    1.0000 </r>
       <r>    3.8001    1.0000 </r>
       <r>    4.0280    1.0000 </r>
       <r>    4.3884    1.0000 </r>
       <r>    4.4660    1.0000 </r>
       <r>    4.8363    1.0000 </r>
       <r>    4.9220    1.0000 </r>
       <r>    5.1960    1.0000 </r>
       <r>    5.3523    1.0000 </r>
       <r>    5.4848    1.0000 </r>
       <r>    5.8239    1.0000 </r>
       <r>    6.2441    1.0000 </r>
       <r>    6.3531    1.0000 </r>
       <r>    6.4819    1.0000 </r>
       <r>    6.7147    1.0000 </r>
       <r>    7.0834    1.0000 </r>
       <r>    7.2721    1.0000 </r>
       <r>    7.5195    1.0000 </r>
       <r>    7.7550    1.0000 </r>
       <r>    8.0891    1.0000 </r>
       <r>    8.3188    1.0000 </r>
       <r>    8.4839    1.0000 </r>
       <r>    8.6942    1.0000 </r>
       <r>    8.8278    1.0001 </r>
       <r>    9.1036    1.0205 </r>
       <r>    9.2465    1.0180 </r>
       <r>    9.4228    0.5508 </r>
       <r>    9.4995    0.2417 </r>
       <r>    9.8635   -0.0049 </r>
       <r>   10.0901   -0.0000 </r>
       <r>   10.2195   -0.0000 </r>
       <r>   10.3559   -0.0000 </r>
       <r>   10.6100   -0.0000 </r>
       <r>   10.8845   -0.0000 </r>
       <r>   10.9753   -0.0000 </r>
       <r>   11.1803   -0.0000 </r>
       <r>   11.4315   -0.0000 </r>
       <r>   11.5758   -0.0000 </r>
       <r>   11.7373   -0.0000 </r>
       <r>   11.9326   -0.0000 </r>
       <r>   12.0298   -0.0000 </r>
       <r>   12.2899   -0.0000 </r>
       <r>   12.4182   -0.0000 </r>
       <r>   12.6653   -0.0000 </r>
       <r>   12.8714   -0.0000 </r>
       <r>   13.0329   -0.0000 </r>
       <r>   13.0753   -0.0000 </r>
       <r>   13.2792   -0.0000 </r>
       <r>   13.4158   -0.0000 </r>
       <r>   13.5997   -0.0000 </r>
      </set>
      <set comment="kpoint 97">
       <r>   -2.5056    1.0000 </r>
       <r>   -1.8052    1.0000 </r>
       <r>   -1.1408    1.0000 </r>
       <r>   -0.8467    1.0000 </r>
       <r>    0.0131    1.0000 </r>
       <r>    0.3411    1.0000 </r>
       <r>    0.7253    1.0000 </r>
       <r>    1.1282    1.0000 </r>
       <r>    1.6074    1.0000 </r>
       <r>    1.7930    1.0000 </r>
       <r>    2.4082    1.0000 </r>
       <r>    2.5551    1.0000 </r>
       <r>    2.7458    1.0000 </r>
       <r>    3.0607    1.0000 </r>
       <r>    3.5263    1.0000 </r>
       <r>    3.6828    1.0000 </r>
       <r>    4.0930    1.0000 </r>
       <r>    4.2815    1.0000 </r>
       <r>    4.6263    1.0000 </r>
       <r>    4.7163    1.0000 </r>
       <r>    5.1096    1.0000 </r>
       <r>    5.3674    1.0000 </r>
       <r>    5.4944    1.0000 </r>
       <r>    5.6105    1.0000 </r>
       <r>    5.7585    1.0000 </r>
       <r>    5.9773    1.0000 </r>
       <r>    6.3571    1.0000 </r>
       <r>    6.5361    1.0000 </r>
       <r>    6.7257    1.0000 </r>
       <r>    6.9029    1.0000 </r>
       <r>    7.1764    1.0000 </r>
       <r>    7.4927    1.0000 </r>
       <r>    7.6860    1.0000 </r>
       <r>    8.1782    1.0000 </r>
       <r>    8.2801    1.0000 </r>
       <r>    8.3625    1.0000 </r>
       <r>    8.5976    1.0000 </r>
       <r>    8.7683    1.0000 </r>
       <r>    9.0533    1.0106 </r>
       <r>    9.2836    0.9780 </r>
       <r>    9.5678    0.0530 </r>
       <r>    9.7452   -0.0253 </r>
       <r>    9.8096   -0.0118 </r>
       <r>   10.1050   -0.0000 </r>
       <r>   10.1849   -0.0000 </r>
       <r>   10.5557   -0.0000 </r>
       <r>   10.6388   -0.0000 </r>
       <r>   10.7394   -0.0000 </r>
       <r>   11.0623   -0.0000 </r>
       <r>   11.2432   -0.0000 </r>
       <r>   11.3241   -0.0000 </r>
       <r>   11.5228   -0.0000 </r>
       <r>   11.6492   -0.0000 </r>
       <r>   11.9753   -0.0000 </r>
       <r>   12.0796   -0.0000 </r>
       <r>   12.3721   -0.0000 </r>
       <r>   12.5327   -0.0000 </r>
       <r>   12.6659   -0.0000 </r>
       <r>   12.7866   -0.0000 </r>
       <r>   12.9019   -0.0000 </r>
       <r>   13.0494   -0.0000 </r>
       <r>   13.2875   -0.0000 </r>
       <r>   13.5114   -0.0000 </r>
       <r>   13.6407   -0.0000 </r>
      </set>
      <set comment="kpoint 98">
       <r>   -2.5335    1.0000 </r>
       <r>   -1.7132    1.0000 </r>
       <r>   -1.3118    1.0000 </r>
       <r>   -0.6090    1.0000 </r>
       <r>   -0.0115    1.0000 </r>
       <r>    0.2888    1.0000 </r>
       <r>    0.6051    1.0000 </r>
       <r>    1.0489    1.0000 </r>
       <r>    1.6805    1.0000 </r>
       <r>    1.7541    1.0000 </r>
       <r>    2.1513    1.0000 </r>
       <r>    2.7019    1.0000 </r>
       <r>    2.9602    1.0000 </r>
       <r>    3.1662    1.0000 </r>
       <r>    3.7146    1.0000 </r>
       <r>    3.8240    1.0000 </r>
       <r>    4.1026    1.0000 </r>
       <r>    4.2135    1.0000 </r>
       <r>    4.4962    1.0000 </r>
       <r>    4.7918    1.0000 </r>
       <r>    4.8934    1.0000 </r>
       <r>    5.0379    1.0000 </r>
       <r>    5.2729    1.0000 </r>
       <r>    5.5893    1.0000 </r>
       <r>    5.9386    1.0000 </r>
       <r>    6.1342    1.0000 </r>
       <r>    6.3478    1.0000 </r>
       <r>    6.5326    1.0000 </r>
       <r>    6.8391    1.0000 </r>
       <r>    7.0201    1.0000 </r>
       <r>    7.1681    1.0000 </r>
       <r>    7.4924    1.0000 </r>
       <r>    7.8842    1.0000 </r>
       <r>    8.1068    1.0000 </r>
       <r>    8.2020    1.0000 </r>
       <r>    8.4579    1.0000 </r>
       <r>    8.7074    1.0000 </r>
       <r>    8.8269    1.0001 </r>
       <r>    8.8537    1.0002 </r>
       <r>    9.1741    1.0346 </r>
       <r>    9.3728    0.7489 </r>
       <r>    9.5645    0.0594 </r>
       <r>    9.7645   -0.0208 </r>
       <r>   10.1114   -0.0000 </r>
       <r>   10.3049   -0.0000 </r>
       <r>   10.5612   -0.0000 </r>
       <r>   10.7166   -0.0000 </r>
       <r>   10.8936   -0.0000 </r>
       <r>   10.9489   -0.0000 </r>
       <r>   11.0619   -0.0000 </r>
       <r>   11.3047   -0.0000 </r>
       <r>   11.4939   -0.0000 </r>
       <r>   11.6910   -0.0000 </r>
       <r>   11.8920   -0.0000 </r>
       <r>   12.2149   -0.0000 </r>
       <r>   12.4207   -0.0000 </r>
       <r>   12.5598   -0.0000 </r>
       <r>   12.7209   -0.0000 </r>
       <r>   12.7859   -0.0000 </r>
       <r>   12.9926   -0.0000 </r>
       <r>   13.2793   -0.0000 </r>
       <r>   13.3495   -0.0000 </r>
       <r>   13.4553   -0.0000 </r>
       <r>   13.6423   -0.0000 </r>
      </set>
      <set comment="kpoint 99">
       <r>   -2.4896    1.0000 </r>
       <r>   -1.8624    1.0000 </r>
       <r>   -1.1897    1.0000 </r>
       <r>   -0.6114    1.0000 </r>
       <r>   -0.1464    1.0000 </r>
       <r>    0.2990    1.0000 </r>
       <r>    0.7947    1.0000 </r>
       <r>    1.2259    1.0000 </r>
       <r>    1.5864    1.0000 </r>
       <r>    1.6638    1.0000 </r>
       <r>    2.2448    1.0000 </r>
       <r>    2.5301    1.0000 </r>
       <r>    2.7752    1.0000 </r>
       <r>    3.2196    1.0000 </r>
       <r>    3.5134    1.0000 </r>
       <r>    3.9009    1.0000 </r>
       <r>    3.9937    1.0000 </r>
       <r>    4.4219    1.0000 </r>
       <r>    4.6657    1.0000 </r>
       <r>    4.7431    1.0000 </r>
       <r>    5.0998    1.0000 </r>
       <r>    5.1839    1.0000 </r>
       <r>    5.3477    1.0000 </r>
       <r>    5.5267    1.0000 </r>
       <r>    5.8004    1.0000 </r>
       <r>    5.9643    1.0000 </r>
       <r>    6.2840    1.0000 </r>
       <r>    6.4513    1.0000 </r>
       <r>    6.8846    1.0000 </r>
       <r>    6.9845    1.0000 </r>
       <r>    7.2842    1.0000 </r>
       <r>    7.5598    1.0000 </r>
       <r>    7.7936    1.0000 </r>
       <r>    8.0291    1.0000 </r>
       <r>    8.2903    1.0000 </r>
       <r>    8.3687    1.0000 </r>
       <r>    8.6035    1.0000 </r>
       <r>    8.7615    1.0000 </r>
       <r>    9.0324    1.0077 </r>
       <r>    9.2649    1.0017 </r>
       <r>    9.4999    0.2401 </r>
       <r>    9.6830   -0.0354 </r>
       <r>    9.8380   -0.0076 </r>
       <r>    9.9844   -0.0004 </r>
       <r>   10.3400   -0.0000 </r>
       <r>   10.4442   -0.0000 </r>
       <r>   10.5716   -0.0000 </r>
       <r>   10.8446   -0.0000 </r>
       <r>   10.9207   -0.0000 </r>
       <r>   11.1687   -0.0000 </r>
       <r>   11.2556   -0.0000 </r>
       <r>   11.5598   -0.0000 </r>
       <r>   11.8043   -0.0000 </r>
       <r>   11.9411   -0.0000 </r>
       <r>   12.0723   -0.0000 </r>
       <r>   12.2899   -0.0000 </r>
       <r>   12.6559   -0.0000 </r>
       <r>   12.7743   -0.0000 </r>
       <r>   12.9378   -0.0000 </r>
       <r>   13.0805   -0.0000 </r>
       <r>   13.1707   -0.0000 </r>
       <r>   13.2369   -0.0000 </r>
       <r>   13.3569   -0.0000 </r>
       <r>   13.6251   -0.0000 </r>
      </set>
      <set comment="kpoint 100">
       <r>   -2.5145    1.0000 </r>
       <r>   -1.7802    1.0000 </r>
       <r>   -1.2203    1.0000 </r>
       <r>   -0.6822    1.0000 </r>
       <r>   -0.1780    1.0000 </r>
       <r>    0.4075    1.0000 </r>
       <r>    0.7676    1.0000 </r>
       <r>    1.1152    1.0000 </r>
       <r>    1.5696    1.0000 </r>
       <r>    1.9126    1.0000 </r>
       <r>    2.2637    1.0000 </r>
       <r>    2.4278    1.0000 </r>
       <r>    2.9493    1.0000 </r>
       <r>    3.0491    1.0000 </r>
       <r>    3.4779    1.0000 </r>
       <r>    3.7770    1.0000 </r>
       <r>    4.0826    1.0000 </r>
       <r>    4.3064    1.0000 </r>
       <r>    4.5124    1.0000 </r>
       <r>    4.7648    1.0000 </r>
       <r>    5.0530    1.0000 </r>
       <r>    5.2255    1.0000 </r>
       <r>    5.4099    1.0000 </r>
       <r>    5.7048    1.0000 </r>
       <r>    5.7990    1.0000 </r>
       <r>    6.2211    1.0000 </r>
       <r>    6.4001    1.0000 </r>
       <r>    6.5488    1.0000 </r>
       <r>    6.6195    1.0000 </r>
       <r>    6.9482    1.0000 </r>
       <r>    7.3407    1.0000 </r>
       <r>    7.5264    1.0000 </r>
       <r>    7.7652    1.0000 </r>
       <r>    7.9776    1.0000 </r>
       <r>    8.1932    1.0000 </r>
       <r>    8.4663    1.0000 </r>
       <r>    8.6197    1.0000 </r>
       <r>    8.7494    1.0000 </r>
       <r>    8.9005    1.0005 </r>
       <r>    9.1887    1.0355 </r>
       <r>    9.4116    0.5978 </r>
       <r>    9.6427   -0.0287 </r>
       <r>    9.7480   -0.0246 </r>
       <r>   10.0751   -0.0000 </r>
       <r>   10.2290   -0.0000 </r>
       <r>   10.5127   -0.0000 </r>
       <r>   10.6904   -0.0000 </r>
       <r>   10.9372   -0.0000 </r>
       <r>   11.0543   -0.0000 </r>
       <r>   11.2065   -0.0000 </r>
       <r>   11.4228   -0.0000 </r>
       <r>   11.5944   -0.0000 </r>
       <r>   11.7209   -0.0000 </r>
       <r>   11.8585   -0.0000 </r>
       <r>   12.0078   -0.0000 </r>
       <r>   12.3623   -0.0000 </r>
       <r>   12.6442   -0.0000 </r>
       <r>   12.7753   -0.0000 </r>
       <r>   12.8802   -0.0000 </r>
       <r>   12.9877   -0.0000 </r>
       <r>   13.0809   -0.0000 </r>
       <r>   13.2472   -0.0000 </r>
       <r>   13.4237   -0.0000 </r>
       <r>   13.5215   -0.0000 </r>
      </set>
      <set comment="kpoint 101">
       <r>   -2.3626    1.0000 </r>
       <r>   -1.6426    1.0000 </r>
       <r>   -1.4785    1.0000 </r>
       <r>   -0.9704    1.0000 </r>
       <r>   -0.3840    1.0000 </r>
       <r>   -0.0191    1.0000 </r>
       <r>    1.1201    1.0000 </r>
       <r>    1.8555    1.0000 </r>
       <r>    2.0078    1.0000 </r>
       <r>    2.2588    1.0000 </r>
       <r>    2.5316    1.0000 </r>
       <r>    2.7184    1.0000 </r>
       <r>    2.9005    1.0000 </r>
       <r>    3.0853    1.0000 </r>
       <r>    3.2237    1.0000 </r>
       <r>    3.4885    1.0000 </r>
       <r>    3.8020    1.0000 </r>
       <r>    3.9476    1.0000 </r>
       <r>    4.1263    1.0000 </r>
       <r>    4.3810    1.0000 </r>
       <r>    4.6157    1.0000 </r>
       <r>    4.8912    1.0000 </r>
       <r>    5.4619    1.0000 </r>
       <r>    5.8198    1.0000 </r>
       <r>    5.9858    1.0000 </r>
       <r>    6.2169    1.0000 </r>
       <r>    6.4122    1.0000 </r>
       <r>    6.7021    1.0000 </r>
       <r>    7.0154    1.0000 </r>
       <r>    7.1230    1.0000 </r>
       <r>    7.2595    1.0000 </r>
       <r>    7.5143    1.0000 </r>
       <r>    7.6359    1.0000 </r>
       <r>    7.8695    1.0000 </r>
       <r>    7.9916    1.0000 </r>
       <r>    8.1627    1.0000 </r>
       <r>    8.5165    1.0000 </r>
       <r>    8.7581    1.0000 </r>
       <r>    8.9346    1.0012 </r>
       <r>    9.2358    1.0247 </r>
       <r>    9.5731    0.0433 </r>
       <r>    9.8166   -0.0106 </r>
       <r>   10.0038   -0.0002 </r>
       <r>   10.2110   -0.0000 </r>
       <r>   10.4720   -0.0000 </r>
       <r>   10.6608   -0.0000 </r>
       <r>   10.8354   -0.0000 </r>
       <r>   10.9459   -0.0000 </r>
       <r>   11.2347   -0.0000 </r>
       <r>   11.3459   -0.0000 </r>
       <r>   11.5594   -0.0000 </r>
       <r>   11.7909   -0.0000 </r>
       <r>   11.9357   -0.0000 </r>
       <r>   12.0876   -0.0000 </r>
       <r>   12.2238   -0.0000 </r>
       <r>   12.4158   -0.0000 </r>
       <r>   12.5531   -0.0000 </r>
       <r>   12.6828   -0.0000 </r>
       <r>   12.8244   -0.0000 </r>
       <r>   12.8451   -0.0000 </r>
       <r>   13.0239   -0.0000 </r>
       <r>   13.3113   -0.0000 </r>
       <r>   13.3626   -0.0000 </r>
       <r>   13.5767   -0.0000 </r>
      </set>
      <set comment="kpoint 102">
       <r>   -2.2605    1.0000 </r>
       <r>   -1.9007    1.0000 </r>
       <r>   -1.4340    1.0000 </r>
       <r>   -0.8955    1.0000 </r>
       <r>   -0.2267    1.0000 </r>
       <r>   -0.0796    1.0000 </r>
       <r>    1.2852    1.0000 </r>
       <r>    1.6148    1.0000 </r>
       <r>    1.9441    1.0000 </r>
       <r>    2.1257    1.0000 </r>
       <r>    2.4466    1.0000 </r>
       <r>    2.8795    1.0000 </r>
       <r>    3.0237    1.0000 </r>
       <r>    3.1825    1.0000 </r>
       <r>    3.3375    1.0000 </r>
       <r>    3.4721    1.0000 </r>
       <r>    3.6309    1.0000 </r>
       <r>    3.8940    1.0000 </r>
       <r>    4.0479    1.0000 </r>
       <r>    4.2126    1.0000 </r>
       <r>    4.7839    1.0000 </r>
       <r>    4.9286    1.0000 </r>
       <r>    5.5777    1.0000 </r>
       <r>    5.9167    1.0000 </r>
       <r>    6.0103    1.0000 </r>
       <r>    6.1039    1.0000 </r>
       <r>    6.4356    1.0000 </r>
       <r>    6.7466    1.0000 </r>
       <r>    6.9554    1.0000 </r>
       <r>    7.2278    1.0000 </r>
       <r>    7.3493    1.0000 </r>
       <r>    7.5456    1.0000 </r>
       <r>    7.7085    1.0000 </r>
       <r>    7.7813    1.0000 </r>
       <r>    8.0639    1.0000 </r>
       <r>    8.1148    1.0000 </r>
       <r>    8.3497    1.0000 </r>
       <r>    8.5930    1.0000 </r>
       <r>    8.9715    1.0025 </r>
       <r>    9.2231    1.0302 </r>
       <r>    9.4372    0.4901 </r>
       <r>    9.7909   -0.0152 </r>
       <r>    9.9182   -0.0017 </r>
       <r>   10.1411   -0.0000 </r>
       <r>   10.4914   -0.0000 </r>
       <r>   10.7264   -0.0000 </r>
       <r>   10.8302   -0.0000 </r>
       <r>   11.0879   -0.0000 </r>
       <r>   11.2838   -0.0000 </r>
       <r>   11.4853   -0.0000 </r>
       <r>   11.6178   -0.0000 </r>
       <r>   11.7185   -0.0000 </r>
       <r>   11.8691   -0.0000 </r>
       <r>   11.9929   -0.0000 </r>
       <r>   12.1136   -0.0000 </r>
       <r>   12.2771   -0.0000 </r>
       <r>   12.6173   -0.0000 </r>
       <r>   12.7442   -0.0000 </r>
       <r>   12.8324   -0.0000 </r>
       <r>   12.9581   -0.0000 </r>
       <r>   13.0993   -0.0000 </r>
       <r>   13.1965   -0.0000 </r>
       <r>   13.5570   -0.0000 </r>
       <r>   13.7139   -0.0000 </r>
      </set>
      <set comment="kpoint 103">
       <r>   -2.3231    1.0000 </r>
       <r>   -1.8553    1.0000 </r>
       <r>   -1.3470    1.0000 </r>
       <r>   -0.8149    1.0000 </r>
       <r>   -0.4009    1.0000 </r>
       <r>   -0.1000    1.0000 </r>
       <r>    1.1420    1.0000 </r>
       <r>    1.7615    1.0000 </r>
       <r>    1.9991    1.0000 </r>
       <r>    2.2165    1.0000 </r>
       <r>    2.4720    1.0000 </r>
       <r>    2.7648    1.0000 </r>
       <r>    2.8514    1.0000 </r>
       <r>    2.9712    1.0000 </r>
       <r>    3.3420    1.0000 </r>
       <r>    3.7041    1.0000 </r>
       <r>    3.7991    1.0000 </r>
       <r>    3.9987    1.0000 </r>
       <r>    4.0716    1.0000 </r>
       <r>    4.2287    1.0000 </r>
       <r>    4.8677    1.0000 </r>
       <r>    4.9587    1.0000 </r>
       <r>    5.4037    1.0000 </r>
       <r>    5.7724    1.0000 </r>
       <r>    6.1566    1.0000 </r>
       <r>    6.3042    1.0000 </r>
       <r>    6.5302    1.0000 </r>
       <r>    6.6875    1.0000 </r>
       <r>    6.8507    1.0000 </r>
       <r>    6.9805    1.0000 </r>
       <r>    7.1994    1.0000 </r>
       <r>    7.3376    1.0000 </r>
       <r>    7.6996    1.0000 </r>
       <r>    7.7594    1.0000 </r>
       <r>    7.8373    1.0000 </r>
       <r>    8.0058    1.0000 </r>
       <r>    8.4796    1.0000 </r>
       <r>    8.7190    1.0000 </r>
       <r>    8.9845    1.0033 </r>
       <r>    9.4525    0.4258 </r>
       <r>    9.5671    0.0543 </r>
       <r>    9.9240   -0.0015 </r>
       <r>   10.1274   -0.0000 </r>
       <r>   10.3380   -0.0000 </r>
       <r>   10.4270   -0.0000 </r>
       <r>   10.6877   -0.0000 </r>
       <r>   10.7883   -0.0000 </r>
       <r>   11.0640   -0.0000 </r>
       <r>   11.2337   -0.0000 </r>
       <r>   11.4561   -0.0000 </r>
       <r>   11.5566   -0.0000 </r>
       <r>   11.6811   -0.0000 </r>
       <r>   11.8922   -0.0000 </r>
       <r>   12.0129   -0.0000 </r>
       <r>   12.1990   -0.0000 </r>
       <r>   12.2304   -0.0000 </r>
       <r>   12.5133   -0.0000 </r>
       <r>   12.6053   -0.0000 </r>
       <r>   12.7934   -0.0000 </r>
       <r>   13.0398   -0.0000 </r>
       <r>   13.1217   -0.0000 </r>
       <r>   13.2183   -0.0000 </r>
       <r>   13.4121   -0.0000 </r>
       <r>   13.6631   -0.0000 </r>
      </set>
      <set comment="kpoint 104">
       <r>   -2.3405    1.0000 </r>
       <r>   -1.6727    1.0000 </r>
       <r>   -1.5418    1.0000 </r>
       <r>   -0.8496    1.0000 </r>
       <r>   -0.4566    1.0000 </r>
       <r>    0.0105    1.0000 </r>
       <r>    1.2749    1.0000 </r>
       <r>    1.5286    1.0000 </r>
       <r>    2.0459    1.0000 </r>
       <r>    2.4044    1.0000 </r>
       <r>    2.5452    1.0000 </r>
       <r>    2.6971    1.0000 </r>
       <r>    2.8923    1.0000 </r>
       <r>    3.1086    1.0000 </r>
       <r>    3.3385    1.0000 </r>
       <r>    3.5682    1.0000 </r>
       <r>    3.6054    1.0000 </r>
       <r>    3.9534    1.0000 </r>
       <r>    4.1394    1.0000 </r>
       <r>    4.2167    1.0000 </r>
       <r>    4.5156    1.0000 </r>
       <r>    5.0521    1.0000 </r>
       <r>    5.4002    1.0000 </r>
       <r>    5.8138    1.0000 </r>
       <r>    6.0459    1.0000 </r>
       <r>    6.3484    1.0000 </r>
       <r>    6.5620    1.0000 </r>
       <r>    6.7178    1.0000 </r>
       <r>    6.9244    1.0000 </r>
       <r>    7.1504    1.0000 </r>
       <r>    7.3558    1.0000 </r>
       <r>    7.4363    1.0000 </r>
       <r>    7.5173    1.0000 </r>
       <r>    7.7573    1.0000 </r>
       <r>    7.9570    1.0000 </r>
       <r>    8.1155    1.0000 </r>
       <r>    8.5616    1.0000 </r>
       <r>    8.8878    1.0004 </r>
       <r>    9.0118    1.0054 </r>
       <r>    9.3226    0.9018 </r>
       <r>    9.4567    0.4082 </r>
       <r>    9.5459    0.1011 </r>
       <r>   10.0777   -0.0000 </r>
       <r>   10.3030   -0.0000 </r>
       <r>   10.5007   -0.0000 </r>
       <r>   10.6291   -0.0000 </r>
       <r>   10.8767   -0.0000 </r>
       <r>   10.9780   -0.0000 </r>
       <r>   11.2967   -0.0000 </r>
       <r>   11.3595   -0.0000 </r>
       <r>   11.4523   -0.0000 </r>
       <r>   11.7028   -0.0000 </r>
       <r>   11.9271   -0.0000 </r>
       <r>   12.0938   -0.0000 </r>
       <r>   12.1715   -0.0000 </r>
       <r>   12.3979   -0.0000 </r>
       <r>   12.4501   -0.0000 </r>
       <r>   12.5820   -0.0000 </r>
       <r>   12.8875   -0.0000 </r>
       <r>   12.9581   -0.0000 </r>
       <r>   13.1659   -0.0000 </r>
       <r>   13.2390   -0.0000 </r>
       <r>   13.5377   -0.0000 </r>
       <r>   13.6835   -0.0000 </r>
      </set>
      <set comment="kpoint 105">
       <r>   -2.3543    1.0000 </r>
       <r>   -1.7655    1.0000 </r>
       <r>   -1.4181    1.0000 </r>
       <r>   -0.6987    1.0000 </r>
       <r>   -0.5557    1.0000 </r>
       <r>   -0.0588    1.0000 </r>
       <r>    1.2576    1.0000 </r>
       <r>    1.5086    1.0000 </r>
       <r>    1.9499    1.0000 </r>
       <r>    2.3422    1.0000 </r>
       <r>    2.5121    1.0000 </r>
       <r>    2.7399    1.0000 </r>
       <r>    2.9972    1.0000 </r>
       <r>    3.2459    1.0000 </r>
       <r>    3.3013    1.0000 </r>
       <r>    3.5019    1.0000 </r>
       <r>    3.5571    1.0000 </r>
       <r>    3.8952    1.0000 </r>
       <r>    4.1571    1.0000 </r>
       <r>    4.4534    1.0000 </r>
       <r>    4.6043    1.0000 </r>
       <r>    5.0889    1.0000 </r>
       <r>    5.4838    1.0000 </r>
       <r>    5.9816    1.0000 </r>
       <r>    6.1573    1.0000 </r>
       <r>    6.2501    1.0000 </r>
       <r>    6.4543    1.0000 </r>
       <r>    6.6154    1.0000 </r>
       <r>    6.7825    1.0000 </r>
       <r>    6.9783    1.0000 </r>
       <r>    7.1204    1.0000 </r>
       <r>    7.3310    1.0000 </r>
       <r>    7.5628    1.0000 </r>
       <r>    7.6878    1.0000 </r>
       <r>    7.9070    1.0000 </r>
       <r>    8.1958    1.0000 </r>
       <r>    8.5067    1.0000 </r>
       <r>    8.7541    1.0000 </r>
       <r>    9.0812    1.0157 </r>
       <r>    9.2479    1.0169 </r>
       <r>    9.6748   -0.0354 </r>
       <r>    9.9013   -0.0024 </r>
       <r>   10.2090   -0.0000 </r>
       <r>   10.2787   -0.0000 </r>
       <r>   10.5838   -0.0000 </r>
       <r>   10.6796   -0.0000 </r>
       <r>   10.8487   -0.0000 </r>
       <r>   11.0499   -0.0000 </r>
       <r>   11.1260   -0.0000 </r>
       <r>   11.3695   -0.0000 </r>
       <r>   11.5425   -0.0000 </r>
       <r>   11.6493   -0.0000 </r>
       <r>   11.8584   -0.0000 </r>
       <r>   12.0277   -0.0000 </r>
       <r>   12.2011   -0.0000 </r>
       <r>   12.3789   -0.0000 </r>
       <r>   12.4959   -0.0000 </r>
       <r>   12.5905   -0.0000 </r>
       <r>   12.7368   -0.0000 </r>
       <r>   13.0023   -0.0000 </r>
       <r>   13.1304   -0.0000 </r>
       <r>   13.2799   -0.0000 </r>
       <r>   13.4244   -0.0000 </r>
       <r>   13.5803   -0.0000 </r>
      </set>
      <set comment="kpoint 106">
       <r>   -2.2880    1.0000 </r>
       <r>   -1.8206    1.0000 </r>
       <r>   -1.4877    1.0000 </r>
       <r>   -0.8918    1.0000 </r>
       <r>   -0.2507    1.0000 </r>
       <r>   -0.0800    1.0000 </r>
       <r>    1.1671    1.0000 </r>
       <r>    1.7830    1.0000 </r>
       <r>    2.0937    1.0000 </r>
       <r>    2.2552    1.0000 </r>
       <r>    2.4508    1.0000 </r>
       <r>    2.7067    1.0000 </r>
       <r>    2.7587    1.0000 </r>
       <r>    3.0717    1.0000 </r>
       <r>    3.2918    1.0000 </r>
       <r>    3.5374    1.0000 </r>
       <r>    3.7905    1.0000 </r>
       <r>    3.9528    1.0000 </r>
       <r>    4.1275    1.0000 </r>
       <r>    4.2555    1.0000 </r>
       <r>    4.5576    1.0000 </r>
       <r>    5.0134    1.0000 </r>
       <r>    5.5388    1.0000 </r>
       <r>    5.9415    1.0000 </r>
       <r>    6.0594    1.0000 </r>
       <r>    6.1783    1.0000 </r>
       <r>    6.3753    1.0000 </r>
       <r>    6.7224    1.0000 </r>
       <r>    7.0122    1.0000 </r>
       <r>    7.1528    1.0000 </r>
       <r>    7.3534    1.0000 </r>
       <r>    7.5366    1.0000 </r>
       <r>    7.6334    1.0000 </r>
       <r>    7.8547    1.0000 </r>
       <r>    7.9562    1.0000 </r>
       <r>    8.0892    1.0000 </r>
       <r>    8.3717    1.0000 </r>
       <r>    8.6772    1.0000 </r>
       <r>    8.8912    1.0004 </r>
       <r>    9.2885    0.9705 </r>
       <r>    9.5853    0.0232 </r>
       <r>    9.8529   -0.0059 </r>
       <r>   10.0360   -0.0001 </r>
       <r>   10.1904   -0.0000 </r>
       <r>   10.4998   -0.0000 </r>
       <r>   10.6648   -0.0000 </r>
       <r>   10.7382   -0.0000 </r>
       <r>   10.9795   -0.0000 </r>
       <r>   11.1727   -0.0000 </r>
       <r>   11.4280   -0.0000 </r>
       <r>   11.5814   -0.0000 </r>
       <r>   11.7389   -0.0000 </r>
       <r>   11.9159   -0.0000 </r>
       <r>   12.0860   -0.0000 </r>
       <r>   12.1583   -0.0000 </r>
       <r>   12.3165   -0.0000 </r>
       <r>   12.4903   -0.0000 </r>
       <r>   12.5955   -0.0000 </r>
       <r>   12.8138   -0.0000 </r>
       <r>   12.9103   -0.0000 </r>
       <r>   13.1018   -0.0000 </r>
       <r>   13.3451   -0.0000 </r>
       <r>   13.4631   -0.0000 </r>
       <r>   13.6742   -0.0000 </r>
      </set>
      <set comment="kpoint 107">
       <r>   -2.3527    1.0000 </r>
       <r>   -1.6754    1.0000 </r>
       <r>   -1.4454    1.0000 </r>
       <r>   -0.9968    1.0000 </r>
       <r>   -0.3891    1.0000 </r>
       <r>   -0.0269    1.0000 </r>
       <r>    1.3184    1.0000 </r>
       <r>    1.5822    1.0000 </r>
       <r>    2.1403    1.0000 </r>
       <r>    2.2803    1.0000 </r>
       <r>    2.4457    1.0000 </r>
       <r>    2.6964    1.0000 </r>
       <r>    2.9771    1.0000 </r>
       <r>    3.1299    1.0000 </r>
       <r>    3.4166    1.0000 </r>
       <r>    3.5174    1.0000 </r>
       <r>    3.6737    1.0000 </r>
       <r>    3.7946    1.0000 </r>
       <r>    4.0321    1.0000 </r>
       <r>    4.1616    1.0000 </r>
       <r>    4.8045    1.0000 </r>
       <r>    4.9577    1.0000 </r>
       <r>    5.4406    1.0000 </r>
       <r>    5.8458    1.0000 </r>
       <r>    6.0564    1.0000 </r>
       <r>    6.2286    1.0000 </r>
       <r>    6.4814    1.0000 </r>
       <r>    6.7151    1.0000 </r>
       <r>    6.9313    1.0000 </r>
       <r>    7.0589    1.0000 </r>
       <r>    7.2677    1.0000 </r>
       <r>    7.5444    1.0000 </r>
       <r>    7.6917    1.0000 </r>
       <r>    7.8299    1.0000 </r>
       <r>    7.9455    1.0000 </r>
       <r>    8.0940    1.0000 </r>
       <r>    8.6396    1.0000 </r>
       <r>    8.7927    1.0000 </r>
       <r>    8.9557    1.0018 </r>
       <r>    9.2098    1.0337 </r>
       <r>    9.4899    0.2767 </r>
       <r>    9.8414   -0.0072 </r>
       <r>   10.0437   -0.0001 </r>
       <r>   10.1819   -0.0000 </r>
       <r>   10.5026   -0.0000 </r>
       <r>   10.7314   -0.0000 </r>
       <r>   10.8589   -0.0000 </r>
       <r>   11.0122   -0.0000 </r>
       <r>   11.2270   -0.0000 </r>
       <r>   11.4476   -0.0000 </r>
       <r>   11.5391   -0.0000 </r>
       <r>   11.6834   -0.0000 </r>
       <r>   11.7950   -0.0000 </r>
       <r>   12.0009   -0.0000 </r>
       <r>   12.2872   -0.0000 </r>
       <r>   12.3076   -0.0000 </r>
       <r>   12.4932   -0.0000 </r>
       <r>   12.5773   -0.0000 </r>
       <r>   12.8333   -0.0000 </r>
       <r>   12.9144   -0.0000 </r>
       <r>   13.0708   -0.0000 </r>
       <r>   13.2097   -0.0000 </r>
       <r>   13.3706   -0.0000 </r>
       <r>   13.6496   -0.0000 </r>
      </set>
      <set comment="kpoint 108">
       <r>   -2.2504    1.0000 </r>
       <r>   -1.9253    1.0000 </r>
       <r>   -1.4446    1.0000 </r>
       <r>   -0.6794    1.0000 </r>
       <r>   -0.5610    1.0000 </r>
       <r>    0.0376    1.0000 </r>
       <r>    1.3666    1.0000 </r>
       <r>    1.5865    1.0000 </r>
       <r>    2.0372    1.0000 </r>
       <r>    2.1564    1.0000 </r>
       <r>    2.4886    1.0000 </r>
       <r>    2.6392    1.0000 </r>
       <r>    2.8902    1.0000 </r>
       <r>    3.1164    1.0000 </r>
       <r>    3.2558    1.0000 </r>
       <r>    3.6672    1.0000 </r>
       <r>    3.7711    1.0000 </r>
       <r>    3.9027    1.0000 </r>
       <r>    4.0424    1.0000 </r>
       <r>    4.2704    1.0000 </r>
       <r>    4.6319    1.0000 </r>
       <r>    5.0422    1.0000 </r>
       <r>    5.5565    1.0000 </r>
       <r>    5.8760    1.0000 </r>
       <r>    6.0791    1.0000 </r>
       <r>    6.3068    1.0000 </r>
       <r>    6.5007    1.0000 </r>
       <r>    6.6889    1.0000 </r>
       <r>    6.8075    1.0000 </r>
       <r>    7.0922    1.0000 </r>
       <r>    7.2868    1.0000 </r>
       <r>    7.4273    1.0000 </r>
       <r>    7.6750    1.0000 </r>
       <r>    7.8328    1.0000 </r>
       <r>    8.0032    1.0000 </r>
       <r>    8.0265    1.0000 </r>
       <r>    8.4795    1.0000 </r>
       <r>    8.8766    1.0003 </r>
       <r>    9.0836    1.0162 </r>
       <r>    9.2423    1.0208 </r>
       <r>    9.3634    0.7821 </r>
       <r>    9.7193   -0.0309 </r>
       <r>   10.0032   -0.0002 </r>
       <r>   10.2217   -0.0000 </r>
       <r>   10.5055   -0.0000 </r>
       <r>   10.6645   -0.0000 </r>
       <r>   10.8927   -0.0000 </r>
       <r>   10.9961   -0.0000 </r>
       <r>   11.2221   -0.0000 </r>
       <r>   11.3372   -0.0000 </r>
       <r>   11.3790   -0.0000 </r>
       <r>   11.7025   -0.0000 </r>
       <r>   11.8675   -0.0000 </r>
       <r>   11.9786   -0.0000 </r>
       <r>   12.2353   -0.0000 </r>
       <r>   12.3884   -0.0000 </r>
       <r>   12.4878   -0.0000 </r>
       <r>   12.6967   -0.0000 </r>
       <r>   12.8969   -0.0000 </r>
       <r>   13.0681   -0.0000 </r>
       <r>   13.1341   -0.0000 </r>
       <r>   13.3200   -0.0000 </r>
       <r>   13.5046   -0.0000 </r>
       <r>   13.6889   -0.0000 </r>
      </set>
      <set comment="kpoint 109">
       <r>   -2.3208    1.0000 </r>
       <r>   -1.8668    1.0000 </r>
       <r>   -1.3382    1.0000 </r>
       <r>   -0.7229    1.0000 </r>
       <r>   -0.5402    1.0000 </r>
       <r>   -0.0778    1.0000 </r>
       <r>    1.3191    1.0000 </r>
       <r>    1.5864    1.0000 </r>
       <r>    1.8834    1.0000 </r>
       <r>    2.3077    1.0000 </r>
       <r>    2.4840    1.0000 </r>
       <r>    2.7896    1.0000 </r>
       <r>    2.9332    1.0000 </r>
       <r>    3.0695    1.0000 </r>
       <r>    3.2626    1.0000 </r>
       <r>    3.5310    1.0000 </r>
       <r>    3.7848    1.0000 </r>
       <r>    3.9153    1.0000 </r>
       <r>    4.1781    1.0000 </r>
       <r>    4.4196    1.0000 </r>
       <r>    4.5395    1.0000 </r>
       <r>    5.1538    1.0000 </r>
       <r>    5.5459    1.0000 </r>
       <r>    5.8989    1.0000 </r>
       <r>    6.1832    1.0000 </r>
       <r>    6.2342    1.0000 </r>
       <r>    6.4036    1.0000 </r>
       <r>    6.5822    1.0000 </r>
       <r>    6.8279    1.0000 </r>
       <r>    6.8525    1.0000 </r>
       <r>    7.1961    1.0000 </r>
       <r>    7.3513    1.0000 </r>
       <r>    7.5877    1.0000 </r>
       <r>    7.6782    1.0000 </r>
       <r>    7.9209    1.0000 </r>
       <r>    8.2313    1.0000 </r>
       <r>    8.4988    1.0000 </r>
       <r>    8.8100    1.0000 </r>
       <r>    9.1055    1.0209 </r>
       <r>    9.2455    1.0187 </r>
       <r>    9.7258   -0.0296 </r>
       <r>    9.8670   -0.0046 </r>
       <r>   10.1706   -0.0000 </r>
       <r>   10.3289   -0.0000 </r>
       <r>   10.5102   -0.0000 </r>
       <r>   10.6168   -0.0000 </r>
       <r>   10.8343   -0.0000 </r>
       <r>   11.0862   -0.0000 </r>
       <r>   11.2439   -0.0000 </r>
       <r>   11.3072   -0.0000 </r>
       <r>   11.5414   -0.0000 </r>
       <r>   11.6566   -0.0000 </r>
       <r>   11.7658   -0.0000 </r>
       <r>   11.8946   -0.0000 </r>
       <r>   12.0466   -0.0000 </r>
       <r>   12.3535   -0.0000 </r>
       <r>   12.6259   -0.0000 </r>
       <r>   12.6940   -0.0000 </r>
       <r>   12.8654   -0.0000 </r>
       <r>   13.0075   -0.0000 </r>
       <r>   13.1453   -0.0000 </r>
       <r>   13.2960   -0.0000 </r>
       <r>   13.3916   -0.0000 </r>
       <r>   13.5732   -0.0000 </r>
      </set>
      <set comment="kpoint 110">
       <r>   -2.3416    1.0000 </r>
       <r>   -1.6572    1.0000 </r>
       <r>   -1.5559    1.0000 </r>
       <r>   -0.8505    1.0000 </r>
       <r>   -0.4591    1.0000 </r>
       <r>    0.0164    1.0000 </r>
       <r>    1.2021    1.0000 </r>
       <r>    1.6761    1.0000 </r>
       <r>    1.9896    1.0000 </r>
       <r>    2.3594    1.0000 </r>
       <r>    2.4833    1.0000 </r>
       <r>    2.7242    1.0000 </r>
       <r>    2.9086    1.0000 </r>
       <r>    3.2026    1.0000 </r>
       <r>    3.3987    1.0000 </r>
       <r>    3.4586    1.0000 </r>
       <r>    3.6062    1.0000 </r>
       <r>    3.8724    1.0000 </r>
       <r>    4.1131    1.0000 </r>
       <r>    4.3792    1.0000 </r>
       <r>    4.5539    1.0000 </r>
       <r>    4.9436    1.0000 </r>
       <r>    5.4855    1.0000 </r>
       <r>    5.7551    1.0000 </r>
       <r>    5.9988    1.0000 </r>
       <r>    6.3647    1.0000 </r>
       <r>    6.6062    1.0000 </r>
       <r>    6.7035    1.0000 </r>
       <r>    6.9089    1.0000 </r>
       <r>    7.1123    1.0000 </r>
       <r>    7.2083    1.0000 </r>
       <r>    7.4069    1.0000 </r>
       <r>    7.5911    1.0000 </r>
       <r>    7.7762    1.0000 </r>
       <r>    7.9691    1.0000 </r>
       <r>    8.2382    1.0000 </r>
       <r>    8.5934    1.0000 </r>
       <r>    8.9100    1.0007 </r>
       <r>    9.0519    1.0104 </r>
       <r>    9.2174    1.0320 </r>
       <r>    9.4377    0.4877 </r>
       <r>    9.6536   -0.0323 </r>
       <r>   10.0116   -0.0002 </r>
       <r>   10.3784   -0.0000 </r>
       <r>   10.4840   -0.0000 </r>
       <r>   10.5862   -0.0000 </r>
       <r>   10.8588   -0.0000 </r>
       <r>   10.9851   -0.0000 </r>
       <r>   11.2671   -0.0000 </r>
       <r>   11.3629   -0.0000 </r>
       <r>   11.4682   -0.0000 </r>
       <r>   11.6872   -0.0000 </r>
       <r>   11.9472   -0.0000 </r>
       <r>   12.0874   -0.0000 </r>
       <r>   12.1924   -0.0000 </r>
       <r>   12.4009   -0.0000 </r>
       <r>   12.5390   -0.0000 </r>
       <r>   12.6577   -0.0000 </r>
       <r>   12.7235   -0.0000 </r>
       <r>   12.9127   -0.0000 </r>
       <r>   12.9889   -0.0000 </r>
       <r>   13.3696   -0.0000 </r>
       <r>   13.5034   -0.0000 </r>
       <r>   13.6883   -0.0000 </r>
      </set>
      <set comment="kpoint 111">
       <r>   -2.3452    1.0000 </r>
       <r>   -1.7735    1.0000 </r>
       <r>   -1.4092    1.0000 </r>
       <r>   -0.8331    1.0000 </r>
       <r>   -0.4021    1.0000 </r>
       <r>   -0.0892    1.0000 </r>
       <r>    1.1600    1.0000 </r>
       <r>    1.7375    1.0000 </r>
       <r>    1.8691    1.0000 </r>
       <r>    2.3610    1.0000 </r>
       <r>    2.6012    1.0000 </r>
       <r>    2.7161    1.0000 </r>
       <r>    2.9385    1.0000 </r>
       <r>    3.0801    1.0000 </r>
       <r>    3.3429    1.0000 </r>
       <r>    3.4474    1.0000 </r>
       <r>    3.6830    1.0000 </r>
       <r>    3.9112    1.0000 </r>
       <r>    4.0532    1.0000 </r>
       <r>    4.3573    1.0000 </r>
       <r>    4.7214    1.0000 </r>
       <r>    5.0962    1.0000 </r>
       <r>    5.6008    1.0000 </r>
       <r>    5.7769    1.0000 </r>
       <r>    6.0552    1.0000 </r>
       <r>    6.3191    1.0000 </r>
       <r>    6.5327    1.0000 </r>
       <r>    6.6491    1.0000 </r>
       <r>    6.8809    1.0000 </r>
       <r>    7.0512    1.0000 </r>
       <r>    7.1182    1.0000 </r>
       <r>    7.3378    1.0000 </r>
       <r>    7.5217    1.0000 </r>
       <r>    7.6475    1.0000 </r>
       <r>    7.8543    1.0000 </r>
       <r>    8.2206    1.0000 </r>
       <r>    8.5096    1.0000 </r>
       <r>    8.7211    1.0000 </r>
       <r>    9.0087    1.0051 </r>
       <r>    9.4024    0.6351 </r>
       <r>    9.6378   -0.0266 </r>
       <r>    9.9504   -0.0008 </r>
       <r>   10.0722   -0.0000 </r>
       <r>   10.4181   -0.0000 </r>
       <r>   10.5918   -0.0000 </r>
       <r>   10.7572   -0.0000 </r>
       <r>   10.8757   -0.0000 </r>
       <r>   10.9948   -0.0000 </r>
       <r>   11.1025   -0.0000 </r>
       <r>   11.2809   -0.0000 </r>
       <r>   11.5343   -0.0000 </r>
       <r>   11.7133   -0.0000 </r>
       <r>   11.8487   -0.0000 </r>
       <r>   11.9832   -0.0000 </r>
       <r>   12.1448   -0.0000 </r>
       <r>   12.3704   -0.0000 </r>
       <r>   12.4702   -0.0000 </r>
       <r>   12.6213   -0.0000 </r>
       <r>   12.8069   -0.0000 </r>
       <r>   12.8990   -0.0000 </r>
       <r>   13.0358   -0.0000 </r>
       <r>   13.2180   -0.0000 </r>
       <r>   13.3049   -0.0000 </r>
       <r>   13.6451   -0.0000 </r>
      </set>
      <set comment="kpoint 112">
       <r>   -2.3016    1.0000 </r>
       <r>   -1.7859    1.0000 </r>
       <r>   -1.5379    1.0000 </r>
       <r>   -0.6669    1.0000 </r>
       <r>   -0.5710    1.0000 </r>
       <r>    0.0534    1.0000 </r>
       <r>    1.2696    1.0000 </r>
       <r>    1.6491    1.0000 </r>
       <r>    1.9002    1.0000 </r>
       <r>    2.3009    1.0000 </r>
       <r>    2.4334    1.0000 </r>
       <r>    2.7037    1.0000 </r>
       <r>    2.9349    1.0000 </r>
       <r>    3.1397    1.0000 </r>
       <r>    3.3971    1.0000 </r>
       <r>    3.5517    1.0000 </r>
       <r>    3.6989    1.0000 </r>
       <r>    3.8422    1.0000 </r>
       <r>    4.0391    1.0000 </r>
       <r>    4.4442    1.0000 </r>
       <r>    4.5720    1.0000 </r>
       <r>    4.9442    1.0000 </r>
       <r>    5.6254    1.0000 </r>
       <r>    5.8701    1.0000 </r>
       <r>    6.0704    1.0000 </r>
       <r>    6.2068    1.0000 </r>
       <r>    6.5434    1.0000 </r>
       <r>    6.6537    1.0000 </r>
       <r>    6.8046    1.0000 </r>
       <r>    7.1647    1.0000 </r>
       <r>    7.2671    1.0000 </r>
       <r>    7.4204    1.0000 </r>
       <r>    7.6847    1.0000 </r>
       <r>    7.7746    1.0000 </r>
       <r>    7.9006    1.0000 </r>
       <r>    8.2374    1.0000 </r>
       <r>    8.5258    1.0000 </r>
       <r>    8.7965    1.0000 </r>
       <r>    8.9920    1.0038 </r>
       <r>    9.3460    0.8379 </r>
       <r>    9.4062    0.6199 </r>
       <r>    9.6629   -0.0342 </r>
       <r>   10.0206   -0.0001 </r>
       <r>   10.2198   -0.0000 </r>
       <r>   10.4878   -0.0000 </r>
       <r>   10.5805   -0.0000 </r>
       <r>   10.8999   -0.0000 </r>
       <r>   11.0282   -0.0000 </r>
       <r>   11.1274   -0.0000 </r>
       <r>   11.4276   -0.0000 </r>
       <r>   11.5619   -0.0000 </r>
       <r>   11.6817   -0.0000 </r>
       <r>   11.8090   -0.0000 </r>
       <r>   12.0355   -0.0000 </r>
       <r>   12.2662   -0.0000 </r>
       <r>   12.3197   -0.0000 </r>
       <r>   12.4523   -0.0000 </r>
       <r>   12.6870   -0.0000 </r>
       <r>   12.8228   -0.0000 </r>
       <r>   13.0315   -0.0000 </r>
       <r>   13.1634   -0.0000 </r>
       <r>   13.4527   -0.0000 </r>
       <r>   13.5195   -0.0000 </r>
       <r>   13.5652   -0.0000 </r>
      </set>
      <set comment="kpoint 113">
       <r>   -2.6417    1.0000 </r>
       <r>   -1.7159    1.0000 </r>
       <r>   -1.0215    1.0000 </r>
       <r>   -0.4981    1.0000 </r>
       <r>   -0.0868    1.0000 </r>
       <r>    0.2654    1.0000 </r>
       <r>    0.6874    1.0000 </r>
       <r>    0.9959    1.0000 </r>
       <r>    1.3863    1.0000 </r>
       <r>    1.6706    1.0000 </r>
       <r>    2.2829    1.0000 </r>
       <r>    2.4371    1.0000 </r>
       <r>    2.8099    1.0000 </r>
       <r>    3.1873    1.0000 </r>
       <r>    3.4223    1.0000 </r>
       <r>    3.7034    1.0000 </r>
       <r>    3.7994    1.0000 </r>
       <r>    4.3702    1.0000 </r>
       <r>    4.5758    1.0000 </r>
       <r>    5.0022    1.0000 </r>
       <r>    5.1867    1.0000 </r>
       <r>    5.3136    1.0000 </r>
       <r>    5.7157    1.0000 </r>
       <r>    5.8384    1.0000 </r>
       <r>    6.0065    1.0000 </r>
       <r>    6.1855    1.0000 </r>
       <r>    6.4344    1.0000 </r>
       <r>    6.5790    1.0000 </r>
       <r>    6.9809    1.0000 </r>
       <r>    7.1363    1.0000 </r>
       <r>    7.2496    1.0000 </r>
       <r>    7.6091    1.0000 </r>
       <r>    7.7319    1.0000 </r>
       <r>    8.0470    1.0000 </r>
       <r>    8.1340    1.0000 </r>
       <r>    8.2360    1.0000 </r>
       <r>    8.4356    1.0000 </r>
       <r>    8.7126    1.0000 </r>
       <r>    8.8045    1.0000 </r>
       <r>    9.0900    1.0175 </r>
       <r>    9.1810    1.0352 </r>
       <r>    9.4448    0.4580 </r>
       <r>    9.8615   -0.0051 </r>
       <r>   10.0266   -0.0001 </r>
       <r>   10.3016   -0.0000 </r>
       <r>   10.4922   -0.0000 </r>
       <r>   10.7160   -0.0000 </r>
       <r>   10.9436   -0.0000 </r>
       <r>   11.0286   -0.0000 </r>
       <r>   11.2938   -0.0000 </r>
       <r>   11.4815   -0.0000 </r>
       <r>   11.6054   -0.0000 </r>
       <r>   11.7794   -0.0000 </r>
       <r>   11.8078   -0.0000 </r>
       <r>   12.0366   -0.0000 </r>
       <r>   12.2119   -0.0000 </r>
       <r>   12.2473   -0.0000 </r>
       <r>   12.4392   -0.0000 </r>
       <r>   12.5293   -0.0000 </r>
       <r>   12.6949   -0.0000 </r>
       <r>   12.8715   -0.0000 </r>
       <r>   13.0594   -0.0000 </r>
       <r>   13.3591   -0.0000 </r>
       <r>   13.4564   -0.0000 </r>
      </set>
      <set comment="kpoint 114">
       <r>   -2.6067    1.0000 </r>
       <r>   -1.8802    1.0000 </r>
       <r>   -0.8705    1.0000 </r>
       <r>   -0.3341    1.0000 </r>
       <r>   -0.1552    1.0000 </r>
       <r>    0.4352    1.0000 </r>
       <r>    0.5457    1.0000 </r>
       <r>    0.8106    1.0000 </r>
       <r>    1.3421    1.0000 </r>
       <r>    1.6335    1.0000 </r>
       <r>    2.1435    1.0000 </r>
       <r>    2.5070    1.0000 </r>
       <r>    2.9047    1.0000 </r>
       <r>    3.2181    1.0000 </r>
       <r>    3.4005    1.0000 </r>
       <r>    3.6486    1.0000 </r>
       <r>    3.8660    1.0000 </r>
       <r>    4.2624    1.0000 </r>
       <r>    4.7800    1.0000 </r>
       <r>    5.0340    1.0000 </r>
       <r>    5.3913    1.0000 </r>
       <r>    5.5422    1.0000 </r>
       <r>    5.6671    1.0000 </r>
       <r>    5.8157    1.0000 </r>
       <r>    6.0811    1.0000 </r>
       <r>    6.3084    1.0000 </r>
       <r>    6.4082    1.0000 </r>
       <r>    6.5952    1.0000 </r>
       <r>    6.7184    1.0000 </r>
       <r>    6.9547    1.0000 </r>
       <r>    7.1432    1.0000 </r>
       <r>    7.3609    1.0000 </r>
       <r>    7.5524    1.0000 </r>
       <r>    7.7840    1.0000 </r>
       <r>    8.0701    1.0000 </r>
       <r>    8.3290    1.0000 </r>
       <r>    8.4949    1.0000 </r>
       <r>    8.8402    1.0001 </r>
       <r>    9.0046    1.0048 </r>
       <r>    9.0703    1.0136 </r>
       <r>    9.3139    0.9221 </r>
       <r>    9.4586    0.4002 </r>
       <r>    9.8397   -0.0074 </r>
       <r>   10.1713   -0.0000 </r>
       <r>   10.2809   -0.0000 </r>
       <r>   10.5354   -0.0000 </r>
       <r>   10.8340   -0.0000 </r>
       <r>   10.9935   -0.0000 </r>
       <r>   11.0634   -0.0000 </r>
       <r>   11.2372   -0.0000 </r>
       <r>   11.4318   -0.0000 </r>
       <r>   11.5144   -0.0000 </r>
       <r>   11.6480   -0.0000 </r>
       <r>   11.7885   -0.0000 </r>
       <r>   12.0390   -0.0000 </r>
       <r>   12.1496   -0.0000 </r>
       <r>   12.2749   -0.0000 </r>
       <r>   12.4630   -0.0000 </r>
       <r>   12.5857   -0.0000 </r>
       <r>   12.7165   -0.0000 </r>
       <r>   12.9327   -0.0000 </r>
       <r>   13.0992   -0.0000 </r>
       <r>   13.1769   -0.0000 </r>
       <r>   13.4167   -0.0000 </r>
      </set>
      <set comment="kpoint 115">
       <r>   -2.6619    1.0000 </r>
       <r>   -1.7293    1.0000 </r>
       <r>   -0.9667    1.0000 </r>
       <r>   -0.2169    1.0000 </r>
       <r>    0.0178    1.0000 </r>
       <r>    0.1690    1.0000 </r>
       <r>    0.2661    1.0000 </r>
       <r>    0.8558    1.0000 </r>
       <r>    1.3358    1.0000 </r>
       <r>    1.7203    1.0000 </r>
       <r>    2.2345    1.0000 </r>
       <r>    2.6503    1.0000 </r>
       <r>    2.9741    1.0000 </r>
       <r>    3.1705    1.0000 </r>
       <r>    3.4630    1.0000 </r>
       <r>    3.6816    1.0000 </r>
       <r>    3.7927    1.0000 </r>
       <r>    4.1787    1.0000 </r>
       <r>    4.7698    1.0000 </r>
       <r>    5.0277    1.0000 </r>
       <r>    5.3133    1.0000 </r>
       <r>    5.4474    1.0000 </r>
       <r>    5.7385    1.0000 </r>
       <r>    5.9761    1.0000 </r>
       <r>    6.0713    1.0000 </r>
       <r>    6.2297    1.0000 </r>
       <r>    6.3532    1.0000 </r>
       <r>    6.5746    1.0000 </r>
       <r>    6.6961    1.0000 </r>
       <r>    6.9961    1.0000 </r>
       <r>    7.2482    1.0000 </r>
       <r>    7.4254    1.0000 </r>
       <r>    7.5895    1.0000 </r>
       <r>    7.7615    1.0000 </r>
       <r>    8.1133    1.0000 </r>
       <r>    8.2260    1.0000 </r>
       <r>    8.4234    1.0000 </r>
       <r>    8.6842    1.0000 </r>
       <r>    8.9700    1.0024 </r>
       <r>    9.0974    1.0191 </r>
       <r>    9.1944    1.0354 </r>
       <r>    9.3558    0.8073 </r>
       <r>    9.7761   -0.0183 </r>
       <r>   10.2948   -0.0000 </r>
       <r>   10.3787   -0.0000 </r>
       <r>   10.5109   -0.0000 </r>
       <r>   10.7661   -0.0000 </r>
       <r>   10.9237   -0.0000 </r>
       <r>   11.2359   -0.0000 </r>
       <r>   11.3477   -0.0000 </r>
       <r>   11.4966   -0.0000 </r>
       <r>   11.5930   -0.0000 </r>
       <r>   11.7438   -0.0000 </r>
       <r>   11.9009   -0.0000 </r>
       <r>   12.0337   -0.0000 </r>
       <r>   12.1349   -0.0000 </r>
       <r>   12.2977   -0.0000 </r>
       <r>   12.4519   -0.0000 </r>
       <r>   12.5482   -0.0000 </r>
       <r>   12.7016   -0.0000 </r>
       <r>   12.9388   -0.0000 </r>
       <r>   13.1416   -0.0000 </r>
       <r>   13.2982   -0.0000 </r>
       <r>   13.4668   -0.0000 </r>
      </set>
      <set comment="kpoint 116">
       <r>   -2.6012    1.0000 </r>
       <r>   -1.9106    1.0000 </r>
       <r>   -0.7074    1.0000 </r>
       <r>   -0.4470    1.0000 </r>
       <r>   -0.2047    1.0000 </r>
       <r>    0.3143    1.0000 </r>
       <r>    0.4947    1.0000 </r>
       <r>    1.0502    1.0000 </r>
       <r>    1.4629    1.0000 </r>
       <r>    1.6626    1.0000 </r>
       <r>    1.9524    1.0000 </r>
       <r>    2.6686    1.0000 </r>
       <r>    2.8388    1.0000 </r>
       <r>    3.0230    1.0000 </r>
       <r>    3.3803    1.0000 </r>
       <r>    3.6624    1.0000 </r>
       <r>    3.7918    1.0000 </r>
       <r>    4.1797    1.0000 </r>
       <r>    4.7101    1.0000 </r>
       <r>    5.2870    1.0000 </r>
       <r>    5.4422    1.0000 </r>
       <r>    5.6501    1.0000 </r>
       <r>    5.8212    1.0000 </r>
       <r>    5.8938    1.0000 </r>
       <r>    6.1480    1.0000 </r>
       <r>    6.2552    1.0000 </r>
       <r>    6.4565    1.0000 </r>
       <r>    6.5833    1.0000 </r>
       <r>    6.7457    1.0000 </r>
       <r>    6.9694    1.0000 </r>
       <r>    7.0827    1.0000 </r>
       <r>    7.2669    1.0000 </r>
       <r>    7.3860    1.0000 </r>
       <r>    7.6097    1.0000 </r>
       <r>    8.0410    1.0000 </r>
       <r>    8.3794    1.0000 </r>
       <r>    8.5020    1.0000 </r>
       <r>    8.8174    1.0001 </r>
       <r>    8.9888    1.0035 </r>
       <r>    9.1385    1.0285 </r>
       <r>    9.2345    1.0253 </r>
       <r>    9.4597    0.3958 </r>
       <r>    9.7449   -0.0254 </r>
       <r>   10.1281   -0.0000 </r>
       <r>   10.3287   -0.0000 </r>
       <r>   10.4425   -0.0000 </r>
       <r>   10.8113   -0.0000 </r>
       <r>   11.0605   -0.0000 </r>
       <r>   11.1350   -0.0000 </r>
       <r>   11.3230   -0.0000 </r>
       <r>   11.3646   -0.0000 </r>
       <r>   11.5791   -0.0000 </r>
       <r>   11.7394   -0.0000 </r>
       <r>   11.9236   -0.0000 </r>
       <r>   12.0683   -0.0000 </r>
       <r>   12.1566   -0.0000 </r>
       <r>   12.2786   -0.0000 </r>
       <r>   12.3823   -0.0000 </r>
       <r>   12.5704   -0.0000 </r>
       <r>   12.6801   -0.0000 </r>
       <r>   12.9487   -0.0000 </r>
       <r>   13.1573   -0.0000 </r>
       <r>   13.2330   -0.0000 </r>
       <r>   13.4245   -0.0000 </r>
      </set>
      <set comment="kpoint 117">
       <r>   -2.3693    1.0000 </r>
       <r>   -1.7997    1.0000 </r>
       <r>   -1.4728    1.0000 </r>
       <r>   -0.8823    1.0000 </r>
       <r>   -0.0616    1.0000 </r>
       <r>    0.5365    1.0000 </r>
       <r>    0.7876    1.0000 </r>
       <r>    1.1790    1.0000 </r>
       <r>    1.7091    1.0000 </r>
       <r>    1.8361    1.0000 </r>
       <r>    2.1444    1.0000 </r>
       <r>    2.7167    1.0000 </r>
       <r>    3.1276    1.0000 </r>
       <r>    3.4108    1.0000 </r>
       <r>    3.6583    1.0000 </r>
       <r>    3.7434    1.0000 </r>
       <r>    3.9990    1.0000 </r>
       <r>    4.1813    1.0000 </r>
       <r>    4.4351    1.0000 </r>
       <r>    4.5829    1.0000 </r>
       <r>    4.8389    1.0000 </r>
       <r>    4.9556    1.0000 </r>
       <r>    5.2043    1.0000 </r>
       <r>    5.5228    1.0000 </r>
       <r>    5.6736    1.0000 </r>
       <r>    5.8645    1.0000 </r>
       <r>    6.2681    1.0000 </r>
       <r>    6.4535    1.0000 </r>
       <r>    6.8535    1.0000 </r>
       <r>    7.0334    1.0000 </r>
       <r>    7.2489    1.0000 </r>
       <r>    7.5227    1.0000 </r>
       <r>    7.7076    1.0000 </r>
       <r>    7.8825    1.0000 </r>
       <r>    8.0825    1.0000 </r>
       <r>    8.5688    1.0000 </r>
       <r>    8.9287    1.0010 </r>
       <r>    9.0526    1.0105 </r>
       <r>    9.3114    0.9276 </r>
       <r>    9.4227    0.5514 </r>
       <r>    9.7014   -0.0339 </r>
       <r>    9.8685   -0.0045 </r>
       <r>    9.9062   -0.0021 </r>
       <r>   10.0540   -0.0001 </r>
       <r>   10.2961   -0.0000 </r>
       <r>   10.4567   -0.0000 </r>
       <r>   10.6466   -0.0000 </r>
       <r>   10.8545   -0.0000 </r>
       <r>   11.0595   -0.0000 </r>
       <r>   11.1478   -0.0000 </r>
       <r>   11.3418   -0.0000 </r>
       <r>   11.6583   -0.0000 </r>
       <r>   11.8321   -0.0000 </r>
       <r>   12.0168   -0.0000 </r>
       <r>   12.1673   -0.0000 </r>
       <r>   12.2137   -0.0000 </r>
       <r>   12.3215   -0.0000 </r>
       <r>   12.5328   -0.0000 </r>
       <r>   12.7688   -0.0000 </r>
       <r>   12.8884   -0.0000 </r>
       <r>   13.0908   -0.0000 </r>
       <r>   13.3345   -0.0000 </r>
       <r>   13.4927   -0.0000 </r>
       <r>   13.6115   -0.0000 </r>
      </set>
      <set comment="kpoint 118">
       <r>   -2.3665    1.0000 </r>
       <r>   -1.8363    1.0000 </r>
       <r>   -1.4746    1.0000 </r>
       <r>   -0.7252    1.0000 </r>
       <r>   -0.1820    1.0000 </r>
       <r>    0.4330    1.0000 </r>
       <r>    0.9812    1.0000 </r>
       <r>    1.1401    1.0000 </r>
       <r>    1.4094    1.0000 </r>
       <r>    1.9199    1.0000 </r>
       <r>    2.2355    1.0000 </r>
       <r>    2.8852    1.0000 </r>
       <r>    3.0713    1.0000 </r>
       <r>    3.4114    1.0000 </r>
       <r>    3.7510    1.0000 </r>
       <r>    3.9299    1.0000 </r>
       <r>    3.9905    1.0000 </r>
       <r>    4.0539    1.0000 </r>
       <r>    4.3420    1.0000 </r>
       <r>    4.5034    1.0000 </r>
       <r>    4.8171    1.0000 </r>
       <r>    4.9303    1.0000 </r>
       <r>    5.2238    1.0000 </r>
       <r>    5.4131    1.0000 </r>
       <r>    5.5454    1.0000 </r>
       <r>    6.1662    1.0000 </r>
       <r>    6.3322    1.0000 </r>
       <r>    6.5051    1.0000 </r>
       <r>    6.6899    1.0000 </r>
       <r>    6.9881    1.0000 </r>
       <r>    7.2406    1.0000 </r>
       <r>    7.3477    1.0000 </r>
       <r>    7.6567    1.0000 </r>
       <r>    7.9740    1.0000 </r>
       <r>    8.4431    1.0000 </r>
       <r>    8.7151    1.0000 </r>
       <r>    8.8340    1.0001 </r>
       <r>    8.9855    1.0033 </r>
       <r>    9.1733    1.0345 </r>
       <r>    9.5584    0.0723 </r>
       <r>    9.6403   -0.0277 </r>
       <r>    9.7561   -0.0228 </r>
       <r>    9.9167   -0.0017 </r>
       <r>   10.1468   -0.0000 </r>
       <r>   10.2511   -0.0000 </r>
       <r>   10.4832   -0.0000 </r>
       <r>   10.7003   -0.0000 </r>
       <r>   10.7858   -0.0000 </r>
       <r>   10.9328   -0.0000 </r>
       <r>   11.0585   -0.0000 </r>
       <r>   11.3362   -0.0000 </r>
       <r>   11.6005   -0.0000 </r>
       <r>   11.7335   -0.0000 </r>
       <r>   11.9855   -0.0000 </r>
       <r>   12.0995   -0.0000 </r>
       <r>   12.3463   -0.0000 </r>
       <r>   12.4025   -0.0000 </r>
       <r>   12.6038   -0.0000 </r>
       <r>   12.6503   -0.0000 </r>
       <r>   12.8808   -0.0000 </r>
       <r>   13.2096   -0.0000 </r>
       <r>   13.5005   -0.0000 </r>
       <r>   13.5990   -0.0000 </r>
       <r>   13.7886   -0.0000 </r>
      </set>
      <set comment="kpoint 119">
       <r>   -2.4064    1.0000 </r>
       <r>   -1.7834    1.0000 </r>
       <r>   -1.3105    1.0000 </r>
       <r>   -0.9902    1.0000 </r>
       <r>   -0.1472    1.0000 </r>
       <r>    0.3796    1.0000 </r>
       <r>    0.9401    1.0000 </r>
       <r>    1.3603    1.0000 </r>
       <r>    1.5747    1.0000 </r>
       <r>    1.8727    1.0000 </r>
       <r>    2.2178    1.0000 </r>
       <r>    2.5545    1.0000 </r>
       <r>    2.9555    1.0000 </r>
       <r>    3.4563    1.0000 </r>
       <r>    3.7488    1.0000 </r>
       <r>    3.9413    1.0000 </r>
       <r>    4.0664    1.0000 </r>
       <r>    4.3332    1.0000 </r>
       <r>    4.4319    1.0000 </r>
       <r>    4.6391    1.0000 </r>
       <r>    4.7065    1.0000 </r>
       <r>    4.9417    1.0000 </r>
       <r>    5.0501    1.0000 </r>
       <r>    5.3216    1.0000 </r>
       <r>    5.7285    1.0000 </r>
       <r>    6.0881    1.0000 </r>
       <r>    6.1716    1.0000 </r>
       <r>    6.4435    1.0000 </r>
       <r>    6.6062    1.0000 </r>
       <r>    6.9517    1.0000 </r>
       <r>    7.2335    1.0000 </r>
       <r>    7.5155    1.0000 </r>
       <r>    7.6970    1.0000 </r>
       <r>    7.9969    1.0000 </r>
       <r>    8.2823    1.0000 </r>
       <r>    8.6752    1.0000 </r>
       <r>    8.9291    1.0010 </r>
       <r>    9.0833    1.0161 </r>
       <r>    9.2976    0.9550 </r>
       <r>    9.4910    0.2724 </r>
       <r>    9.6110   -0.0079 </r>
       <r>    9.6686   -0.0349 </r>
       <r>   10.0437   -0.0001 </r>
       <r>   10.2118   -0.0000 </r>
       <r>   10.2852   -0.0000 </r>
       <r>   10.3820   -0.0000 </r>
       <r>   10.7625   -0.0000 </r>
       <r>   10.8686   -0.0000 </r>
       <r>   11.0618   -0.0000 </r>
       <r>   11.2347   -0.0000 </r>
       <r>   11.3694   -0.0000 </r>
       <r>   11.5139   -0.0000 </r>
       <r>   11.6157   -0.0000 </r>
       <r>   11.7732   -0.0000 </r>
       <r>   12.1005   -0.0000 </r>
       <r>   12.2244   -0.0000 </r>
       <r>   12.3609   -0.0000 </r>
       <r>   12.5363   -0.0000 </r>
       <r>   12.7284   -0.0000 </r>
       <r>   12.9541   -0.0000 </r>
       <r>   13.1980   -0.0000 </r>
       <r>   13.2742   -0.0000 </r>
       <r>   13.4937   -0.0000 </r>
       <r>   13.7769   -0.0000 </r>
      </set>
      <set comment="kpoint 120">
       <r>   -2.3245    1.0000 </r>
       <r>   -1.9948    1.0000 </r>
       <r>   -1.3454    1.0000 </r>
       <r>   -0.5412    1.0000 </r>
       <r>   -0.3844    1.0000 </r>
       <r>    0.5195    1.0000 </r>
       <r>    0.8699    1.0000 </r>
       <r>    1.2798    1.0000 </r>
       <r>    1.3867    1.0000 </r>
       <r>    1.6748    1.0000 </r>
       <r>    2.1951    1.0000 </r>
       <r>    2.7960    1.0000 </r>
       <r>    3.1610    1.0000 </r>
       <r>    3.4236    1.0000 </r>
       <r>    3.7752    1.0000 </r>
       <r>    3.9444    1.0000 </r>
       <r>    4.0847    1.0000 </r>
       <r>    4.2365    1.0000 </r>
       <r>    4.4895    1.0000 </r>
       <r>    4.6606    1.0000 </r>
       <r>    4.8103    1.0000 </r>
       <r>    5.0288    1.0000 </r>
       <r>    5.2037    1.0000 </r>
       <r>    5.2817    1.0000 </r>
       <r>    5.4000    1.0000 </r>
       <r>    6.1039    1.0000 </r>
       <r>    6.2666    1.0000 </r>
       <r>    6.4550    1.0000 </r>
       <r>    6.6346    1.0000 </r>
       <r>    6.8306    1.0000 </r>
       <r>    7.0848    1.0000 </r>
       <r>    7.3648    1.0000 </r>
       <r>    7.6242    1.0000 </r>
       <r>    8.0709    1.0000 </r>
       <r>    8.4787    1.0000 </r>
       <r>    8.6707    1.0000 </r>
       <r>    9.0388    1.0085 </r>
       <r>    9.1545    1.0317 </r>
       <r>    9.2695    0.9966 </r>
       <r>    9.4836    0.3005 </r>
       <r>    9.5372    0.1234 </r>
       <r>    9.7094   -0.0327 </r>
       <r>    9.9547   -0.0007 </r>
       <r>   10.1570   -0.0000 </r>
       <r>   10.2923   -0.0000 </r>
       <r>   10.4017   -0.0000 </r>
       <r>   10.5980   -0.0000 </r>
       <r>   10.7190   -0.0000 </r>
       <r>   10.9183   -0.0000 </r>
       <r>   11.1128   -0.0000 </r>
       <r>   11.2724   -0.0000 </r>
       <r>   11.6607   -0.0000 </r>
       <r>   11.8229   -0.0000 </r>
       <r>   11.8877   -0.0000 </r>
       <r>   12.0957   -0.0000 </r>
       <r>   12.2751   -0.0000 </r>
       <r>   12.4534   -0.0000 </r>
       <r>   12.6243   -0.0000 </r>
       <r>   12.8109   -0.0000 </r>
       <r>   12.8979   -0.0000 </r>
       <r>   13.2581   -0.0000 </r>
       <r>   13.4004   -0.0000 </r>
       <r>   13.6269   -0.0000 </r>
       <r>   13.8010   -0.0000 </r>
      </set>
      <set comment="kpoint 121">
       <r>   -2.3109    1.0000 </r>
       <r>   -1.9797    1.0000 </r>
       <r>   -1.3174    1.0000 </r>
       <r>   -0.9134    1.0000 </r>
       <r>   -0.0080    1.0000 </r>
       <r>    0.5805    1.0000 </r>
       <r>    0.8095    1.0000 </r>
       <r>    1.0786    1.0000 </r>
       <r>    1.4999    1.0000 </r>
       <r>    1.8258    1.0000 </r>
       <r>    2.3891    1.0000 </r>
       <r>    2.6898    1.0000 </r>
       <r>    2.9783    1.0000 </r>
       <r>    3.2873    1.0000 </r>
       <r>    3.7023    1.0000 </r>
       <r>    3.9417    1.0000 </r>
       <r>    4.1630    1.0000 </r>
       <r>    4.2194    1.0000 </r>
       <r>    4.3814    1.0000 </r>
       <r>    4.6231    1.0000 </r>
       <r>    4.7554    1.0000 </r>
       <r>    5.0451    1.0000 </r>
       <r>    5.0734    1.0000 </r>
       <r>    5.4488    1.0000 </r>
       <r>    5.6344    1.0000 </r>
       <r>    6.0565    1.0000 </r>
       <r>    6.3195    1.0000 </r>
       <r>    6.3643    1.0000 </r>
       <r>    6.8799    1.0000 </r>
       <r>    6.9813    1.0000 </r>
       <r>    7.2547    1.0000 </r>
       <r>    7.4284    1.0000 </r>
       <r>    7.7110    1.0000 </r>
       <r>    7.8855    1.0000 </r>
       <r>    8.1471    1.0000 </r>
       <r>    8.4794    1.0000 </r>
       <r>    8.7981    1.0000 </r>
       <r>    8.9425    1.0014 </r>
       <r>    9.3366    0.8651 </r>
       <r>    9.4515    0.4300 </r>
       <r>    9.6107   -0.0077 </r>
       <r>    9.8508   -0.0061 </r>
       <r>    9.9753   -0.0004 </r>
       <r>   10.1794   -0.0000 </r>
       <r>   10.4137   -0.0000 </r>
       <r>   10.5935   -0.0000 </r>
       <r>   10.7190   -0.0000 </r>
       <r>   10.8968   -0.0000 </r>
       <r>   11.0314   -0.0000 </r>
       <r>   11.0818   -0.0000 </r>
       <r>   11.3033   -0.0000 </r>
       <r>   11.6252   -0.0000 </r>
       <r>   11.7952   -0.0000 </r>
       <r>   12.0052   -0.0000 </r>
       <r>   12.0595   -0.0000 </r>
       <r>   12.2137   -0.0000 </r>
       <r>   12.3895   -0.0000 </r>
       <r>   12.4377   -0.0000 </r>
       <r>   12.6621   -0.0000 </r>
       <r>   12.9886   -0.0000 </r>
       <r>   13.1332   -0.0000 </r>
       <r>   13.3139   -0.0000 </r>
       <r>   13.5576   -0.0000 </r>
       <r>   13.6750   -0.0000 </r>
      </set>
      <set comment="kpoint 122">
       <r>   -2.2761    1.0000 </r>
       <r>   -2.0421    1.0000 </r>
       <r>   -1.3689    1.0000 </r>
       <r>   -0.6708    1.0000 </r>
       <r>   -0.2389    1.0000 </r>
       <r>    0.6227    1.0000 </r>
       <r>    0.8038    1.0000 </r>
       <r>    1.2618    1.0000 </r>
       <r>    1.4360    1.0000 </r>
       <r>    1.8119    1.0000 </r>
       <r>    1.9897    1.0000 </r>
       <r>    2.7975    1.0000 </r>
       <r>    3.1769    1.0000 </r>
       <r>    3.5266    1.0000 </r>
       <r>    3.7083    1.0000 </r>
       <r>    3.9241    1.0000 </r>
       <r>    4.0588    1.0000 </r>
       <r>    4.1692    1.0000 </r>
       <r>    4.2897    1.0000 </r>
       <r>    4.6331    1.0000 </r>
       <r>    4.8380    1.0000 </r>
       <r>    4.9688    1.0000 </r>
       <r>    5.2102    1.0000 </r>
       <r>    5.4150    1.0000 </r>
       <r>    5.6261    1.0000 </r>
       <r>    6.0629    1.0000 </r>
       <r>    6.1869    1.0000 </r>
       <r>    6.5435    1.0000 </r>
       <r>    6.6753    1.0000 </r>
       <r>    6.8905    1.0000 </r>
       <r>    7.1700    1.0000 </r>
       <r>    7.4645    1.0000 </r>
       <r>    7.6010    1.0000 </r>
       <r>    8.1143    1.0000 </r>
       <r>    8.3697    1.0000 </r>
       <r>    8.4888    1.0000 </r>
       <r>    8.8771    1.0003 </r>
       <r>    9.0627    1.0122 </r>
       <r>    9.2891    0.9695 </r>
       <r>    9.3986    0.6507 </r>
       <r>    9.5755    0.0390 </r>
       <r>    9.7836   -0.0167 </r>
       <r>   10.0675   -0.0000 </r>
       <r>   10.1346   -0.0000 </r>
       <r>   10.2836   -0.0000 </r>
       <r>   10.3865   -0.0000 </r>
       <r>   10.5973   -0.0000 </r>
       <r>   10.9171   -0.0000 </r>
       <r>   11.0866   -0.0000 </r>
       <r>   11.1472   -0.0000 </r>
       <r>   11.2586   -0.0000 </r>
       <r>   11.5246   -0.0000 </r>
       <r>   11.8304   -0.0000 </r>
       <r>   11.9084   -0.0000 </r>
       <r>   12.0180   -0.0000 </r>
       <r>   12.2518   -0.0000 </r>
       <r>   12.3923   -0.0000 </r>
       <r>   12.5826   -0.0000 </r>
       <r>   12.7725   -0.0000 </r>
       <r>   13.0851   -0.0000 </r>
       <r>   13.2504   -0.0000 </r>
       <r>   13.4195   -0.0000 </r>
       <r>   13.5105   -0.0000 </r>
       <r>   13.6804   -0.0000 </r>
      </set>
      <set comment="kpoint 123">
       <r>   -2.4032    1.0000 </r>
       <r>   -1.7474    1.0000 </r>
       <r>   -1.5352    1.0000 </r>
       <r>   -0.5327    1.0000 </r>
       <r>   -0.4004    1.0000 </r>
       <r>    0.6170    1.0000 </r>
       <r>    0.7014    1.0000 </r>
       <r>    1.3302    1.0000 </r>
       <r>    1.5087    1.0000 </r>
       <r>    1.8334    1.0000 </r>
       <r>    1.9593    1.0000 </r>
       <r>    2.8189    1.0000 </r>
       <r>    3.1254    1.0000 </r>
       <r>    3.5459    1.0000 </r>
       <r>    3.7174    1.0000 </r>
       <r>    3.8286    1.0000 </r>
       <r>    3.9480    1.0000 </r>
       <r>    4.1269    1.0000 </r>
       <r>    4.5552    1.0000 </r>
       <r>    4.7374    1.0000 </r>
       <r>    4.8971    1.0000 </r>
       <r>    5.0345    1.0000 </r>
       <r>    5.2391    1.0000 </r>
       <r>    5.3724    1.0000 </r>
       <r>    5.5878    1.0000 </r>
       <r>    6.0739    1.0000 </r>
       <r>    6.1983    1.0000 </r>
       <r>    6.2392    1.0000 </r>
       <r>    6.6932    1.0000 </r>
       <r>    6.9422    1.0000 </r>
       <r>    7.2687    1.0000 </r>
       <r>    7.4843    1.0000 </r>
       <r>    7.6010    1.0000 </r>
       <r>    7.9153    1.0000 </r>
       <r>    8.3491    1.0000 </r>
       <r>    8.4675    1.0000 </r>
       <r>    8.6478    1.0000 </r>
       <r>    9.1831    1.0353 </r>
       <r>    9.2697    0.9963 </r>
       <r>    9.5449    0.1036 </r>
       <r>    9.6836   -0.0354 </r>
       <r>    9.8607   -0.0052 </r>
       <r>    9.9312   -0.0013 </r>
       <r>   10.0282   -0.0001 </r>
       <r>   10.2196   -0.0000 </r>
       <r>   10.4127   -0.0000 </r>
       <r>   10.7257   -0.0000 </r>
       <r>   10.8603   -0.0000 </r>
       <r>   11.0376   -0.0000 </r>
       <r>   11.1738   -0.0000 </r>
       <r>   11.4341   -0.0000 </r>
       <r>   11.5678   -0.0000 </r>
       <r>   11.7349   -0.0000 </r>
       <r>   12.0183   -0.0000 </r>
       <r>   12.1502   -0.0000 </r>
       <r>   12.3097   -0.0000 </r>
       <r>   12.3689   -0.0000 </r>
       <r>   12.5233   -0.0000 </r>
       <r>   12.6351   -0.0000 </r>
       <r>   12.9896   -0.0000 </r>
       <r>   13.3205   -0.0000 </r>
       <r>   13.4245   -0.0000 </r>
       <r>   13.5867   -0.0000 </r>
       <r>   13.9103   -0.0000 </r>
      </set>
      <set comment="kpoint 124">
       <r>   -2.4010    1.0000 </r>
       <r>   -1.8224    1.0000 </r>
       <r>   -1.4434    1.0000 </r>
       <r>   -0.5116    1.0000 </r>
       <r>   -0.3788    1.0000 </r>
       <r>    0.5220    1.0000 </r>
       <r>    0.7051    1.0000 </r>
       <r>    1.2435    1.0000 </r>
       <r>    1.4846    1.0000 </r>
       <r>    1.7414    1.0000 </r>
       <r>    2.1156    1.0000 </r>
       <r>    2.9408    1.0000 </r>
       <r>    3.3165    1.0000 </r>
       <r>    3.5036    1.0000 </r>
       <r>    3.6010    1.0000 </r>
       <r>    3.8662    1.0000 </r>
       <r>    3.9834    1.0000 </r>
       <r>    4.2416    1.0000 </r>
       <r>    4.4554    1.0000 </r>
       <r>    4.6105    1.0000 </r>
       <r>    4.8746    1.0000 </r>
       <r>    5.0871    1.0000 </r>
       <r>    5.1819    1.0000 </r>
       <r>    5.3161    1.0000 </r>
       <r>    5.5071    1.0000 </r>
       <r>    6.0270    1.0000 </r>
       <r>    6.2920    1.0000 </r>
       <r>    6.4164    1.0000 </r>
       <r>    6.5525    1.0000 </r>
       <r>    6.9887    1.0000 </r>
       <r>    7.1534    1.0000 </r>
       <r>    7.2799    1.0000 </r>
       <r>    7.5283    1.0000 </r>
       <r>    8.0010    1.0000 </r>
       <r>    8.4237    1.0000 </r>
       <r>    8.7171    1.0000 </r>
       <r>    9.0005    1.0044 </r>
       <r>    9.1218    1.0247 </r>
       <r>    9.3280    0.8884 </r>
       <r>    9.4427    0.4669 </r>
       <r>    9.6532   -0.0322 </r>
       <r>    9.8685   -0.0045 </r>
       <r>    9.9241   -0.0015 </r>
       <r>   10.0567   -0.0000 </r>
       <r>   10.2196   -0.0000 </r>
       <r>   10.3271   -0.0000 </r>
       <r>   10.4658   -0.0000 </r>
       <r>   10.8306   -0.0000 </r>
       <r>   11.0063   -0.0000 </r>
       <r>   11.1683   -0.0000 </r>
       <r>   11.3417   -0.0000 </r>
       <r>   11.6809   -0.0000 </r>
       <r>   11.8196   -0.0000 </r>
       <r>   11.9524   -0.0000 </r>
       <r>   12.0941   -0.0000 </r>
       <r>   12.2955   -0.0000 </r>
       <r>   12.4577   -0.0000 </r>
       <r>   12.5552   -0.0000 </r>
       <r>   12.7780   -0.0000 </r>
       <r>   12.9094   -0.0000 </r>
       <r>   13.2206   -0.0000 </r>
       <r>   13.5875   -0.0000 </r>
       <r>   13.6561   -0.0000 </r>
       <r>   13.8882   -0.0000 </r>
      </set>
      <set comment="kpoint 125">
       <r>   -2.4233    1.0000 </r>
       <r>   -1.7791    1.0000 </r>
       <r>   -1.3032    1.0000 </r>
       <r>   -0.9315    1.0000 </r>
       <r>   -0.1293    1.0000 </r>
       <r>    0.3315    1.0000 </r>
       <r>    0.8452    1.0000 </r>
       <r>    1.3279    1.0000 </r>
       <r>    1.6388    1.0000 </r>
       <r>    1.8612    1.0000 </r>
       <r>    2.0824    1.0000 </r>
       <r>    2.7859    1.0000 </r>
       <r>    2.9345    1.0000 </r>
       <r>    3.4409    1.0000 </r>
       <r>    3.7175    1.0000 </r>
       <r>    3.8859    1.0000 </r>
       <r>    4.0369    1.0000 </r>
       <r>    4.3267    1.0000 </r>
       <r>    4.4545    1.0000 </r>
       <r>    4.6992    1.0000 </r>
       <r>    4.7715    1.0000 </r>
       <r>    5.0829    1.0000 </r>
       <r>    5.2158    1.0000 </r>
       <r>    5.4112    1.0000 </r>
       <r>    5.6814    1.0000 </r>
       <r>    5.8688    1.0000 </r>
       <r>    6.1598    1.0000 </r>
       <r>    6.2141    1.0000 </r>
       <r>    6.6606    1.0000 </r>
       <r>    7.0295    1.0000 </r>
       <r>    7.2082    1.0000 </r>
       <r>    7.4368    1.0000 </r>
       <r>    7.6877    1.0000 </r>
       <r>    7.9420    1.0000 </r>
       <r>    8.2263    1.0000 </r>
       <r>    8.5911    1.0000 </r>
       <r>    8.8585    1.0002 </r>
       <r>    9.1969    1.0353 </r>
       <r>    9.2679    0.9984 </r>
       <r>    9.4945    0.2594 </r>
       <r>    9.7103   -0.0326 </r>
       <r>    9.9206   -0.0016 </r>
       <r>   10.0195   -0.0001 </r>
       <r>   10.0944   -0.0000 </r>
       <r>   10.2638   -0.0000 </r>
       <r>   10.4716   -0.0000 </r>
       <r>   10.6151   -0.0000 </r>
       <r>   10.8685   -0.0000 </r>
       <r>   11.1160   -0.0000 </r>
       <r>   11.2483   -0.0000 </r>
       <r>   11.2924   -0.0000 </r>
       <r>   11.5377   -0.0000 </r>
       <r>   11.5633   -0.0000 </r>
       <r>   11.8570   -0.0000 </r>
       <r>   12.1559   -0.0000 </r>
       <r>   12.2291   -0.0000 </r>
       <r>   12.4291   -0.0000 </r>
       <r>   12.5267   -0.0000 </r>
       <r>   12.7668   -0.0000 </r>
       <r>   12.8626   -0.0000 </r>
       <r>   13.2399   -0.0000 </r>
       <r>   13.4781   -0.0000 </r>
       <r>   13.5267   -0.0000 </r>
       <r>   13.6382   -0.0000 </r>
      </set>
      <set comment="kpoint 126">
       <r>   -2.2858    1.0000 </r>
       <r>   -2.0462    1.0000 </r>
       <r>   -1.3161    1.0000 </r>
       <r>   -0.7068    1.0000 </r>
       <r>   -0.2056    1.0000 </r>
       <r>    0.4137    1.0000 </r>
       <r>    0.9797    1.0000 </r>
       <r>    1.1477    1.0000 </r>
       <r>    1.4829    1.0000 </r>
       <r>    1.8462    1.0000 </r>
       <r>    2.1630    1.0000 </r>
       <r>    2.9517    1.0000 </r>
       <r>    3.0279    1.0000 </r>
       <r>    3.2987    1.0000 </r>
       <r>    3.6117    1.0000 </r>
       <r>    3.7865    1.0000 </r>
       <r>    4.0152    1.0000 </r>
       <r>    4.3481    1.0000 </r>
       <r>    4.4478    1.0000 </r>
       <r>    4.5272    1.0000 </r>
       <r>    4.9445    1.0000 </r>
       <r>    5.1047    1.0000 </r>
       <r>    5.2035    1.0000 </r>
       <r>    5.4222    1.0000 </r>
       <r>    5.5870    1.0000 </r>
       <r>    6.0203    1.0000 </r>
       <r>    6.2809    1.0000 </r>
       <r>    6.4608    1.0000 </r>
       <r>    6.6262    1.0000 </r>
       <r>    6.9329    1.0000 </r>
       <r>    7.0826    1.0000 </r>
       <r>    7.3686    1.0000 </r>
       <r>    7.8334    1.0000 </r>
       <r>    8.0161    1.0000 </r>
       <r>    8.3274    1.0000 </r>
       <r>    8.5711    1.0000 </r>
       <r>    8.9242    1.0009 </r>
       <r>    9.0545    1.0108 </r>
       <r>    9.2571    1.0094 </r>
       <r>    9.4568    0.4078 </r>
       <r>    9.6077   -0.0047 </r>
       <r>    9.6866   -0.0353 </r>
       <r>    9.8586   -0.0053 </r>
       <r>   10.1355   -0.0000 </r>
       <r>   10.3109   -0.0000 </r>
       <r>   10.4576   -0.0000 </r>
       <r>   10.6295   -0.0000 </r>
       <r>   10.8705   -0.0000 </r>
       <r>   10.9455   -0.0000 </r>
       <r>   11.1506   -0.0000 </r>
       <r>   11.4540   -0.0000 </r>
       <r>   11.5579   -0.0000 </r>
       <r>   11.8521   -0.0000 </r>
       <r>   11.9953   -0.0000 </r>
       <r>   12.0749   -0.0000 </r>
       <r>   12.2489   -0.0000 </r>
       <r>   12.4159   -0.0000 </r>
       <r>   12.4801   -0.0000 </r>
       <r>   12.7019   -0.0000 </r>
       <r>   12.8658   -0.0000 </r>
       <r>   13.1836   -0.0000 </r>
       <r>   13.4946   -0.0000 </r>
       <r>   13.5863   -0.0000 </r>
       <r>   13.7730   -0.0000 </r>
      </set>
      <set comment="kpoint 127">
       <r>   -2.3199    1.0000 </r>
       <r>   -1.9866    1.0000 </r>
       <r>   -1.3615    1.0000 </r>
       <r>   -0.5642    1.0000 </r>
       <r>   -0.4182    1.0000 </r>
       <r>    0.5431    1.0000 </r>
       <r>    0.9221    1.0000 </r>
       <r>    1.2563    1.0000 </r>
       <r>    1.5928    1.0000 </r>
       <r>    1.7536    1.0000 </r>
       <r>    2.1056    1.0000 </r>
       <r>    2.6201    1.0000 </r>
       <r>    3.0600    1.0000 </r>
       <r>    3.1891    1.0000 </r>
       <r>    3.7601    1.0000 </r>
       <r>    3.8897    1.0000 </r>
       <r>    4.0982    1.0000 </r>
       <r>    4.4163    1.0000 </r>
       <r>    4.5683    1.0000 </r>
       <r>    4.7278    1.0000 </r>
       <r>    4.8269    1.0000 </r>
       <r>    5.0126    1.0000 </r>
       <r>    5.1114    1.0000 </r>
       <r>    5.3950    1.0000 </r>
       <r>    5.6655    1.0000 </r>
       <r>    6.1175    1.0000 </r>
       <r>    6.1956    1.0000 </r>
       <r>    6.4357    1.0000 </r>
       <r>    6.6625    1.0000 </r>
       <r>    6.7797    1.0000 </r>
       <r>    7.0685    1.0000 </r>
       <r>    7.5566    1.0000 </r>
       <r>    7.6926    1.0000 </r>
       <r>    7.9951    1.0000 </r>
       <r>    8.2619    1.0000 </r>
       <r>    8.5497    1.0000 </r>
       <r>    8.7558    1.0000 </r>
       <r>    9.0484    1.0099 </r>
       <r>    9.2752    0.9896 </r>
       <r>    9.4909    0.2729 </r>
       <r>    9.5455    0.1020 </r>
       <r>    9.8081   -0.0120 </r>
       <r>   10.0098   -0.0002 </r>
       <r>   10.1247   -0.0000 </r>
       <r>   10.3211   -0.0000 </r>
       <r>   10.4683   -0.0000 </r>
       <r>   10.7230   -0.0000 </r>
       <r>   10.8226   -0.0000 </r>
       <r>   10.9458   -0.0000 </r>
       <r>   11.1361   -0.0000 </r>
       <r>   11.4233   -0.0000 </r>
       <r>   11.4924   -0.0000 </r>
       <r>   11.7091   -0.0000 </r>
       <r>   12.0047   -0.0000 </r>
       <r>   12.1429   -0.0000 </r>
       <r>   12.2603   -0.0000 </r>
       <r>   12.4761   -0.0000 </r>
       <r>   12.5946   -0.0000 </r>
       <r>   12.6758   -0.0000 </r>
       <r>   13.0621   -0.0000 </r>
       <r>   13.2171   -0.0000 </r>
       <r>   13.4162   -0.0000 </r>
       <r>   13.5426   -0.0000 </r>
       <r>   13.7166   -0.0000 </r>
      </set>
      <set comment="kpoint 128">
       <r>   -2.2532    1.0000 </r>
       <r>   -2.0833    1.0000 </r>
       <r>   -1.3339    1.0000 </r>
       <r>   -0.6722    1.0000 </r>
       <r>   -0.2678    1.0000 </r>
       <r>    0.6251    1.0000 </r>
       <r>    0.8162    1.0000 </r>
       <r>    1.1676    1.0000 </r>
       <r>    1.5012    1.0000 </r>
       <r>    1.9211    1.0000 </r>
       <r>    2.0599    1.0000 </r>
       <r>    2.7061    1.0000 </r>
       <r>    3.1513    1.0000 </r>
       <r>    3.2029    1.0000 </r>
       <r>    3.6916    1.0000 </r>
       <r>    4.0368    1.0000 </r>
       <r>    4.0539    1.0000 </r>
       <r>    4.2729    1.0000 </r>
       <r>    4.5296    1.0000 </r>
       <r>    4.5688    1.0000 </r>
       <r>    4.7605    1.0000 </r>
       <r>    5.0461    1.0000 </r>
       <r>    5.2167    1.0000 </r>
       <r>    5.4348    1.0000 </r>
       <r>    5.5248    1.0000 </r>
       <r>    6.0926    1.0000 </r>
       <r>    6.2502    1.0000 </r>
       <r>    6.5185    1.0000 </r>
       <r>    6.5923    1.0000 </r>
       <r>    7.0405    1.0000 </r>
       <r>    7.1225    1.0000 </r>
       <r>    7.3648    1.0000 </r>
       <r>    7.6360    1.0000 </r>
       <r>    8.1334    1.0000 </r>
       <r>    8.3551    1.0000 </r>
       <r>    8.5521    1.0000 </r>
       <r>    8.7690    1.0000 </r>
       <r>    9.0075    1.0050 </r>
       <r>    9.3442    0.8432 </r>
       <r>    9.3912    0.6801 </r>
       <r>    9.5575    0.0740 </r>
       <r>    9.7597   -0.0220 </r>
       <r>    9.8488   -0.0063 </r>
       <r>   10.1460   -0.0000 </r>
       <r>   10.3417   -0.0000 </r>
       <r>   10.5082   -0.0000 </r>
       <r>   10.6813   -0.0000 </r>
       <r>   10.8994   -0.0000 </r>
       <r>   11.0812   -0.0000 </r>
       <r>   11.2065   -0.0000 </r>
       <r>   11.3234   -0.0000 </r>
       <r>   11.5555   -0.0000 </r>
       <r>   11.7235   -0.0000 </r>
       <r>   11.8980   -0.0000 </r>
       <r>   11.9972   -0.0000 </r>
       <r>   12.1192   -0.0000 </r>
       <r>   12.5032   -0.0000 </r>
       <r>   12.5951   -0.0000 </r>
       <r>   12.7193   -0.0000 </r>
       <r>   12.9943   -0.0000 </r>
       <r>   13.3017   -0.0000 </r>
       <r>   13.4518   -0.0000 </r>
       <r>   13.6375   -0.0000 </r>
       <r>   13.7456   -0.0000 </r>
      </set>
     </set>
    </set>
   </array>
  </eigenvalues>
  <separator name="orbital magnetization" >
   <v name="MAGDIPOLOUT">      0.00000000      0.00000000      0.00000000</v>
  </separator>
  <dos>
   <i name="efermi">      9.43484837 </i>
   <total>
    <array>
     <dimension dim="1">gridpoints</dimension>
     <dimension dim="2">spin</dimension>
     <field>energy</field>
     <field>total</field>
     <field>integrated</field>
     <set>
      <set comment="spin 1">
       <r>    -4.9737     0.0000     0.0000 </r>
       <r>    -4.9024     0.0000     0.0000 </r>
       <r>    -4.8311     0.0000     0.0000 </r>
       <r>    -4.7598     0.0000     0.0000 </r>
       <r>    -4.6885     0.0000     0.0000 </r>
       <r>    -4.6172    -0.0000    -0.0000 </r>
       <r>    -4.5459    -0.0000    -0.0000 </r>
       <r>    -4.4746    -0.0000    -0.0000 </r>
       <r>    -4.4032    -0.0000    -0.0000 </r>
       <r>    -4.3319    -0.0000    -0.0000 </r>
       <r>    -4.2606    -0.0000    -0.0000 </r>
       <r>    -4.1893    -0.0000    -0.0000 </r>
       <r>    -4.1180    -0.0000    -0.0000 </r>
       <r>    -4.0467    -0.0000    -0.0000 </r>
       <r>    -3.9754    -0.0000    -0.0000 </r>
       <r>    -3.9041    -0.0000    -0.0000 </r>
       <r>    -3.8327    -0.0000    -0.0000 </r>
       <r>    -3.7614    -0.0000    -0.0000 </r>
       <r>    -3.6901    -0.0000    -0.0000 </r>
       <r>    -3.6188    -0.0000    -0.0000 </r>
       <r>    -3.5475    -0.0001    -0.0000 </r>
       <r>    -3.4762    -0.0009    -0.0001 </r>
       <r>    -3.4049    -0.0038    -0.0003 </r>
       <r>    -3.3336    -0.0123    -0.0012 </r>
       <r>    -3.2622    -0.0283    -0.0032 </r>
       <r>    -3.1909    -0.0409    -0.0062 </r>
       <r>    -3.1196    -0.0109    -0.0069 </r>
       <r>    -3.0483     0.1242     0.0019 </r>
       <r>    -2.9770     0.4053     0.0308 </r>
       <r>    -2.9057     0.7968     0.0876 </r>
       <r>    -2.8344     1.1996     0.1732 </r>
       <r>    -2.7631     1.5574     0.2842 </r>
       <r>    -2.6917     1.9267     0.4216 </r>
       <r>    -2.6204     2.3717     0.5908 </r>
       <r>    -2.5491     2.8226     0.7921 </r>
       <r>    -2.4778     3.1504     1.0167 </r>
       <r>    -2.4065     3.3339     1.2545 </r>
       <r>    -2.3352     3.3728     1.4950 </r>
       <r>    -2.2639     3.1301     1.7182 </r>
       <r>    -2.1926     2.5293     1.8986 </r>
       <r>    -2.1212     1.8348     2.0294 </r>
       <r>    -2.0499     1.4916     2.1358 </r>
       <r>    -1.9786     1.7209     2.2585 </r>
       <r>    -1.9073     2.3714     2.4276 </r>
       <r>    -1.8360     3.0819     2.6474 </r>
       <r>    -1.7647     3.5550     2.9009 </r>
       <r>    -1.6934     3.7498     3.1683 </r>
       <r>    -1.6221     3.8387     3.4421 </r>
       <r>    -1.5507     3.9647     3.7248 </r>
       <r>    -1.4794     4.0644     4.0147 </r>
       <r>    -1.4081     3.9812     4.2986 </r>
       <r>    -1.3368     3.7218     4.5640 </r>
       <r>    -1.2655     3.4714     4.8115 </r>
       <r>    -1.1942     3.3599     5.0511 </r>
       <r>    -1.1229     3.3743     5.2918 </r>
       <r>    -1.0516     3.4894     5.5406 </r>
       <r>    -0.9802     3.6832     5.8033 </r>
       <r>    -0.9089     3.8376     6.0769 </r>
       <r>    -0.8376     3.8436     6.3510 </r>
       <r>    -0.7663     3.7757     6.6203 </r>
       <r>    -0.6950     3.7538     6.8880 </r>
       <r>    -0.6237     3.7185     7.1531 </r>
       <r>    -0.5524     3.5359     7.4053 </r>
       <r>    -0.4811     3.2285     7.6355 </r>
       <r>    -0.4097     2.9808     7.8481 </r>
       <r>    -0.3384     3.0251     8.0638 </r>
       <r>    -0.2671     3.5599     8.3177 </r>
       <r>    -0.1958     4.5765     8.6440 </r>
       <r>    -0.1245     5.6468     9.0467 </r>
       <r>    -0.0532     6.0665     9.4794 </r>
       <r>     0.0181     5.4528     9.8682 </r>
       <r>     0.0894     4.2225    10.1693 </r>
       <r>     0.1608     3.3469    10.4080 </r>
       <r>     0.2321     3.4962    10.6573 </r>
       <r>     0.3034     4.3798    10.9696 </r>
       <r>     0.3747     5.0441    11.3294 </r>
       <r>     0.4460     4.9135    11.6797 </r>
       <r>     0.5173     4.3615    11.9908 </r>
       <r>     0.5886     4.1112    12.2840 </r>
       <r>     0.6599     4.3438    12.5937 </r>
       <r>     0.7313     4.6630    12.9263 </r>
       <r>     0.8026     4.6938    13.2610 </r>
       <r>     0.8739     4.4192    13.5761 </r>
       <r>     0.9452     4.0891    13.8677 </r>
       <r>     1.0165     4.0351    14.1555 </r>
       <r>     1.0878     4.4691    14.4742 </r>
       <r>     1.1591     5.2791    14.8506 </r>
       <r>     1.2304     6.0224    15.2801 </r>
       <r>     1.3018     6.2443    15.7254 </r>
       <r>     1.3731     5.8960    16.1459 </r>
       <r>     1.4444     5.3912    16.5303 </r>
       <r>     1.5157     5.1626    16.8985 </r>
       <r>     1.5870     5.2497    17.2729 </r>
       <r>     1.6583     5.4185    17.6593 </r>
       <r>     1.7296     5.5348    18.0540 </r>
       <r>     1.8009     5.6304    18.4555 </r>
       <r>     1.8723     5.7151    18.8630 </r>
       <r>     1.9436     5.7746    19.2748 </r>
       <r>     2.0149     5.8968    19.6953 </r>
       <r>     2.0862     6.1572    20.1344 </r>
       <r>     2.1575     6.4071    20.5913 </r>
       <r>     2.2288     6.4112    21.0485 </r>
       <r>     2.3001     6.2081    21.4913 </r>
       <r>     2.3714     6.1090    21.9269 </r>
       <r>     2.4428     6.2740    22.3743 </r>
       <r>     2.5141     6.5062    22.8383 </r>
       <r>     2.5854     6.5742    23.3071 </r>
       <r>     2.6567     6.5212    23.7721 </r>
       <r>     2.7280     6.5360    24.2382 </r>
       <r>     2.7993     6.7179    24.7173 </r>
       <r>     2.8706     7.0068    25.2170 </r>
       <r>     2.9419     7.1680    25.7282 </r>
       <r>     3.0132     6.9481    26.2236 </r>
       <r>     3.0846     6.4222    26.6816 </r>
       <r>     3.1559     6.0063    27.1100 </r>
       <r>     3.2272     5.9994    27.5378 </r>
       <r>     3.2985     6.3157    27.9882 </r>
       <r>     3.3698     6.7011    28.4660 </r>
       <r>     3.4411     6.9668    28.9629 </r>
       <r>     3.5124     7.0199    29.4635 </r>
       <r>     3.5837     6.9385    29.9583 </r>
       <r>     3.6551     6.9968    30.4572 </r>
       <r>     3.7264     7.3552    30.9817 </r>
       <r>     3.7977     7.8164    31.5391 </r>
       <r>     3.8690     8.1177    32.1180 </r>
       <r>     3.9403     8.2540    32.7067 </r>
       <r>     4.0116     8.2903    33.2979 </r>
       <r>     4.0829     8.1582    33.8796 </r>
       <r>     4.1542     7.8347    34.4383 </r>
       <r>     4.2256     7.4478    34.9695 </r>
       <r>     4.2969     7.1187    35.4771 </r>
       <r>     4.3682     6.9108    35.9699 </r>
       <r>     4.4395     6.8995    36.4620 </r>
       <r>     4.5108     7.1305    36.9705 </r>
       <r>     4.5821     7.5466    37.5086 </r>
       <r>     4.6534     8.0061    38.0796 </r>
       <r>     4.7247     8.3312    38.6737 </r>
       <r>     4.7961     8.3863    39.2717 </r>
       <r>     4.8674     8.2282    39.8585 </r>
       <r>     4.9387     8.1135    40.4371 </r>
       <r>     5.0100     8.2126    41.0227 </r>
       <r>     5.0813     8.4095    41.6224 </r>
       <r>     5.1526     8.5014    42.2287 </r>
       <r>     5.2239     8.4623    42.8322 </r>
       <r>     5.2952     8.4246    43.4329 </r>
       <r>     5.3666     8.4911    44.0385 </r>
       <r>     5.4379     8.6045    44.6521 </r>
       <r>     5.5092     8.6208    45.2668 </r>
       <r>     5.5805     8.4962    45.8727 </r>
       <r>     5.6518     8.2949    46.4643 </r>
       <r>     5.7231     8.0661    47.0395 </r>
       <r>     5.7944     7.8449    47.5989 </r>
       <r>     5.8657     7.7128    48.1489 </r>
       <r>     5.9371     7.7796    48.7037 </r>
       <r>     6.0084     8.1084    49.2819 </r>
       <r>     6.0797     8.6329    49.8976 </r>
       <r>     6.1510     9.1911    50.5530 </r>
       <r>     6.2223     9.6488    51.2411 </r>
       <r>     6.2936     9.9178    51.9483 </r>
       <r>     6.3649     9.9484    52.6578 </r>
       <r>     6.4362     9.8157    53.3578 </r>
       <r>     6.5076     9.6950    54.0492 </r>
       <r>     6.5789     9.6599    54.7380 </r>
       <r>     6.6502     9.5804    55.4212 </r>
       <r>     6.7215     9.2911    56.0838 </r>
       <r>     6.7928     8.7996    56.7113 </r>
       <r>     6.8641     8.2516    57.2998 </r>
       <r>     6.9354     7.7839    57.8549 </r>
       <r>     7.0067     7.5146    58.3907 </r>
       <r>     7.0781     7.5505    58.9292 </r>
       <r>     7.1494     7.8644    59.4900 </r>
       <r>     7.2207     8.2577    60.0789 </r>
       <r>     7.2920     8.5547    60.6889 </r>
       <r>     7.3633     8.7744    61.3147 </r>
       <r>     7.4346     9.0297    61.9586 </r>
       <r>     7.5059     9.3136    62.6228 </r>
       <r>     7.5772     9.5005    63.3003 </r>
       <r>     7.6486     9.5400    63.9806 </r>
       <r>     7.7199     9.4962    64.6578 </r>
       <r>     7.7912     9.4033    65.3284 </r>
       <r>     7.8625     9.2809    65.9902 </r>
       <r>     7.9338     9.2921    66.6529 </r>
       <r>     8.0051     9.6394    67.3403 </r>
       <r>     8.0764    10.2125    68.0685 </r>
       <r>     8.1477    10.5533    68.8211 </r>
       <r>     8.2191    10.3470    69.5590 </r>
       <r>     8.2904     9.8126    70.2588 </r>
       <r>     8.3617     9.4369    70.9317 </r>
       <r>     8.4330     9.4208    71.6035 </r>
       <r>     8.5043     9.5473    72.2844 </r>
       <r>     8.5756     9.5233    72.9635 </r>
       <r>     8.6469     9.2862    73.6257 </r>
       <r>     8.7182     8.9769    74.2659 </r>
       <r>     8.7896     8.7493    74.8898 </r>
       <r>     8.8609     8.6855    75.5092 </r>
       <r>     8.9322     8.8108    76.1375 </r>
       <r>     9.0035     9.0422    76.7824 </r>
       <r>     9.0748     9.1988    77.4384 </r>
       <r>     9.1461     9.2290    78.0965 </r>
       <r>     9.2174     9.3198    78.7611 </r>
       <r>     9.2887     9.6618    79.4501 </r>
       <r>     9.3601    10.2506    80.1811 </r>
       <r>     9.4314    10.9334    80.9608 </r>
       <r>     9.5027    11.4767    81.7792 </r>
       <r>     9.5740    11.6519    82.6102 </r>
       <r>     9.6453    11.4109    83.4239 </r>
       <r>     9.7166    10.9340    84.2036 </r>
       <r>     9.7879    10.4571    84.9494 </r>
       <r>     9.8592    10.1156    85.6707 </r>
       <r>     9.9306     9.9617    86.3811 </r>
       <r>    10.0019    10.0458    87.0975 </r>
       <r>    10.0732    10.3676    87.8369 </r>
       <r>    10.1445    10.7298    88.6020 </r>
       <r>    10.2158    10.8091    89.3728 </r>
       <r>    10.2871    10.5148    90.1227 </r>
       <r>    10.3584    10.1550    90.8468 </r>
       <r>    10.4297    10.0784    91.5656 </r>
       <r>    10.5011    10.2406    92.2959 </r>
       <r>    10.5724    10.2994    93.0303 </r>
       <r>    10.6437    10.0832    93.7494 </r>
       <r>    10.7150     9.7839    94.4471 </r>
       <r>    10.7863     9.6915    95.1382 </r>
       <r>    10.8576     9.8902    95.8435 </r>
       <r>    10.9289    10.2613    96.5753 </r>
       <r>    11.0002    10.6556    97.3351 </r>
       <r>    11.0716    10.9565    98.1165 </r>
       <r>    11.1429    11.0942    98.9076 </r>
       <r>    11.2142    11.1143    99.7002 </r>
       <r>    11.2855    11.1266   100.4937 </r>
       <r>    11.3568    11.1669   101.2900 </r>
       <r>    11.4281    11.2078   102.0893 </r>
       <r>    11.4994    11.2172   102.8892 </r>
       <r>    11.5707    11.1374   103.6834 </r>
       <r>    11.6421    10.9317   104.4630 </r>
       <r>    11.7134    10.6867   105.2251 </r>
       <r>    11.7847    10.5715   105.9790 </r>
       <r>    11.8560    10.6725   106.7401 </r>
       <r>    11.9273    10.9075   107.5179 </r>
       <r>    11.9986    11.1083   108.3101 </r>
       <r>    12.0699    11.1613   109.1060 </r>
       <r>    12.1412    11.0650   109.8951 </r>
       <r>    12.2126    10.8993   110.6723 </r>
       <r>    12.2839    10.7877   111.4416 </r>
       <r>    12.3552    10.8543   112.2157 </r>
       <r>    12.4265    11.1376   113.0099 </r>
       <r>    12.4978    11.5028   113.8302 </r>
       <r>    12.5691    11.7039   114.6649 </r>
       <r>    12.6404    11.6350   115.4946 </r>
       <r>    12.7117    11.4786   116.3131 </r>
       <r>    12.7831    11.4927   117.1327 </r>
       <r>    12.8544    11.7000   117.9671 </r>
       <r>    12.9257    11.9031   118.8159 </r>
       <r>    12.9970    11.9542   119.6684 </r>
       <r>    13.0683    11.8834   120.5158 </r>
       <r>    13.1396    11.8015   121.3574 </r>
       <r>    13.2109    11.7802   122.1975 </r>
       <r>    13.2822    11.8070   123.0395 </r>
       <r>    13.3536    11.8093   123.8816 </r>
       <r>    13.4249    11.7024   124.7162 </r>
       <r>    13.4962    11.3485   125.5254 </r>
       <r>    13.5675    10.4854   126.2732 </r>
       <r>    13.6388     8.8809   126.9065 </r>
       <r>    13.7101     6.6306   127.3793 </r>
       <r>    13.7814     4.2035   127.6791 </r>
       <r>    13.8527     2.1527   127.8326 </r>
       <r>    13.9241     0.8060   127.8901 </r>
       <r>    13.9954     0.1671   127.9020 </r>
       <r>    14.0667     0.0148   127.9031 </r>
       <r>    14.1380     0.0772   127.9086 </r>
       <r>    14.2093     0.1717   127.9208 </r>
       <r>    14.2806     0.2391   127.9379 </r>
       <r>    14.3519     0.2793   127.9578 </r>
       <r>    14.4232     0.2770   127.9775 </r>
       <r>    14.4946     0.2117   127.9926 </r>
       <r>    14.5659     0.1092   128.0004 </r>
       <r>    14.6372     0.0261   128.0023 </r>
       <r>    14.7085    -0.0098   128.0016 </r>
       <r>    14.7798    -0.0128   128.0007 </r>
       <r>    14.8511    -0.0066   128.0002 </r>
       <r>    14.9224    -0.0022   128.0000 </r>
       <r>    14.9937    -0.0005   128.0000 </r>
       <r>    15.0651    -0.0001   128.0000 </r>
       <r>    15.1364    -0.0000   128.0000 </r>
       <r>    15.2077    -0.0000   128.0000 </r>
       <r>    15.2790    -0.0000   128.0000 </r>
       <r>    15.3503    -0.0000   128.0000 </r>
       <r>    15.4216    -0.0000   128.0000 </r>
       <r>    15.4929    -0.0000   128.0000 </r>
       <r>    15.5642    -0.0000   128.0000 </r>
       <r>    15.6355    -0.0000   128.0000 </r>
       <r>    15.7069    -0.0000   128.0000 </r>
       <r>    15.7782     0.0000   128.0000 </r>
       <r>    15.8495     0.0000   128.0000 </r>
       <r>    15.9208     0.0000   128.0000 </r>
       <r>    15.9921     0.0000   128.0000 </r>
       <r>    16.0634     0.0000   128.0000 </r>
       <r>    16.1347     0.0000   128.0000 </r>
       <r>    16.2060     0.0000   128.0000 </r>
       <r>    16.2774     0.0000   128.0000 </r>
       <r>    16.3487     0.0000   128.0000 </r>
       <r>    16.4200     0.0000   128.0000 </r>
      </set>
     </set>
    </array>
   </total>
  </dos>
 </calculation>
 <structure name="finalpos" >
  <crystal>
   <varray name="basis" >
    <v>       0.00000000       5.77125000       5.77125000 </v>
    <v>       5.77125000       0.00000000       5.77125000 </v>
    <v>       5.77125000       5.77125000       0.00000000 </v>
   </varray>
   <i name="volume">    384.44981685 </i>
   <varray name="rec_basis" >
    <v>      -0.08663634       0.08663634       0.08663634 </v>
    <v>       0.08663634      -0.08663634       0.08663634 </v>
    <v>       0.08663634       0.08663634      -0.08663634 </v>
   </varray>
  </crystal>
  <varray name="positions" >
   <v>       0.02220886       0.99235534       0.05123338 </v>
   <v>       0.97214756       0.00615523       0.40100106 </v>
   <v>       0.93523267       0.04220295       0.65269628 </v>
   <v>       0.00121959       0.38320338       0.93137229 </v>
   <v>       0.01795086       0.26764537       0.38660680 </v>
   <v>       0.07021917       0.28596590       0.64930993 </v>
   <v>       0.04011125       0.66763783       0.92919888 </v>
   <v>       0.04742998       0.60635048       0.31207099 </v>
   <v>       0.05595311       0.63782159       0.61326516 </v>
   <v>       0.39865075       0.96005523       0.01302380 </v>
   <v>       0.25996364       0.00984095       0.36310411 </v>
   <v>       0.35311984       0.94089019       0.64859756 </v>
   <v>       0.34042195       0.35309382       0.92867599 </v>
   <v>       0.26587547       0.32670743       0.36123225 </v>
   <v>       0.38832207       0.29120510       0.69646217 </v>
   <v>       0.38056392       0.65961308       0.93291001 </v>
   <v>       0.39269860       0.68892341       0.28371372 </v>
   <v>       0.35039477       0.62988623       0.62329298 </v>
   <v>       0.71813971       0.02298265       0.99066799 </v>
   <v>       0.73179596       0.94368007       0.32376655 </v>
   <v>       0.63060653       0.05582042       0.61874465 </v>
   <v>       0.67483821       0.40086077       0.95950853 </v>
   <v>       0.60782453       0.37345719       0.30908929 </v>
   <v>       0.71872235       0.33134354       0.68369800 </v>
   <v>       0.71628386       0.68581713       0.99962172 </v>
   <v>       0.63109036       0.69733691       0.28436903 </v>
   <v>       0.59521870       0.70322820       0.66901406 </v>
  </varray>
 </structure>
</modeling>
