<?xml version="1.0" encoding="ISO-8859-1"?>
<modeling>
 <generator>
  <i name="program" type="string">vasp </i>
  <i name="version" type="string">5.3.5  </i>
  <i name="subversion" type="string">31Mar14 (build Jun 17 2014 14:04:22) complex                          parallel </i>
  <i name="platform" type="string">LinuxIfort </i>
  <i name="date" type="string">2025 12 23 </i>
  <i name="time" type="string">01:32:32 </i>
 </generator>
 <incar>
  <i type="string" name="SYSTEM"> Al Random Displacement</i>
  <i type="string" name="PREC">normal</i>
  <i type="string" name="ALGO"> Fast</i>
  <i type="int" name="IBRION">    -1</i>
  <i type="int" name="NSW">     0</i>
  <i name="ENCUT">    300.00000000</i>
  <i type="string" name="LREAL"> Auto</i>
  <i type="int" name="ISMEAR">     1</i>
  <i name="SIGMA">      0.20000000</i>
  <i type="logical" name="LWAVE"> F  </i>
  <i type="logical" name="LCHARG"> F  </i>
 </incar>
 <kpoints>
  <generation param="Monkhorst-Pack">
   <v type="int" name="divisions">       4        4        4 </v>
   <v name="usershift">      0.00000000       0.00000000       0.00000000 </v>
   <v name="genvec1">      0.25000000       0.00000000       0.00000000 </v>
   <v name="genvec2">      0.00000000       0.25000000       0.00000000 </v>
   <v name="genvec3">      0.00000000       0.00000000       0.25000000 </v>
   <v name="shift">      0.50000000       0.50000000       0.50000000 </v>
  </generation>
  <varray name="kpointlist" >
   <v>       0.12500000       0.12500000       0.12500000 </v>
   <v>       0.12500000       0.00000000       0.00000000 </v>
   <v>       0.00000000       0.00000000      -0.12500000 </v>
   <v>       0.00000000       0.12500000       0.00000000 </v>
   <v>       0.37500000       0.12500000       0.12500000 </v>
   <v>       0.12500000       0.37500000       0.12500000 </v>
   <v>       0.12500000       0.12500000       0.37500000 </v>
   <v>       0.12500000       0.00000000      -0.25000000 </v>
   <v>       0.37500000       0.25000000       0.25000000 </v>
   <v>       0.12500000      -0.25000000       0.00000000 </v>
   <v>       0.00000000       0.25000000      -0.12500000 </v>
   <v>       0.25000000       0.00000000      -0.12500000 </v>
   <v>      -0.25000000      -0.25000000      -0.37500000 </v>
   <v>       0.25000000       0.37500000       0.25000000 </v>
   <v>       0.00000000       0.12500000      -0.25000000 </v>
   <v>      -0.25000000       0.12500000       0.00000000 </v>
   <v>      -0.37500000       0.12500000       0.12500000 </v>
   <v>       0.12500000      -0.37500000       0.12500000 </v>
   <v>       0.12500000       0.12500000      -0.37500000 </v>
   <v>       0.12500000       0.00000000       0.50000000 </v>
   <v>      -0.37500000       0.50000000       0.50000000 </v>
   <v>       0.12500000       0.50000000       0.00000000 </v>
   <v>       0.00000000       0.50000000      -0.12500000 </v>
   <v>       0.50000000       0.00000000      -0.12500000 </v>
   <v>       0.50000000       0.50000000       0.37500000 </v>
   <v>       0.50000000      -0.37500000       0.50000000 </v>
   <v>       0.00000000       0.12500000       0.50000000 </v>
   <v>       0.50000000       0.12500000       0.00000000 </v>
   <v>      -0.12500000       0.12500000       0.12500000 </v>
   <v>       0.12500000      -0.12500000       0.12500000 </v>
   <v>       0.12500000       0.12500000      -0.12500000 </v>
   <v>       0.12500000       0.00000000       0.25000000 </v>
   <v>      -0.12500000      -0.25000000      -0.25000000 </v>
   <v>       0.12500000       0.25000000       0.00000000 </v>
   <v>       0.00000000      -0.25000000      -0.12500000 </v>
   <v>      -0.25000000       0.00000000      -0.12500000 </v>
   <v>       0.25000000       0.25000000       0.12500000 </v>
   <v>      -0.25000000      -0.12500000      -0.25000000 </v>
   <v>       0.00000000       0.12500000       0.25000000 </v>
   <v>       0.25000000       0.12500000       0.00000000 </v>
   <v>       0.37500000       0.37500000       0.12500000 </v>
   <v>       0.12500000       0.37500000       0.37500000 </v>
   <v>       0.37500000       0.12500000       0.37500000 </v>
   <v>       0.37500000       0.25000000       0.00000000 </v>
   <v>       0.37500000       0.00000000       0.25000000 </v>
   <v>       0.12500000      -0.25000000      -0.25000000 </v>
   <v>       0.25000000       0.25000000      -0.12500000 </v>
   <v>       0.00000000      -0.25000000      -0.37500000 </v>
   <v>      -0.25000000       0.00000000      -0.37500000 </v>
   <v>       0.25000000       0.37500000       0.00000000 </v>
   <v>      -0.25000000       0.12500000      -0.25000000 </v>
   <v>       0.00000000       0.37500000       0.25000000 </v>
   <v>      -0.37500000       0.37500000       0.12500000 </v>
   <v>       0.12500000      -0.37500000       0.37500000 </v>
   <v>       0.37500000       0.12500000      -0.37500000 </v>
   <v>       0.37500000       0.25000000      -0.25000000 </v>
   <v>      -0.37500000       0.25000000       0.50000000 </v>
   <v>       0.12500000       0.50000000      -0.25000000 </v>
   <v>       0.25000000       0.50000000      -0.12500000 </v>
   <v>       0.25000000      -0.25000000      -0.37500000 </v>
   <v>       0.50000000      -0.25000000       0.37500000 </v>
   <v>       0.50000000      -0.37500000       0.25000000 </v>
   <v>      -0.25000000       0.12500000       0.50000000 </v>
   <v>      -0.25000000       0.37500000       0.25000000 </v>
   <v>      -0.12500000       0.25000000       0.50000000 </v>
   <v>      -0.37500000       0.25000000      -0.25000000 </v>
   <v>       0.37500000       0.50000000      -0.25000000 </v>
   <v>       0.25000000       0.50000000      -0.37500000 </v>
   <v>       0.50000000      -0.25000000       0.12500000 </v>
   <v>       0.25000000      -0.25000000       0.37500000 </v>
   <v>       0.50000000      -0.12500000       0.25000000 </v>
   <v>      -0.25000000      -0.37500000       0.25000000 </v>
   <v>      -0.25000000       0.37500000       0.50000000 </v>
   <v>       0.37500000      -0.12500000      -0.37500000 </v>
   <v>      -0.37500000       0.37500000      -0.12500000 </v>
   <v>      -0.12500000      -0.37500000       0.37500000 </v>
   <v>      -0.12500000       0.37500000       0.12500000 </v>
   <v>       0.12500000      -0.12500000       0.37500000 </v>
   <v>       0.37500000       0.12500000      -0.12500000 </v>
   <v>       0.37500000       0.25000000       0.50000000 </v>
   <v>      -0.12500000       0.50000000      -0.25000000 </v>
   <v>       0.12500000       0.25000000      -0.25000000 </v>
   <v>       0.25000000      -0.25000000      -0.12500000 </v>
   <v>       0.50000000      -0.25000000      -0.37500000 </v>
   <v>       0.25000000       0.50000000       0.12500000 </v>
   <v>      -0.25000000      -0.12500000       0.50000000 </v>
   <v>      -0.25000000       0.12500000       0.25000000 </v>
   <v>       0.50000000       0.37500000       0.25000000 </v>
   <v>      -0.12500000       0.25000000      -0.25000000 </v>
   <v>      -0.37500000       0.50000000      -0.25000000 </v>
   <v>       0.12500000       0.25000000       0.50000000 </v>
   <v>       0.50000000      -0.25000000      -0.12500000 </v>
   <v>       0.25000000      -0.25000000       0.12500000 </v>
   <v>       0.25000000       0.50000000       0.37500000 </v>
   <v>      -0.25000000      -0.12500000       0.25000000 </v>
   <v>      -0.25000000      -0.37500000       0.50000000 </v>
   <v>       0.50000000       0.12500000       0.25000000 </v>
   <v>       0.12500000      -0.12500000      -0.37500000 </v>
   <v>      -0.37500000       0.12500000      -0.12500000 </v>
   <v>      -0.12500000      -0.37500000       0.12500000 </v>
   <v>      -0.37500000      -0.37500000       0.12500000 </v>
   <v>       0.12500000      -0.37500000      -0.37500000 </v>
   <v>      -0.37500000       0.12500000      -0.37500000 </v>
   <v>      -0.37500000       0.50000000       0.00000000 </v>
   <v>      -0.37500000       0.00000000       0.50000000 </v>
   <v>       0.12500000       0.50000000       0.50000000 </v>
   <v>       0.50000000       0.50000000      -0.12500000 </v>
   <v>       0.00000000       0.50000000       0.37500000 </v>
   <v>       0.50000000       0.00000000       0.37500000 </v>
   <v>       0.50000000      -0.37500000       0.00000000 </v>
   <v>       0.50000000       0.12500000       0.50000000 </v>
   <v>       0.00000000      -0.37500000       0.50000000 </v>
   <v>       0.37500000       0.37500000       0.37500000 </v>
   <v>       0.37500000       0.00000000       0.00000000 </v>
   <v>       0.00000000       0.00000000      -0.37500000 </v>
   <v>       0.00000000       0.37500000       0.00000000 </v>
   <v>      -0.37500000       0.37500000       0.37500000 </v>
   <v>       0.37500000      -0.37500000       0.37500000 </v>
   <v>       0.37500000       0.37500000      -0.37500000 </v>
   <v>       0.37500000       0.00000000      -0.25000000 </v>
   <v>      -0.37500000       0.25000000       0.25000000 </v>
   <v>       0.37500000      -0.25000000       0.00000000 </v>
   <v>       0.00000000       0.25000000      -0.37500000 </v>
   <v>       0.25000000       0.00000000      -0.37500000 </v>
   <v>      -0.25000000      -0.25000000       0.37500000 </v>
   <v>       0.25000000      -0.37500000       0.25000000 </v>
   <v>       0.00000000       0.37500000      -0.25000000 </v>
   <v>      -0.25000000       0.37500000       0.00000000 </v>
  </varray>
  <varray name="weights" >
   <v>       0.00781250 </v>
   <v>       0.00781250 </v>
   <v>       0.00781250 </v>
   <v>       0.00781250 </v>
   <v>       0.00781250 </v>
   <v>       0.00781250 </v>
   <v>       0.00781250 </v>
   <v>       0.00781250 </v>
   <v>       0.00781250 </v>
   <v>       0.00781250 </v>
   <v>       0.00781250 </v>
   <v>       0.00781250 </v>
   <v>       0.00781250 </v>
   <v>       0.00781250 </v>
   <v>       0.00781250 </v>
   <v>       0.00781250 </v>
   <v>       0.00781250 </v>
   <v>       0.00781250 </v>
   <v>       0.00781250 </v>
   <v>       0.00781250 </v>
   <v>       0.00781250 </v>
   <v>       0.00781250 </v>
   <v>       0.00781250 </v>
   <v>       0.00781250 </v>
   <v>       0.00781250 </v>
   <v>       0.00781250 </v>
   <v>       0.00781250 </v>
   <v>       0.00781250 </v>
   <v>       0.00781250 </v>
   <v>       0.00781250 </v>
   <v>       0.00781250 </v>
   <v>       0.00781250 </v>
   <v>       0.00781250 </v>
   <v>       0.00781250 </v>
   <v>       0.00781250 </v>
   <v>       0.00781250 </v>
   <v>       0.00781250 </v>
   <v>       0.00781250 </v>
   <v>       0.00781250 </v>
   <v>       0.00781250 </v>
   <v>       0.00781250 </v>
   <v>       0.00781250 </v>
   <v>       0.00781250 </v>
   <v>       0.00781250 </v>
   <v>       0.00781250 </v>
   <v>       0.00781250 </v>
   <v>       0.00781250 </v>
   <v>       0.00781250 </v>
   <v>       0.00781250 </v>
   <v>       0.00781250 </v>
   <v>       0.00781250 </v>
   <v>       0.00781250 </v>
   <v>       0.00781250 </v>
   <v>       0.00781250 </v>
   <v>       0.00781250 </v>
   <v>       0.00781250 </v>
   <v>       0.00781250 </v>
   <v>       0.00781250 </v>
   <v>       0.00781250 </v>
   <v>       0.00781250 </v>
   <v>       0.00781250 </v>
   <v>       0.00781250 </v>
   <v>       0.00781250 </v>
   <v>       0.00781250 </v>
   <v>       0.00781250 </v>
   <v>       0.00781250 </v>
   <v>       0.00781250 </v>
   <v>       0.00781250 </v>
   <v>       0.00781250 </v>
   <v>       0.00781250 </v>
   <v>       0.00781250 </v>
   <v>       0.00781250 </v>
   <v>       0.00781250 </v>
   <v>       0.00781250 </v>
   <v>       0.00781250 </v>
   <v>       0.00781250 </v>
   <v>       0.00781250 </v>
   <v>       0.00781250 </v>
   <v>       0.00781250 </v>
   <v>       0.00781250 </v>
   <v>       0.00781250 </v>
   <v>       0.00781250 </v>
   <v>       0.00781250 </v>
   <v>       0.00781250 </v>
   <v>       0.00781250 </v>
   <v>       0.00781250 </v>
   <v>       0.00781250 </v>
   <v>       0.00781250 </v>
   <v>       0.00781250 </v>
   <v>       0.00781250 </v>
   <v>       0.00781250 </v>
   <v>       0.00781250 </v>
   <v>       0.00781250 </v>
   <v>       0.00781250 </v>
   <v>       0.00781250 </v>
   <v>       0.00781250 </v>
   <v>       0.00781250 </v>
   <v>       0.00781250 </v>
   <v>       0.00781250 </v>
   <v>       0.00781250 </v>
   <v>       0.00781250 </v>
   <v>       0.00781250 </v>
   <v>       0.00781250 </v>
   <v>       0.00781250 </v>
   <v>       0.00781250 </v>
   <v>       0.00781250 </v>
   <v>       0.00781250 </v>
   <v>       0.00781250 </v>
   <v>       0.00781250 </v>
   <v>       0.00781250 </v>
   <v>       0.00781250 </v>
   <v>       0.00781250 </v>
   <v>       0.00781250 </v>
   <v>       0.00781250 </v>
   <v>       0.00781250 </v>
   <v>       0.00781250 </v>
   <v>       0.00781250 </v>
   <v>       0.00781250 </v>
   <v>       0.00781250 </v>
   <v>       0.00781250 </v>
   <v>       0.00781250 </v>
   <v>       0.00781250 </v>
   <v>       0.00781250 </v>
   <v>       0.00781250 </v>
   <v>       0.00781250 </v>
   <v>       0.00781250 </v>
   <v>       0.00781250 </v>
   <v>       0.00781250 </v>
  </varray>
 </kpoints>
 <parameters>
  <separator name="general" >
   <i type="string" name="SYSTEM">Al Random Displacement</i>
   <i type="logical" name="LCOMPAT"> F  </i>
  </separator>
  <separator name="electronic" >
   <i type="string" name="PREC">normal</i>
   <i name="ENMAX">    300.00000000</i>
   <i name="ENAUG">    291.05200000</i>
   <i name="EDIFF">      0.00010000</i>
   <i type="int" name="IALGO">    68</i>
   <i type="int" name="IWAVPR">    10</i>
   <i type="int" name="NBANDS">    64</i>
   <i name="NELECT">     81.00000000</i>
   <i type="int" name="TURBO">     0</i>
   <i type="int" name="IRESTART">     0</i>
   <i type="int" name="NREBOOT">     0</i>
   <i type="int" name="NMIN">     0</i>
   <i name="EREF">      0.00000000</i>
   <separator name="electronic smearing" >
    <i type="int" name="ISMEAR">     1</i>
    <i name="SIGMA">      0.20000000</i>
    <i name="KSPACING">      0.50000000</i>
    <i type="logical" name="KGAMMA"> T  </i>
   </separator>
   <separator name="electronic projectors" >
    <i type="logical" name="LREAL"> T  </i>
    <v name="ROPT">     -0.00050000</v>
    <i type="int" name="LMAXPAW">  -100</i>
    <i type="int" name="LMAXMIX">     2</i>
    <i type="logical" name="NLSPLINE"> F  </i>
   </separator>
   <separator name="electronic startup" >
    <i type="int" name="ISTART">     0</i>
    <i type="int" name="ICHARG">     2</i>
    <i type="int" name="INIWAV">     1</i>
   </separator>
   <separator name="electronic spin" >
    <i type="int" name="ISPIN">     1</i>
    <i type="logical" name="LNONCOLLINEAR"> F  </i>
    <v name="MAGMOM">      1.00000000      1.00000000      1.00000000      1.00000000      1.00000000      1.00000000      1.00000000      1.00000000      1.00000000      1.00000000      1.00000000      1.00000000      1.00000000      1.00000000      1.00000000      1.00000000      1.00000000      1.00000000      1.00000000      1.00000000
      1.00000000      1.00000000      1.00000000      1.00000000      1.00000000      1.00000000      1.00000000</v>
    <i name="NUPDOWN">     -1.00000000</i>
    <i type="logical" name="LSORBIT"> F  </i>
    <v name="SAXIS">      0.00000000      0.00000000      1.00000000</v>
    <i type="logical" name="LSPIRAL"> F  </i>
    <v name="QSPIRAL">      0.00000000      0.00000000      0.00000000</v>
    <i type="logical" name="LZEROZ"> F  </i>
   </separator>
   <separator name="electronic exchange-correlation" >
    <i type="logical" name="LASPH"> F  </i>
    <i type="logical" name="LMETAGGA"> F  </i>
   </separator>
   <separator name="electronic convergence" >
    <i type="int" name="NELM">    60</i>
    <i type="int" name="NELMDL">    -5</i>
    <i type="int" name="NELMIN">     2</i>
    <i name="ENINI">    300.00000000</i>
    <separator name="electronic convergence detail" >
     <i type="logical" name="LDIAG"> T  </i>
     <i type="logical" name="LSUBROT"> F  </i>
     <i name="WEIMIN">      0.00000000</i>
     <i name="EBREAK">      0.00000039</i>
     <i name="DEPER">      0.30000000</i>
     <i type="int" name="NRMM">     4</i>
     <i name="TIME">      0.40000000</i>
    </separator>
   </separator>
   <separator name="electronic mixer" >
    <i name="AMIX">      0.40000000</i>
    <i name="BMIX">      1.00000000</i>
    <i name="AMIN">      0.10000000</i>
    <i name="AMIX_MAG">      1.60000000</i>
    <i name="BMIX_MAG">      1.00000000</i>
    <separator name="electronic mixer details" >
     <i type="int" name="IMIX">     4</i>
     <i type="int" name="MAXMIX">   -45</i>
     <i name="WC">    100.00000000</i>
     <i type="int" name="INIMIX">     1</i>
     <i type="int" name="MIXPRE">     1</i>
     <i type="int" name="MREMOVE">     5</i>
    </separator>
   </separator>
   <separator name="electronic dipolcorrection" >
    <i type="logical" name="LDIPOL"> F  </i>
    <i type="logical" name="LMONO"> F  </i>
    <i type="int" name="IDIPOL">     0</i>
    <i name="EPSILON">      1.00000000</i>
    <v name="DIPOL">   -100.00000000   -100.00000000   -100.00000000</v>
    <i name="EFIELD">      0.00000000</i>
   </separator>
  </separator>
  <separator name="grids" >
   <i type="int" name="NGX">    36</i>
   <i type="int" name="NGY">    36</i>
   <i type="int" name="NGZ">    36</i>
   <i type="int" name="NGXF">    72</i>
   <i type="int" name="NGYF">    72</i>
   <i type="int" name="NGZF">    72</i>
   <i type="logical" name="ADDGRID"> F  </i>
  </separator>
  <separator name="ionic" >
   <i type="int" name="NSW">     0</i>
   <i type="int" name="IBRION">    -1</i>
   <i type="int" name="ISIF">     2</i>
   <i name="PSTRESS">      0.00000000</i>
   <i name="EDIFFG">      0.00100000</i>
   <i type="int" name="NFREE">     0</i>
   <i name="POTIM">      0.50000000</i>
   <i name="SMASS">     -3.00000000</i>
   <i name="SCALEE">      1.00000000</i>
  </separator>
  <separator name="ionic md" >
   <i name="TEBEG">      0.00010000</i>
   <i name="TEEND">      0.00010000</i>
   <i type="int" name="NBLOCK">     1</i>
   <i type="int" name="KBLOCK">     1</i>
   <i type="int" name="NPACO">   256</i>
   <i name="APACO">     16.00000000</i>
  </separator>
  <separator name="symmetry" >
   <i type="int" name="ISYM">     2</i>
   <i name="SYMPREC">      0.00001000</i>
  </separator>
  <separator name="dos" >
   <i type="logical" name="LORBIT"> F  </i>
   <v name="RWIGS">     -1.00000000</v>
   <i type="int" name="NEDOS">   301</i>
   <i name="EMIN">     10.00000000</i>
   <i name="EMAX">    -10.00000000</i>
   <i name="EFERMI">      0.00000000</i>
  </separator>
  <separator name="writing" >
   <i type="int" name="NWRITE">     2</i>
   <i type="logical" name="LWAVE"> F  </i>
   <i type="logical" name="LCHARG"> F  </i>
   <i type="logical" name="LPARD"> F  </i>
   <i type="logical" name="LVTOT"> F  </i>
   <i type="logical" name="LVHAR"> F  </i>
   <i type="logical" name="LELF"> F  </i>
   <i type="logical" name="LOPTICS"> F  </i>
   <v name="STM">      0.00000000      0.00000000      0.00000000      0.00000000      0.00000000      0.00000000      0.00000000</v>
  </separator>
  <separator name="performance" >
   <i type="int" name="NPAR">    16</i>
   <i type="int" name="NSIM">     4</i>
   <i type="int" name="NBLK">    -1</i>
   <i type="logical" name="LPLANE"> T  </i>
   <i type="logical" name="LSCALAPACK"> F  </i>
   <i type="logical" name="LSCAAWARE"> F  </i>
   <i type="logical" name="LSCALU"> F  </i>
   <i type="logical" name="LASYNC"> F  </i>
   <i type="logical" name="LORBITALREAL"> F  </i>
  </separator>
  <separator name="miscellaneous" >
   <i type="int" name="IDIOT">     3</i>
   <i type="logical" name="LMUSIC"> F  </i>
   <v name="POMASS">     26.98100000</v>
   <v name="DARWINR">      0.00000000</v>
   <v name="DARWINV">      1.00000000</v>
   <i type="logical" name="LCORR"> T  </i>
  </separator>
  <i type="logical" name="GGA_COMPAT"> T  </i>
  <i type="logical" name="LBERRY"> F  </i>
  <i type="int" name="ICORELEVEL">     0</i>
  <i type="logical" name="LDAU"> F  </i>
  <i type="int" name="I_CONSTRAINED_M">     0</i>
  <separator name="electronic exchange-correlation" >
   <i type="string" name="GGA">--</i>
   <i type="int" name="VOSKOWN">     0</i>
   <i type="logical" name="LHFCALC"> F  </i>
   <i type="string" name="PRECFOCK"></i>
   <i type="logical" name="LSYMGRAD"> F  </i>
   <i type="logical" name="LHFONE"> F  </i>
   <i type="logical" name="LRHFCALC"> F  </i>
   <i type="logical" name="LTHOMAS"> F  </i>
   <i type="logical" name="LMODELHF"> F  </i>
   <i name="ENCUT4O">     -1.00000000</i>
   <i type="int" name="EXXOEP">     0</i>
   <i type="int" name="FOURORBIT">     0</i>
   <i name="AEXX">      0.00000000</i>
   <i name="HFALPHA">      0.00000000</i>
   <i name="MCALPHA">      0.00000000</i>
   <i name="ALDAX">      1.00000000</i>
   <i name="AGGAX">      1.00000000</i>
   <i name="ALDAC">      1.00000000</i>
   <i name="AGGAC">      1.00000000</i>
   <i type="int" name="NKREDX">     1</i>
   <i type="int" name="NKREDY">     1</i>
   <i type="int" name="NKREDZ">     1</i>
   <i type="logical" name="SHIFTRED"> F  </i>
   <i type="logical" name="ODDONLY"> F  </i>
   <i type="logical" name="EVENONLY"> F  </i>
   <i type="int" name="LMAXFOCK">     0</i>
   <i type="int" name="NMAXFOCKAE">     0</i>
   <i type="logical" name="LFOCKAEDFT"> F  </i>
   <i name="HFSCREEN">      0.00000000</i>
   <i name="HFSCREENC">      0.00000000</i>
   <i type="int" name="NBANDSGWLOW">     0</i>
  </separator>
  <separator name="vdW DFT" >
   <i type="logical" name="LUSE_VDW"> F  </i>
   <i name="Zab_VDW">     -0.84910000</i>
   <i name="PARAM1">      0.12340000</i>
   <i name="PARAM2">      1.00000000</i>
   <i name="PARAM3">      0.00000000</i>
  </separator>
  <separator name="model GW" >
   <i type="int" name="MODEL_GW">     0</i>
   <i name="MODEL_EPS0">      8.54332926</i>
   <i name="MODEL_ALPHA">      1.00000000</i>
  </separator>
  <separator name="linear response parameters" >
   <i type="logical" name="LEPSILON"> F  </i>
   <i type="logical" name="LRPA"> F  </i>
   <i type="logical" name="LNABLA"> F  </i>
   <i type="logical" name="LVEL"> F  </i>
   <i type="int" name="KINTER">     0</i>
   <i name="CSHIFT">      0.10000000</i>
   <i name="OMEGAMAX">     -1.00000000</i>
   <i name="DEG_THRESHOLD">      0.00200000</i>
  </separator>
  <separator name="orbital magnetization" >
   <i type="logical" name="NUCIND"> F  </i>
   <v name="MAGPOS">      0.00000000      0.00000000      0.00000000</v>
   <i type="logical" name="LNICSALL"> T  </i>
   <i type="logical" name="ORBITALMAG"> F  </i>
   <i type="logical" name="LMAGBLOCH"> F  </i>
   <i type="logical" name="LCHIMAG"> F  </i>
   <i type="logical" name="LGAUGE"> T  </i>
   <i type="int" name="MAGATOM">     0</i>
   <v name="MAGDIPOL">      0.00000000      0.00000000      0.00000000</v>
   <v name="AVECCONST">      0.00000000      0.00000000      0.00000000</v>
  </separator>
  <separator name="response functions" >
   <i type="logical" name="LADDER"> F  </i>
   <i type="logical" name="LFXC"> F  </i>
   <i type="logical" name="LHARTREE"> T  </i>
   <i type="int" name="IBSE">     0</i>
   <i type="logical" name="LTCTE"> F  </i>
   <i type="logical" name="LTETE"> F  </i>
   <i type="logical" name="LTRIPLET"> F  </i>
   <i type="logical" name="LFXCEPS"> F  </i>
   <i type="logical" name="LFXHEG"> F  </i>
   <i type="logical" name="L2ORDER"> F  </i>
   <i type="logical" name="LUSEW"> F  </i>
   <i name="ENCUTGW">     -2.00000000</i>
   <i name="ENCUTGWSOFT">     -2.00000000</i>
   <i name="ENCUTLF">     -1.00000000</i>
   <i type="int" name="LMAXMP2">    -1</i>
   <i name="SCISSOR">      0.00000000</i>
   <i type="int" name="NOMEGA">     0</i>
   <i type="int" name="NOMEGAR">     0</i>
   <i type="int" name="NBANDSGW">    -1</i>
   <i type="int" name="NBANDSO">    -1</i>
   <i type="int" name="NBANDSV">    -1</i>
   <i type="int" name="NELM">     1</i>
   <i type="int" name="DIM">     3</i>
   <i type="int" name="ANTIRES">     0</i>
   <i name="OMEGAMAX">    -30.00000000</i>
   <i name="OMEGAMIN">    -30.00000000</i>
   <i name="OMEGATL">   -200.00000000</i>
   <i type="int" name="OMEGAGRID">     0</i>
   <i name="CSHIFT">     -0.10000000</i>
   <i type="logical" name="SELFENERGY"> F  </i>
   <i type="logical" name="LSPECTRAL"> F  </i>
   <i type="logical" name="ODDONLYGW"> F  </i>
   <i type="logical" name="EVENONLYGW"> F  </i>
   <i type="int" name="NKREDLFX">     1</i>
   <i type="int" name="NKREDLFY">     1</i>
   <i type="int" name="NKREDLFZ">     1</i>
   <i type="int" name="MAXMEM">  1800</i>
   <i type="int" name="TELESCOPE">     0</i>
   <i type="int" name="TAUPAR">     1</i>
  </separator>
  <separator name="External order field" >
   <i name="OFIELD_KAPPA">      0.00000000</i>
   <v name="OFIELD_K">      0.00000000      0.00000000      0.00000000</v>
   <i name="OFIELD_Q6_NEAR">      0.00000000</i>
   <i name="OFIELD_Q6_FAR">      0.00000000</i>
   <i name="OFIELD_A">      0.00000000</i>
  </separator>
 </parameters>
 <atominfo>
  <atoms>      27 </atoms>
  <types>       1 </types>
  <array name="atoms" >
   <dimension dim="1">ion</dimension>
   <field type="string">element</field>
   <field type="int">atomtype</field>
   <set>
    <rc><c>Al</c><c>   1</c></rc>
    <rc><c>Al</c><c>   1</c></rc>
    <rc><c>Al</c><c>   1</c></rc>
    <rc><c>Al</c><c>   1</c></rc>
    <rc><c>Al</c><c>   1</c></rc>
    <rc><c>Al</c><c>   1</c></rc>
    <rc><c>Al</c><c>   1</c></rc>
    <rc><c>Al</c><c>   1</c></rc>
    <rc><c>Al</c><c>   1</c></rc>
    <rc><c>Al</c><c>   1</c></rc>
    <rc><c>Al</c><c>   1</c></rc>
    <rc><c>Al</c><c>   1</c></rc>
    <rc><c>Al</c><c>   1</c></rc>
    <rc><c>Al</c><c>   1</c></rc>
    <rc><c>Al</c><c>   1</c></rc>
    <rc><c>Al</c><c>   1</c></rc>
    <rc><c>Al</c><c>   1</c></rc>
    <rc><c>Al</c><c>   1</c></rc>
    <rc><c>Al</c><c>   1</c></rc>
    <rc><c>Al</c><c>   1</c></rc>
    <rc><c>Al</c><c>   1</c></rc>
    <rc><c>Al</c><c>   1</c></rc>
    <rc><c>Al</c><c>   1</c></rc>
    <rc><c>Al</c><c>   1</c></rc>
    <rc><c>Al</c><c>   1</c></rc>
    <rc><c>Al</c><c>   1</c></rc>
    <rc><c>Al</c><c>   1</c></rc>
   </set>
  </array>
  <array name="atomtypes" >
   <dimension dim="1">type</dimension>
   <field type="int">atomspertype</field>
   <field type="string">element</field>
   <field>mass</field>
   <field>valence</field>
   <field type="string">pseudopotential</field>
   <set>
    <rc><c>  27</c><c>Al</c><c>     26.98100000</c><c>      3.00000000</c><c>  PAW_PBE Al 04Jan2001                  </c></rc>
   </set>
  </array>
 </atominfo>
 <structure name="initialpos" >
  <crystal>
   <varray name="basis" >
    <v>       0.00000000       5.77125000       5.77125000 </v>
    <v>       5.77125000       0.00000000       5.77125000 </v>
    <v>       5.77125000       5.77125000       0.00000000 </v>
   </varray>
   <i name="volume">    384.44981685 </i>
   <varray name="rec_basis" >
    <v>      -0.08663634       0.08663634       0.08663634 </v>
    <v>       0.08663634      -0.08663634       0.08663634 </v>
    <v>       0.08663634       0.08663634      -0.08663634 </v>
   </varray>
  </crystal>
  <varray name="positions" >
   <v>       0.02462078       0.00949487       0.00962395 </v>
   <v>       0.97013745       0.98162997       0.36989325 </v>
   <v>       0.98682227       0.01461429       0.69996196 </v>
   <v>       0.96435541       0.36716996       0.98896624 </v>
   <v>       0.01018179       0.37107095       0.31299142 </v>
   <v>       0.03681312       0.33909603       0.65965013 </v>
   <v>       0.97313313       0.64248791       0.03233599 </v>
   <v>       0.98433123       0.63860283       0.37407752 </v>
   <v>       0.01394820       0.69727186       0.62738444 </v>
   <v>       0.29420722       0.99458986       0.03093551 </v>
   <v>       0.35456401       0.00476599       0.35108186 </v>
   <v>       0.37350545       0.98621092       0.63688994 </v>
   <v>       0.32444905       0.34990785       0.03020553 </v>
   <v>       0.30584313       0.36456654       0.35341495 </v>
   <v>       0.31405054       0.36123794       0.68987346 </v>
   <v>       0.36562501       0.68328238       0.96586883 </v>
   <v>       0.37334253       0.65967417       0.33275336 </v>
   <v>       0.34343178       0.62219397       0.68782331 </v>
   <v>       0.69833488       0.99996614       0.95969951 </v>
   <v>       0.69747671       0.98685835       0.29781524 </v>
   <v>       0.65866061       0.02810914       0.68530153 </v>
   <v>       0.66839430       0.31234506       0.97743459 </v>
   <v>       0.70752279       0.32880398       0.32844688 </v>
   <v>       0.65626220       0.33986551       0.63293989 </v>
   <v>       0.67127359       0.68964228       0.01597959 </v>
   <v>       0.65143410       0.63262550       0.35099429 </v>
   <v>       0.66469172       0.70943028       0.64193510 </v>
  </varray>
 </structure>
 <calculation>
  <scstep>
   <time name="dav">    7.27    7.27</time>
   <time name="total">    7.29    7.31</time>
   <energy>
    <i name="alphaZ">     -6.36903000 </i>
    <i name="ewald">  -2045.29722426 </i>
    <i name="hartreedc">    -14.86352878 </i>
    <i name="XCdc">   -700.76497620 </i>
    <i name="pawpsdc">   1787.40424240 </i>
    <i name="pawaedc">   -924.63176043 </i>
    <i name="eentropy">     -0.00040116 </i>
    <i name="bandstr">    529.19729326 </i>
    <i name="atom">   1445.51584806 </i>
    <i name="e_fr_energy">     70.19046288 </i>
    <i name="e_wo_entrp">     70.19086405 </i>
    <i name="e_0_energy">     70.19059661 </i>
   </energy>
  </scstep>
  <scstep>
   <time name="dav">    8.66    8.67</time>
   <time name="total">    8.67    8.69</time>
   <energy>
    <i name="e_fr_energy">    -84.21241244 </i>
    <i name="e_wo_entrp">    -84.20854751 </i>
    <i name="e_0_energy">    -84.21112413 </i>
   </energy>
  </scstep>
  <scstep>
   <time name="dav">    9.09    9.09</time>
   <time name="total">    9.09    9.11</time>
   <energy>
    <i name="e_fr_energy">    -90.36097642 </i>
    <i name="e_wo_entrp">    -90.35359606 </i>
    <i name="e_0_energy">    -90.35851630 </i>
   </energy>
  </scstep>
  <scstep>
   <time name="dav">    8.49    8.50</time>
   <time name="total">    8.49    8.51</time>
   <energy>
    <i name="e_fr_energy">    -90.41915803 </i>
    <i name="e_wo_entrp">    -90.41162136 </i>
    <i name="e_0_energy">    -90.41664580 </i>
   </energy>
  </scstep>
  <scstep>
   <time name="dav">    8.95    8.96</time>
   <time name="total">    9.28    9.30</time>
   <energy>
    <i name="e_fr_energy">    -90.41978724 </i>
    <i name="e_wo_entrp">    -90.41224860 </i>
    <i name="e_0_energy">    -90.41727436 </i>
   </energy>
  </scstep>
  <scstep>
   <time name="diag">    1.13    1.13</time>
   <time name="diis">    3.62    3.62</time>
   <time name="orth">    0.18    0.18</time>
   <time name="total">    5.26    5.28</time>
   <energy>
    <i name="e_fr_energy">    -88.19445573 </i>
    <i name="e_wo_entrp">    -88.18200396 </i>
    <i name="e_0_energy">    -88.19030514 </i>
   </energy>
  </scstep>
  <scstep>
   <time name="diag">    1.13    1.13</time>
   <time name="diis">    4.08    4.08</time>
   <time name="orth">    0.18    0.18</time>
   <time name="total">    5.73    5.75</time>
   <energy>
    <i name="e_fr_energy">    -87.80348748 </i>
    <i name="e_wo_entrp">    -87.79183086 </i>
    <i name="e_0_energy">    -87.79960194 </i>
   </energy>
  </scstep>
  <scstep>
   <time name="diag">    1.13    1.13</time>
   <time name="diis">    4.37    4.38</time>
   <time name="orth">    0.18    0.18</time>
   <time name="total">    6.02    6.04</time>
   <energy>
    <i name="e_fr_energy">    -87.71987556 </i>
    <i name="e_wo_entrp">    -87.70811408 </i>
    <i name="e_0_energy">    -87.71595506 </i>
   </energy>
  </scstep>
  <scstep>
   <time name="diag">    1.13    1.13</time>
   <time name="diis">    4.32    4.32</time>
   <time name="orth">    0.18    0.18</time>
   <time name="total">    5.96    5.98</time>
   <energy>
    <i name="e_fr_energy">    -87.71007078 </i>
    <i name="e_wo_entrp">    -87.69834012 </i>
    <i name="e_0_energy">    -87.70616056 </i>
   </energy>
  </scstep>
  <scstep>
   <time name="diag">    1.13    1.13</time>
   <time name="diis">    4.39    4.39</time>
   <time name="orth">    0.18    0.18</time>
   <time name="total">    6.03    6.05</time>
   <energy>
    <i name="e_fr_energy">    -87.70935744 </i>
    <i name="e_wo_entrp">    -87.69765220 </i>
    <i name="e_0_energy">    -87.70545569 </i>
   </energy>
  </scstep>
  <scstep>
   <time name="diag">    1.13    1.13</time>
   <time name="diis">    3.34    3.34</time>
   <time name="orth">    0.18    0.18</time>
   <time name="total">    4.67    4.69</time>
   <energy>
    <i name="alphaZ">     -6.36903000 </i>
    <i name="ewald">  -2045.29722426 </i>
    <i name="hartreedc">    -24.13649324 </i>
    <i name="XCdc">   -696.35703414 </i>
    <i name="pawpsdc">   6206.43569066 </i>
    <i name="pawaedc">  -5345.55239289 </i>
    <i name="eentropy">     -0.01172252 </i>
    <i name="bandstr">    378.06309904 </i>
    <i name="atom">   1445.51584806 </i>
    <i name="e_fr_energy">    -87.70925929 </i>
    <i name="e_wo_entrp">    -87.69753677 </i>
    <i name="e_0_energy">    -87.70535178 </i>
   </energy>
  </scstep>
  <structure>
   <crystal>
    <varray name="basis" >
     <v>       0.00000000       5.77125000       5.77125000 </v>
     <v>       5.77125000       0.00000000       5.77125000 </v>
     <v>       5.77125000       5.77125000       0.00000000 </v>
    </varray>
    <i name="volume">    384.44981685 </i>
    <varray name="rec_basis" >
     <v>      -0.08663634       0.08663634       0.08663634 </v>
     <v>       0.08663634      -0.08663634       0.08663634 </v>
     <v>       0.08663634       0.08663634      -0.08663634 </v>
    </varray>
   </crystal>
   <varray name="positions" >
    <v>       0.02462078       0.00949487       0.00962395 </v>
    <v>       0.97013745       0.98162997       0.36989325 </v>
    <v>       0.98682227       0.01461429       0.69996196 </v>
    <v>       0.96435541       0.36716996       0.98896624 </v>
    <v>       0.01018179       0.37107095       0.31299142 </v>
    <v>       0.03681312       0.33909603       0.65965013 </v>
    <v>       0.97313313       0.64248791       0.03233599 </v>
    <v>       0.98433123       0.63860283       0.37407752 </v>
    <v>       0.01394820       0.69727186       0.62738444 </v>
    <v>       0.29420722       0.99458986       0.03093551 </v>
    <v>       0.35456401       0.00476599       0.35108186 </v>
    <v>       0.37350545       0.98621092       0.63688994 </v>
    <v>       0.32444905       0.34990785       0.03020553 </v>
    <v>       0.30584313       0.36456654       0.35341495 </v>
    <v>       0.31405054       0.36123794       0.68987346 </v>
    <v>       0.36562501       0.68328238       0.96586883 </v>
    <v>       0.37334253       0.65967417       0.33275336 </v>
    <v>       0.34343178       0.62219397       0.68782331 </v>
    <v>       0.69833488       0.99996614       0.95969951 </v>
    <v>       0.69747671       0.98685835       0.29781524 </v>
    <v>       0.65866061       0.02810914       0.68530153 </v>
    <v>       0.66839430       0.31234506       0.97743459 </v>
    <v>       0.70752279       0.32880398       0.32844688 </v>
    <v>       0.65626220       0.33986551       0.63293989 </v>
    <v>       0.67127359       0.68964228       0.01597959 </v>
    <v>       0.65143410       0.63262550       0.35099429 </v>
    <v>       0.66469172       0.70943028       0.64193510 </v>
   </varray>
  </structure>
  <varray name="forces" >
   <v>      -1.12294905      -2.26444215      -2.12904160 </v>
   <v>      -0.18828023      -1.09158726       3.04674698 </v>
   <v>      -2.59574242       0.35397593       2.53594271 </v>
   <v>      -1.08561222       0.80670863       0.08671988 </v>
   <v>      -1.13617772       2.36382422      -3.60497515 </v>
   <v>       0.71952608      -0.10997903      -2.87323202 </v>
   <v>       0.25587249      -0.53274257       4.09615206 </v>
   <v>       0.25581009      -2.12879836       2.53540797 </v>
   <v>       1.22664457       2.91071959      -2.01466550 </v>
   <v>       0.63277845       2.20525249       3.23596154 </v>
   <v>      -1.35568410      -2.29245680      -0.94285605 </v>
   <v>       3.21229913      -0.50720924      -0.01190933 </v>
   <v>      -1.49741847      -0.24019184      -0.55196674 </v>
   <v>      -2.24539232       1.47961555       2.05287676 </v>
   <v>      -2.34587757       0.47947801      -2.29650846 </v>
   <v>       0.54290001       0.65343107      -1.30654367 </v>
   <v>       0.47540412      -2.77041539      -2.23742061 </v>
   <v>       3.25079525      -0.99729429       2.50920401 </v>
   <v>       3.76963771       1.29151350      -2.09050766 </v>
   <v>       0.72051524      -0.53357748      -0.13505285 </v>
   <v>      -2.27122439      -1.71893573      -1.97345760 </v>
   <v>       0.98872265       0.34329991       1.60088554 </v>
   <v>      -1.88249715      -1.96017303      -2.14017710 </v>
   <v>       1.89641288       3.40817512       0.69951619 </v>
   <v>      -1.59229448      -2.61336328      -1.26718290 </v>
   <v>       2.33254725       1.22544663       4.17811917 </v>
   <v>      -0.96071581       2.23972583      -1.00203558 </v>
  </varray>
  <varray name="stress" >
   <v>     254.10475688       9.24325211      -1.85514306 </v>
   <v>       9.24325190     279.04495551       5.56634318 </v>
   <v>      -1.85514300       5.56634302     274.48087311 </v>
  </varray>
  <energy>
   <i name="e_fr_energy">    -87.70925929 </i>
   <i name="e_wo_entrp">    -87.70535178 </i>
   <i name="e_0_energy">     -0.01172252 </i>
  </energy>
  <time name="totalsc">   84.97   85.24</time>
  <eigenvalues>
   <array>
    <dimension dim="1">band</dimension>
    <dimension dim="2">kpoint</dimension>
    <dimension dim="3">spin</dimension>
    <field>eigene</field>
    <field>occ</field>
    <set>
     <set comment="spin 1">
      <set comment="kpoint 1">
       <r>   -2.7052    1.0000 </r>
       <r>   -0.4534    1.0000 </r>
       <r>   -0.0359    1.0000 </r>
       <r>    0.2072    1.0000 </r>
       <r>    0.3614    1.0000 </r>
       <r>    0.6219    1.0000 </r>
       <r>    0.7741    1.0000 </r>
       <r>    0.9494    1.0000 </r>
       <r>    1.1120    1.0000 </r>
       <r>    1.3498    1.0000 </r>
       <r>    1.5308    1.0000 </r>
       <r>    1.8274    1.0000 </r>
       <r>    2.0390    1.0000 </r>
       <r>    2.5078    1.0000 </r>
       <r>    2.7784    1.0000 </r>
       <r>    4.5513    1.0000 </r>
       <r>    4.7566    1.0000 </r>
       <r>    5.0641    1.0000 </r>
       <r>    5.5284    1.0000 </r>
       <r>    5.6373    1.0000 </r>
       <r>    5.7383    1.0000 </r>
       <r>    5.9065    1.0000 </r>
       <r>    6.0538    1.0000 </r>
       <r>    6.2205    1.0000 </r>
       <r>    6.7013    1.0000 </r>
       <r>    6.9061    1.0000 </r>
       <r>    7.1891    1.0000 </r>
       <r>    7.2911    1.0000 </r>
       <r>    7.4572    1.0000 </r>
       <r>    7.5062    1.0000 </r>
       <r>    7.6582    1.0000 </r>
       <r>    7.8215    1.0000 </r>
       <r>    8.0966    1.0000 </r>
       <r>    8.1666    1.0000 </r>
       <r>    8.2901    1.0000 </r>
       <r>    8.4660    1.0000 </r>
       <r>    8.5362    1.0000 </r>
       <r>    8.7628    1.0000 </r>
       <r>    8.7963    1.0000 </r>
       <r>    8.9624    1.0001 </r>
       <r>    9.3631    1.0274 </r>
       <r>    9.5588    0.5382 </r>
       <r>    9.6880    0.0797 </r>
       <r>    9.7611   -0.0213 </r>
       <r>    9.7890   -0.0329 </r>
       <r>   10.0688   -0.0011 </r>
       <r>   10.2057   -0.0000 </r>
       <r>   10.2509   -0.0000 </r>
       <r>   10.3009   -0.0000 </r>
       <r>   10.3850   -0.0000 </r>
       <r>   10.5609   -0.0000 </r>
       <r>   10.7080   -0.0000 </r>
       <r>   10.7293   -0.0000 </r>
       <r>   10.8422   -0.0000 </r>
       <r>   10.9851   -0.0000 </r>
       <r>   11.1221   -0.0000 </r>
       <r>   11.1496   -0.0000 </r>
       <r>   11.3328   -0.0000 </r>
       <r>   11.8486   -0.0000 </r>
       <r>   13.0952   -0.0000 </r>
       <r>   13.2636   -0.0000 </r>
       <r>   13.4452   -0.0000 </r>
       <r>   14.4747   -0.0000 </r>
       <r>   14.6556   -0.0000 </r>
      </set>
      <set comment="kpoint 2">
       <r>   -2.7048    1.0000 </r>
       <r>   -0.4285    1.0000 </r>
       <r>   -0.0988    1.0000 </r>
       <r>    0.1757    1.0000 </r>
       <r>    0.4143    1.0000 </r>
       <r>    0.6249    1.0000 </r>
       <r>    0.7915    1.0000 </r>
       <r>    0.9878    1.0000 </r>
       <r>    1.1716    1.0000 </r>
       <r>    1.2721    1.0000 </r>
       <r>    1.4962    1.0000 </r>
       <r>    1.7790    1.0000 </r>
       <r>    2.1516    1.0000 </r>
       <r>    2.4385    1.0000 </r>
       <r>    2.7996    1.0000 </r>
       <r>    4.4833    1.0000 </r>
       <r>    4.7888    1.0000 </r>
       <r>    5.0673    1.0000 </r>
       <r>    5.4985    1.0000 </r>
       <r>    5.6001    1.0000 </r>
       <r>    5.8020    1.0000 </r>
       <r>    6.0362    1.0000 </r>
       <r>    6.0605    1.0000 </r>
       <r>    6.2125    1.0000 </r>
       <r>    6.5944    1.0000 </r>
       <r>    6.9100    1.0000 </r>
       <r>    7.1730    1.0000 </r>
       <r>    7.2186    1.0000 </r>
       <r>    7.3741    1.0000 </r>
       <r>    7.5809    1.0000 </r>
       <r>    7.7441    1.0000 </r>
       <r>    7.9338    1.0000 </r>
       <r>    8.1062    1.0000 </r>
       <r>    8.1500    1.0000 </r>
       <r>    8.2833    1.0000 </r>
       <r>    8.3563    1.0000 </r>
       <r>    8.5611    1.0000 </r>
       <r>    8.6479    1.0000 </r>
       <r>    8.8614    1.0000 </r>
       <r>    8.9903    1.0002 </r>
       <r>    9.3970    1.0027 </r>
       <r>    9.5680    0.4994 </r>
       <r>    9.7331    0.0035 </r>
       <r>    9.8033   -0.0351 </r>
       <r>    9.9387   -0.0124 </r>
       <r>    9.9941   -0.0051 </r>
       <r>   10.0187   -0.0032 </r>
       <r>   10.2153   -0.0000 </r>
       <r>   10.2991   -0.0000 </r>
       <r>   10.4701   -0.0000 </r>
       <r>   10.5383   -0.0000 </r>
       <r>   10.6348   -0.0000 </r>
       <r>   10.7386   -0.0000 </r>
       <r>   10.8253   -0.0000 </r>
       <r>   10.9377   -0.0000 </r>
       <r>   11.0738   -0.0000 </r>
       <r>   11.3046   -0.0000 </r>
       <r>   11.3799   -0.0000 </r>
       <r>   11.8059   -0.0000 </r>
       <r>   13.1602   -0.0000 </r>
       <r>   13.1942   -0.0000 </r>
       <r>   13.3898   -0.0000 </r>
       <r>   14.5033   -0.0000 </r>
       <r>   14.7084   -0.0000 </r>
      </set>
      <set comment="kpoint 3">
       <r>   -2.7044    1.0000 </r>
       <r>   -0.3812    1.0000 </r>
       <r>   -0.1341    1.0000 </r>
       <r>    0.0799    1.0000 </r>
       <r>    0.4953    1.0000 </r>
       <r>    0.6435    1.0000 </r>
       <r>    0.7000    1.0000 </r>
       <r>    1.0150    1.0000 </r>
       <r>    1.1815    1.0000 </r>
       <r>    1.2700    1.0000 </r>
       <r>    1.6686    1.0000 </r>
       <r>    1.8446    1.0000 </r>
       <r>    2.0773    1.0000 </r>
       <r>    2.2096    1.0000 </r>
       <r>    2.9058    1.0000 </r>
       <r>    4.4999    1.0000 </r>
       <r>    4.7231    1.0000 </r>
       <r>    5.2883    1.0000 </r>
       <r>    5.3681    1.0000 </r>
       <r>    5.4821    1.0000 </r>
       <r>    5.6404    1.0000 </r>
       <r>    6.1075    1.0000 </r>
       <r>    6.3161    1.0000 </r>
       <r>    6.4000    1.0000 </r>
       <r>    6.4901    1.0000 </r>
       <r>    6.6584    1.0000 </r>
       <r>    7.1142    1.0000 </r>
       <r>    7.2991    1.0000 </r>
       <r>    7.3991    1.0000 </r>
       <r>    7.5635    1.0000 </r>
       <r>    7.7240    1.0000 </r>
       <r>    7.7944    1.0000 </r>
       <r>    8.0685    1.0000 </r>
       <r>    8.2356    1.0000 </r>
       <r>    8.3455    1.0000 </r>
       <r>    8.4369    1.0000 </r>
       <r>    8.5630    1.0000 </r>
       <r>    8.8029    1.0000 </r>
       <r>    8.8940    1.0000 </r>
       <r>    9.0650    1.0011 </r>
       <r>    9.3967    1.0029 </r>
       <r>    9.4871    0.8127 </r>
       <r>    9.5861    0.4232 </r>
       <r>    9.8428   -0.0327 </r>
       <r>    9.9355   -0.0130 </r>
       <r>   10.0142   -0.0035 </r>
       <r>   10.1044   -0.0005 </r>
       <r>   10.1710   -0.0001 </r>
       <r>   10.2946   -0.0000 </r>
       <r>   10.3471   -0.0000 </r>
       <r>   10.5695   -0.0000 </r>
       <r>   10.6417   -0.0000 </r>
       <r>   10.7262   -0.0000 </r>
       <r>   10.8098   -0.0000 </r>
       <r>   10.8559   -0.0000 </r>
       <r>   10.9836   -0.0000 </r>
       <r>   11.3046   -0.0000 </r>
       <r>   11.5081   -0.0000 </r>
       <r>   11.8518   -0.0000 </r>
       <r>   13.0249   -0.0000 </r>
       <r>   13.2424   -0.0000 </r>
       <r>   13.4950   -0.0000 </r>
       <r>   14.4410   -0.0000 </r>
       <r>   14.6748   -0.0000 </r>
      </set>
      <set comment="kpoint 4">
       <r>   -2.7055    1.0000 </r>
       <r>   -0.3982    1.0000 </r>
       <r>   -0.1229    1.0000 </r>
       <r>    0.1818    1.0000 </r>
       <r>    0.4162    1.0000 </r>
       <r>    0.6082    1.0000 </r>
       <r>    0.7007    1.0000 </r>
       <r>    1.0423    1.0000 </r>
       <r>    1.1781    1.0000 </r>
       <r>    1.3247    1.0000 </r>
       <r>    1.5762    1.0000 </r>
       <r>    1.6882    1.0000 </r>
       <r>    2.1047    1.0000 </r>
       <r>    2.4869    1.0000 </r>
       <r>    2.7833    1.0000 </r>
       <r>    4.5180    1.0000 </r>
       <r>    4.7885    1.0000 </r>
       <r>    5.1074    1.0000 </r>
       <r>    5.5068    1.0000 </r>
       <r>    5.5353    1.0000 </r>
       <r>    5.7633    1.0000 </r>
       <r>    5.9516    1.0000 </r>
       <r>    6.0799    1.0000 </r>
       <r>    6.2857    1.0000 </r>
       <r>    6.5987    1.0000 </r>
       <r>    6.8989    1.0000 </r>
       <r>    7.1663    1.0000 </r>
       <r>    7.2485    1.0000 </r>
       <r>    7.4593    1.0000 </r>
       <r>    7.6113    1.0000 </r>
       <r>    7.6642    1.0000 </r>
       <r>    7.8282    1.0000 </r>
       <r>    8.0328    1.0000 </r>
       <r>    8.1636    1.0000 </r>
       <r>    8.2814    1.0000 </r>
       <r>    8.4032    1.0000 </r>
       <r>    8.5898    1.0000 </r>
       <r>    8.7562    1.0000 </r>
       <r>    8.8823    1.0000 </r>
       <r>    8.9841    1.0001 </r>
       <r>    9.3979    1.0017 </r>
       <r>    9.5838    0.4329 </r>
       <r>    9.7188    0.0225 </r>
       <r>    9.7614   -0.0215 </r>
       <r>    9.9057   -0.0190 </r>
       <r>    9.9834   -0.0062 </r>
       <r>   10.0887   -0.0007 </r>
       <r>   10.1866   -0.0001 </r>
       <r>   10.3256   -0.0000 </r>
       <r>   10.4148   -0.0000 </r>
       <r>   10.5252   -0.0000 </r>
       <r>   10.5952   -0.0000 </r>
       <r>   10.7143   -0.0000 </r>
       <r>   10.8408   -0.0000 </r>
       <r>   10.9536   -0.0000 </r>
       <r>   11.1285   -0.0000 </r>
       <r>   11.2009   -0.0000 </r>
       <r>   11.4331   -0.0000 </r>
       <r>   11.8683   -0.0000 </r>
       <r>   13.0539   -0.0000 </r>
       <r>   13.2593   -0.0000 </r>
       <r>   13.4526   -0.0000 </r>
       <r>   14.4826   -0.0000 </r>
       <r>   14.6378   -0.0000 </r>
      </set>
      <set comment="kpoint 5">
       <r>   -2.4450    1.0000 </r>
       <r>   -1.1390    1.0000 </r>
       <r>   -0.5555    1.0000 </r>
       <r>    0.0675    1.0000 </r>
       <r>    0.3677    1.0000 </r>
       <r>    0.4285    1.0000 </r>
       <r>    0.8225    1.0000 </r>
       <r>    1.0844    1.0000 </r>
       <r>    1.3327    1.0000 </r>
       <r>    1.5345    1.0000 </r>
       <r>    2.1608    1.0000 </r>
       <r>    2.5967    1.0000 </r>
       <r>    2.9231    1.0000 </r>
       <r>    3.0423    1.0000 </r>
       <r>    3.5756    1.0000 </r>
       <r>    3.7951    1.0000 </r>
       <r>    4.0064    1.0000 </r>
       <r>    4.2736    1.0000 </r>
       <r>    4.9244    1.0000 </r>
       <r>    5.2842    1.0000 </r>
       <r>    5.5402    1.0000 </r>
       <r>    5.7910    1.0000 </r>
       <r>    6.0211    1.0000 </r>
       <r>    6.1780    1.0000 </r>
       <r>    6.3811    1.0000 </r>
       <r>    6.6382    1.0000 </r>
       <r>    6.7255    1.0000 </r>
       <r>    6.8169    1.0000 </r>
       <r>    7.1392    1.0000 </r>
       <r>    7.3229    1.0000 </r>
       <r>    7.5476    1.0000 </r>
       <r>    7.6425    1.0000 </r>
       <r>    7.7902    1.0000 </r>
       <r>    7.8913    1.0000 </r>
       <r>    8.0666    1.0000 </r>
       <r>    8.2282    1.0000 </r>
       <r>    8.3644    1.0000 </r>
       <r>    8.4626    1.0000 </r>
       <r>    8.6442    1.0000 </r>
       <r>    8.8447    1.0000 </r>
       <r>    9.6356    0.2309 </r>
       <r>    9.6779    0.1036 </r>
       <r>    9.9248   -0.0150 </r>
       <r>   10.1517   -0.0001 </r>
       <r>   10.3548   -0.0000 </r>
       <r>   10.4429   -0.0000 </r>
       <r>   10.7352   -0.0000 </r>
       <r>   10.8018   -0.0000 </r>
       <r>   11.1071   -0.0000 </r>
       <r>   11.1773   -0.0000 </r>
       <r>   11.3711   -0.0000 </r>
       <r>   11.4197   -0.0000 </r>
       <r>   11.5637   -0.0000 </r>
       <r>   11.6981   -0.0000 </r>
       <r>   12.0619   -0.0000 </r>
       <r>   12.2160   -0.0000 </r>
       <r>   12.4715   -0.0000 </r>
       <r>   12.5731   -0.0000 </r>
       <r>   12.8057   -0.0000 </r>
       <r>   12.9162   -0.0000 </r>
       <r>   13.0493   -0.0000 </r>
       <r>   13.2276   -0.0000 </r>
       <r>   13.4339   -0.0000 </r>
       <r>   13.5192   -0.0000 </r>
      </set>
      <set comment="kpoint 6">
       <r>   -2.4520    1.0000 </r>
       <r>   -1.0834    1.0000 </r>
       <r>   -0.6003    1.0000 </r>
       <r>    0.0291    1.0000 </r>
       <r>    0.3243    1.0000 </r>
       <r>    0.5678    1.0000 </r>
       <r>    0.7334    1.0000 </r>
       <r>    1.1502    1.0000 </r>
       <r>    1.2793    1.0000 </r>
       <r>    1.4866    1.0000 </r>
       <r>    2.2964    1.0000 </r>
       <r>    2.5095    1.0000 </r>
       <r>    2.8476    1.0000 </r>
       <r>    3.1222    1.0000 </r>
       <r>    3.5938    1.0000 </r>
       <r>    3.7790    1.0000 </r>
       <r>    4.0951    1.0000 </r>
       <r>    4.2573    1.0000 </r>
       <r>    4.9271    1.0000 </r>
       <r>    5.2010    1.0000 </r>
       <r>    5.6846    1.0000 </r>
       <r>    5.8132    1.0000 </r>
       <r>    5.9593    1.0000 </r>
       <r>    6.0879    1.0000 </r>
       <r>    6.3945    1.0000 </r>
       <r>    6.5179    1.0000 </r>
       <r>    6.7577    1.0000 </r>
       <r>    6.7925    1.0000 </r>
       <r>    7.1990    1.0000 </r>
       <r>    7.2962    1.0000 </r>
       <r>    7.5765    1.0000 </r>
       <r>    7.6403    1.0000 </r>
       <r>    7.7824    1.0000 </r>
       <r>    7.8857    1.0000 </r>
       <r>    8.1056    1.0000 </r>
       <r>    8.1859    1.0000 </r>
       <r>    8.2752    1.0000 </r>
       <r>    8.4408    1.0000 </r>
       <r>    8.6928    1.0000 </r>
       <r>    9.0790    1.0015 </r>
       <r>    9.5716    0.4843 </r>
       <r>    9.7229    0.0166 </r>
       <r>    9.8711   -0.0269 </r>
       <r>   10.0662   -0.0012 </r>
       <r>   10.3449   -0.0000 </r>
       <r>   10.5106   -0.0000 </r>
       <r>   10.7042   -0.0000 </r>
       <r>   10.8069   -0.0000 </r>
       <r>   11.0405   -0.0000 </r>
       <r>   11.1357   -0.0000 </r>
       <r>   11.2790   -0.0000 </r>
       <r>   11.4992   -0.0000 </r>
       <r>   11.6547   -0.0000 </r>
       <r>   11.7094   -0.0000 </r>
       <r>   12.1103   -0.0000 </r>
       <r>   12.2977   -0.0000 </r>
       <r>   12.4769   -0.0000 </r>
       <r>   12.5666   -0.0000 </r>
       <r>   12.8024   -0.0000 </r>
       <r>   12.9713   -0.0000 </r>
       <r>   13.0850   -0.0000 </r>
       <r>   13.1683   -0.0000 </r>
       <r>   13.3130   -0.0000 </r>
       <r>   13.5029   -0.0000 </r>
      </set>
      <set comment="kpoint 7">
       <r>   -2.4435    1.0000 </r>
       <r>   -1.0955    1.0000 </r>
       <r>   -0.6471    1.0000 </r>
       <r>    0.1003    1.0000 </r>
       <r>    0.3430    1.0000 </r>
       <r>    0.4318    1.0000 </r>
       <r>    0.8483    1.0000 </r>
       <r>    1.0391    1.0000 </r>
       <r>    1.2512    1.0000 </r>
       <r>    1.7657    1.0000 </r>
       <r>    2.2475    1.0000 </r>
       <r>    2.5251    1.0000 </r>
       <r>    2.9108    1.0000 </r>
       <r>    3.0348    1.0000 </r>
       <r>    3.3558    1.0000 </r>
       <r>    3.8993    1.0000 </r>
       <r>    3.9771    1.0000 </r>
       <r>    4.4100    1.0000 </r>
       <r>    4.8398    1.0000 </r>
       <r>    5.1926    1.0000 </r>
       <r>    5.5736    1.0000 </r>
       <r>    5.7619    1.0000 </r>
       <r>    5.9438    1.0000 </r>
       <r>    6.0906    1.0000 </r>
       <r>    6.4415    1.0000 </r>
       <r>    6.5535    1.0000 </r>
       <r>    6.7614    1.0000 </r>
       <r>    6.9837    1.0000 </r>
       <r>    7.2424    1.0000 </r>
       <r>    7.3463    1.0000 </r>
       <r>    7.4642    1.0000 </r>
       <r>    7.7928    1.0000 </r>
       <r>    7.8402    1.0000 </r>
       <r>    7.8891    1.0000 </r>
       <r>    8.0638    1.0000 </r>
       <r>    8.1362    1.0000 </r>
       <r>    8.2677    1.0000 </r>
       <r>    8.3513    1.0000 </r>
       <r>    8.8376    1.0000 </r>
       <r>    9.0272    1.0004 </r>
       <r>    9.5299    0.6576 </r>
       <r>    9.7758   -0.0288 </r>
       <r>    9.8996   -0.0204 </r>
       <r>   10.1332   -0.0002 </r>
       <r>   10.3225   -0.0000 </r>
       <r>   10.4898   -0.0000 </r>
       <r>   10.6558   -0.0000 </r>
       <r>   10.8873   -0.0000 </r>
       <r>   11.0550   -0.0000 </r>
       <r>   11.1106   -0.0000 </r>
       <r>   11.3497   -0.0000 </r>
       <r>   11.4386   -0.0000 </r>
       <r>   11.4911   -0.0000 </r>
       <r>   11.6715   -0.0000 </r>
       <r>   12.0149   -0.0000 </r>
       <r>   12.1404   -0.0000 </r>
       <r>   12.4066   -0.0000 </r>
       <r>   12.5133   -0.0000 </r>
       <r>   12.6804   -0.0000 </r>
       <r>   12.9209   -0.0000 </r>
       <r>   13.1221   -0.0000 </r>
       <r>   13.2973   -0.0000 </r>
       <r>   13.3624   -0.0000 </r>
       <r>   13.7017   -0.0000 </r>
      </set>
      <set comment="kpoint 8">
       <r>   -2.4423    1.0000 </r>
       <r>   -1.1091    1.0000 </r>
       <r>   -0.5969    1.0000 </r>
       <r>    0.0327    1.0000 </r>
       <r>    0.2530    1.0000 </r>
       <r>    0.4307    1.0000 </r>
       <r>    0.9348    1.0000 </r>
       <r>    1.0977    1.0000 </r>
       <r>    1.3771    1.0000 </r>
       <r>    1.7043    1.0000 </r>
       <r>    2.2321    1.0000 </r>
       <r>    2.4595    1.0000 </r>
       <r>    2.8338    1.0000 </r>
       <r>    2.9918    1.0000 </r>
       <r>    3.4012    1.0000 </r>
       <r>    3.8718    1.0000 </r>
       <r>    4.0471    1.0000 </r>
       <r>    4.4380    1.0000 </r>
       <r>    4.7838    1.0000 </r>
       <r>    5.2603    1.0000 </r>
       <r>    5.5273    1.0000 </r>
       <r>    5.8376    1.0000 </r>
       <r>    5.9646    1.0000 </r>
       <r>    6.1825    1.0000 </r>
       <r>    6.4364    1.0000 </r>
       <r>    6.5474    1.0000 </r>
       <r>    6.7144    1.0000 </r>
       <r>    6.8152    1.0000 </r>
       <r>    7.1971    1.0000 </r>
       <r>    7.3934    1.0000 </r>
       <r>    7.5215    1.0000 </r>
       <r>    7.6332    1.0000 </r>
       <r>    7.8168    1.0000 </r>
       <r>    7.9694    1.0000 </r>
       <r>    8.1063    1.0000 </r>
       <r>    8.2482    1.0000 </r>
       <r>    8.2973    1.0000 </r>
       <r>    8.4398    1.0000 </r>
       <r>    8.7745    1.0000 </r>
       <r>    8.8812    1.0000 </r>
       <r>    9.5693    0.4939 </r>
       <r>    9.7887   -0.0328 </r>
       <r>    9.8431   -0.0326 </r>
       <r>   10.1389   -0.0002 </r>
       <r>   10.3454   -0.0000 </r>
       <r>   10.5230   -0.0000 </r>
       <r>   10.7025   -0.0000 </r>
       <r>   10.8982   -0.0000 </r>
       <r>   10.9613   -0.0000 </r>
       <r>   11.1373   -0.0000 </r>
       <r>   11.3224   -0.0000 </r>
       <r>   11.4416   -0.0000 </r>
       <r>   11.5038   -0.0000 </r>
       <r>   11.5694   -0.0000 </r>
       <r>   11.9817   -0.0000 </r>
       <r>   12.2860   -0.0000 </r>
       <r>   12.4347   -0.0000 </r>
       <r>   12.6276   -0.0000 </r>
       <r>   12.7996   -0.0000 </r>
       <r>   12.9393   -0.0000 </r>
       <r>   13.0717   -0.0000 </r>
       <r>   13.2396   -0.0000 </r>
       <r>   13.3469   -0.0000 </r>
       <r>   13.5567   -0.0000 </r>
      </set>
      <set comment="kpoint 9">
       <r>   -2.4465    1.0000 </r>
       <r>   -1.1458    1.0000 </r>
       <r>   -0.5197    1.0000 </r>
       <r>    0.0179    1.0000 </r>
       <r>    0.3949    1.0000 </r>
       <r>    0.5025    1.0000 </r>
       <r>    0.7432    1.0000 </r>
       <r>    1.0418    1.0000 </r>
       <r>    1.3462    1.0000 </r>
       <r>    1.5152    1.0000 </r>
       <r>    2.2561    1.0000 </r>
       <r>    2.5164    1.0000 </r>
       <r>    2.8982    1.0000 </r>
       <r>    3.0993    1.0000 </r>
       <r>    3.5754    1.0000 </r>
       <r>    3.8172    1.0000 </r>
       <r>    3.9918    1.0000 </r>
       <r>    4.3259    1.0000 </r>
       <r>    4.9209    1.0000 </r>
       <r>    5.1721    1.0000 </r>
       <r>    5.5526    1.0000 </r>
       <r>    5.9449    1.0000 </r>
       <r>    6.0565    1.0000 </r>
       <r>    6.1473    1.0000 </r>
       <r>    6.3412    1.0000 </r>
       <r>    6.5478    1.0000 </r>
       <r>    6.5783    1.0000 </r>
       <r>    6.9250    1.0000 </r>
       <r>    7.1766    1.0000 </r>
       <r>    7.3879    1.0000 </r>
       <r>    7.4707    1.0000 </r>
       <r>    7.6264    1.0000 </r>
       <r>    7.8045    1.0000 </r>
       <r>    7.9313    1.0000 </r>
       <r>    8.0975    1.0000 </r>
       <r>    8.1797    1.0000 </r>
       <r>    8.2982    1.0000 </r>
       <r>    8.5206    1.0000 </r>
       <r>    8.6319    1.0000 </r>
       <r>    8.9220    1.0000 </r>
       <r>    9.5426    0.6059 </r>
       <r>    9.7094    0.0375 </r>
       <r>    9.8493   -0.0315 </r>
       <r>   10.0691   -0.0011 </r>
       <r>   10.4107   -0.0000 </r>
       <r>   10.5908   -0.0000 </r>
       <r>   10.7378   -0.0000 </r>
       <r>   10.8977   -0.0000 </r>
       <r>   10.9852   -0.0000 </r>
       <r>   11.0797   -0.0000 </r>
       <r>   11.3534   -0.0000 </r>
       <r>   11.4687   -0.0000 </r>
       <r>   11.6105   -0.0000 </r>
       <r>   11.6851   -0.0000 </r>
       <r>   12.0135   -0.0000 </r>
       <r>   12.3456   -0.0000 </r>
       <r>   12.4514   -0.0000 </r>
       <r>   12.6811   -0.0000 </r>
       <r>   12.7588   -0.0000 </r>
       <r>   12.9305   -0.0000 </r>
       <r>   13.0750   -0.0000 </r>
       <r>   13.2117   -0.0000 </r>
       <r>   13.3576   -0.0000 </r>
       <r>   13.5207   -0.0000 </r>
      </set>
      <set comment="kpoint 10">
       <r>   -2.4507    1.0000 </r>
       <r>   -1.0786    1.0000 </r>
       <r>   -0.6369    1.0000 </r>
       <r>    0.0942    1.0000 </r>
       <r>    0.3621    1.0000 </r>
       <r>    0.5417    1.0000 </r>
       <r>    0.6926    1.0000 </r>
       <r>    1.0581    1.0000 </r>
       <r>    1.2570    1.0000 </r>
       <r>    1.6092    1.0000 </r>
       <r>    2.2648    1.0000 </r>
       <r>    2.5923    1.0000 </r>
       <r>    2.8366    1.0000 </r>
       <r>    3.1039    1.0000 </r>
       <r>    3.5854    1.0000 </r>
       <r>    3.7310    1.0000 </r>
       <r>    4.0960    1.0000 </r>
       <r>    4.2870    1.0000 </r>
       <r>    5.0057    1.0000 </r>
       <r>    5.0428    1.0000 </r>
       <r>    5.7140    1.0000 </r>
       <r>    5.7923    1.0000 </r>
       <r>    5.9862    1.0000 </r>
       <r>    6.1750    1.0000 </r>
       <r>    6.3105    1.0000 </r>
       <r>    6.3833    1.0000 </r>
       <r>    6.6985    1.0000 </r>
       <r>    7.0425    1.0000 </r>
       <r>    7.2097    1.0000 </r>
       <r>    7.3116    1.0000 </r>
       <r>    7.4999    1.0000 </r>
       <r>    7.6884    1.0000 </r>
       <r>    7.7506    1.0000 </r>
       <r>    8.0216    1.0000 </r>
       <r>    8.0584    1.0000 </r>
       <r>    8.2543    1.0000 </r>
       <r>    8.2800    1.0000 </r>
       <r>    8.4791    1.0000 </r>
       <r>    8.6414    1.0000 </r>
       <r>    8.8320    1.0000 </r>
       <r>    9.6215    0.2818 </r>
       <r>    9.8108   -0.0354 </r>
       <r>    9.8889   -0.0228 </r>
       <r>   10.0646   -0.0012 </r>
       <r>   10.3869   -0.0000 </r>
       <r>   10.5023   -0.0000 </r>
       <r>   10.6635   -0.0000 </r>
       <r>   10.7894   -0.0000 </r>
       <r>   11.0294   -0.0000 </r>
       <r>   11.1819   -0.0000 </r>
       <r>   11.3266   -0.0000 </r>
       <r>   11.4931   -0.0000 </r>
       <r>   11.5275   -0.0000 </r>
       <r>   11.6869   -0.0000 </r>
       <r>   12.1377   -0.0000 </r>
       <r>   12.2164   -0.0000 </r>
       <r>   12.4713   -0.0000 </r>
       <r>   12.6175   -0.0000 </r>
       <r>   12.7602   -0.0000 </r>
       <r>   12.9535   -0.0000 </r>
       <r>   13.1066   -0.0000 </r>
       <r>   13.2859   -0.0000 </r>
       <r>   13.3890   -0.0000 </r>
       <r>   13.5370   -0.0000 </r>
      </set>
      <set comment="kpoint 11">
       <r>   -2.4485    1.0000 </r>
       <r>   -1.1071    1.0000 </r>
       <r>   -0.5128    1.0000 </r>
       <r>   -0.1112    1.0000 </r>
       <r>    0.3416    1.0000 </r>
       <r>    0.5293    1.0000 </r>
       <r>    0.8355    1.0000 </r>
       <r>    0.9647    1.0000 </r>
       <r>    1.4129    1.0000 </r>
       <r>    1.6942    1.0000 </r>
       <r>    2.1795    1.0000 </r>
       <r>    2.5661    1.0000 </r>
       <r>    2.8930    1.0000 </r>
       <r>    3.0649    1.0000 </r>
       <r>    3.3760    1.0000 </r>
       <r>    3.8429    1.0000 </r>
       <r>    3.9579    1.0000 </r>
       <r>    4.4660    1.0000 </r>
       <r>    4.8118    1.0000 </r>
       <r>    5.3648    1.0000 </r>
       <r>    5.4596    1.0000 </r>
       <r>    5.9349    1.0000 </r>
       <r>    6.0146    1.0000 </r>
       <r>    6.0842    1.0000 </r>
       <r>    6.3967    1.0000 </r>
       <r>    6.5239    1.0000 </r>
       <r>    6.6677    1.0000 </r>
       <r>    6.9702    1.0000 </r>
       <r>    7.0256    1.0000 </r>
       <r>    7.3478    1.0000 </r>
       <r>    7.5550    1.0000 </r>
       <r>    7.6168    1.0000 </r>
       <r>    7.7685    1.0000 </r>
       <r>    7.9450    1.0000 </r>
       <r>    8.0453    1.0000 </r>
       <r>    8.1766    1.0000 </r>
       <r>    8.3611    1.0000 </r>
       <r>    8.6402    1.0000 </r>
       <r>    8.7422    1.0000 </r>
       <r>    8.9168    1.0000 </r>
       <r>    9.5358    0.6339 </r>
       <r>    9.6620    0.1463 </r>
       <r>    9.8700   -0.0272 </r>
       <r>   10.0962   -0.0006 </r>
       <r>   10.3393   -0.0000 </r>
       <r>   10.5951   -0.0000 </r>
       <r>   10.7376   -0.0000 </r>
       <r>   10.9088   -0.0000 </r>
       <r>   10.9989   -0.0000 </r>
       <r>   11.1705   -0.0000 </r>
       <r>   11.2684   -0.0000 </r>
       <r>   11.4896   -0.0000 </r>
       <r>   11.5571   -0.0000 </r>
       <r>   11.7271   -0.0000 </r>
       <r>   11.9708   -0.0000 </r>
       <r>   12.1692   -0.0000 </r>
       <r>   12.3497   -0.0000 </r>
       <r>   12.5814   -0.0000 </r>
       <r>   12.7730   -0.0000 </r>
       <r>   12.9222   -0.0000 </r>
       <r>   13.1083   -0.0000 </r>
       <r>   13.2076   -0.0000 </r>
       <r>   13.4555   -0.0000 </r>
       <r>   13.5818   -0.0000 </r>
      </set>
      <set comment="kpoint 12">
       <r>   -2.4436    1.0000 </r>
       <r>   -1.1308    1.0000 </r>
       <r>   -0.5521    1.0000 </r>
       <r>    0.0239    1.0000 </r>
       <r>    0.2648    1.0000 </r>
       <r>    0.4670    1.0000 </r>
       <r>    0.8810    1.0000 </r>
       <r>    1.1169    1.0000 </r>
       <r>    1.4244    1.0000 </r>
       <r>    1.5290    1.0000 </r>
       <r>    2.1794    1.0000 </r>
       <r>    2.5632    1.0000 </r>
       <r>    2.9279    1.0000 </r>
       <r>    3.0024    1.0000 </r>
       <r>    3.4132    1.0000 </r>
       <r>    3.8220    1.0000 </r>
       <r>    3.9891    1.0000 </r>
       <r>    4.3849    1.0000 </r>
       <r>    4.8514    1.0000 </r>
       <r>    5.3440    1.0000 </r>
       <r>    5.5322    1.0000 </r>
       <r>    5.8643    1.0000 </r>
       <r>    6.0878    1.0000 </r>
       <r>    6.2090    1.0000 </r>
       <r>    6.3693    1.0000 </r>
       <r>    6.4780    1.0000 </r>
       <r>    6.7380    1.0000 </r>
       <r>    6.8233    1.0000 </r>
       <r>    7.1130    1.0000 </r>
       <r>    7.4152    1.0000 </r>
       <r>    7.4796    1.0000 </r>
       <r>    7.5972    1.0000 </r>
       <r>    7.7706    1.0000 </r>
       <r>    7.8476    1.0000 </r>
       <r>    8.0136    1.0000 </r>
       <r>    8.2564    1.0000 </r>
       <r>    8.3711    1.0000 </r>
       <r>    8.5795    1.0000 </r>
       <r>    8.7544    1.0000 </r>
       <r>    8.9032    1.0000 </r>
       <r>    9.5371    0.6286 </r>
       <r>    9.6929    0.0690 </r>
       <r>    9.7958   -0.0342 </r>
       <r>   10.1948   -0.0000 </r>
       <r>   10.3362   -0.0000 </r>
       <r>   10.6538   -0.0000 </r>
       <r>   10.8145   -0.0000 </r>
       <r>   10.9237   -0.0000 </r>
       <r>   11.0159   -0.0000 </r>
       <r>   11.0593   -0.0000 </r>
       <r>   11.2772   -0.0000 </r>
       <r>   11.4152   -0.0000 </r>
       <r>   11.5044   -0.0000 </r>
       <r>   11.6842   -0.0000 </r>
       <r>   11.9738   -0.0000 </r>
       <r>   12.2513   -0.0000 </r>
       <r>   12.4174   -0.0000 </r>
       <r>   12.7054   -0.0000 </r>
       <r>   12.7965   -0.0000 </r>
       <r>   12.9264   -0.0000 </r>
       <r>   13.0478   -0.0000 </r>
       <r>   13.1839   -0.0000 </r>
       <r>   13.3067   -0.0000 </r>
       <r>   13.6190   -0.0000 </r>
      </set>
      <set comment="kpoint 13">
       <r>   -2.4463    1.0000 </r>
       <r>   -1.1255    1.0000 </r>
       <r>   -0.5794    1.0000 </r>
       <r>    0.0771    1.0000 </r>
       <r>    0.4171    1.0000 </r>
       <r>    0.4908    1.0000 </r>
       <r>    0.7059    1.0000 </r>
       <r>    0.9774    1.0000 </r>
       <r>    1.3512    1.0000 </r>
       <r>    1.5954    1.0000 </r>
       <r>    2.2083    1.0000 </r>
       <r>    2.6970    1.0000 </r>
       <r>    2.8883    1.0000 </r>
       <r>    3.0798    1.0000 </r>
       <r>    3.3571    1.0000 </r>
       <r>    3.9151    1.0000 </r>
       <r>    3.9813    1.0000 </r>
       <r>    4.3336    1.0000 </r>
       <r>    4.8407    1.0000 </r>
       <r>    5.2922    1.0000 </r>
       <r>    5.5494    1.0000 </r>
       <r>    5.8921    1.0000 </r>
       <r>    5.9917    1.0000 </r>
       <r>    6.1822    1.0000 </r>
       <r>    6.3095    1.0000 </r>
       <r>    6.4728    1.0000 </r>
       <r>    6.6847    1.0000 </r>
       <r>    6.9996    1.0000 </r>
       <r>    7.1533    1.0000 </r>
       <r>    7.3435    1.0000 </r>
       <r>    7.5223    1.0000 </r>
       <r>    7.6326    1.0000 </r>
       <r>    7.7128    1.0000 </r>
       <r>    7.9275    1.0000 </r>
       <r>    8.1011    1.0000 </r>
       <r>    8.2586    1.0000 </r>
       <r>    8.3283    1.0000 </r>
       <r>    8.5011    1.0000 </r>
       <r>    8.7083    1.0000 </r>
       <r>    8.8658    1.0000 </r>
       <r>    9.5231    0.6845 </r>
       <r>    9.8064   -0.0353 </r>
       <r>    9.8949   -0.0215 </r>
       <r>   10.0451   -0.0019 </r>
       <r>   10.3127   -0.0000 </r>
       <r>   10.5959   -0.0000 </r>
       <r>   10.7585   -0.0000 </r>
       <r>   10.8763   -0.0000 </r>
       <r>   11.0732   -0.0000 </r>
       <r>   11.2157   -0.0000 </r>
       <r>   11.3005   -0.0000 </r>
       <r>   11.3832   -0.0000 </r>
       <r>   11.5162   -0.0000 </r>
       <r>   11.6952   -0.0000 </r>
       <r>   12.0414   -0.0000 </r>
       <r>   12.2324   -0.0000 </r>
       <r>   12.4412   -0.0000 </r>
       <r>   12.5698   -0.0000 </r>
       <r>   12.7823   -0.0000 </r>
       <r>   12.8717   -0.0000 </r>
       <r>   12.9921   -0.0000 </r>
       <r>   13.2262   -0.0000 </r>
       <r>   13.3883   -0.0000 </r>
       <r>   13.6488   -0.0000 </r>
      </set>
      <set comment="kpoint 14">
       <r>   -2.4499    1.0000 </r>
       <r>   -1.1186    1.0000 </r>
       <r>   -0.5460    1.0000 </r>
       <r>    0.0122    1.0000 </r>
       <r>    0.3264    1.0000 </r>
       <r>    0.5952    1.0000 </r>
       <r>    0.7383    1.0000 </r>
       <r>    1.0953    1.0000 </r>
       <r>    1.2810    1.0000 </r>
       <r>    1.4950    1.0000 </r>
       <r>    2.2604    1.0000 </r>
       <r>    2.5007    1.0000 </r>
       <r>    2.9222    1.0000 </r>
       <r>    3.1011    1.0000 </r>
       <r>    3.5866    1.0000 </r>
       <r>    3.8212    1.0000 </r>
       <r>    4.0248    1.0000 </r>
       <r>    4.2684    1.0000 </r>
       <r>    5.0231    1.0000 </r>
       <r>    5.1330    1.0000 </r>
       <r>    5.6540    1.0000 </r>
       <r>    5.7493    1.0000 </r>
       <r>    6.1035    1.0000 </r>
       <r>    6.2108    1.0000 </r>
       <r>    6.3301    1.0000 </r>
       <r>    6.4857    1.0000 </r>
       <r>    6.5685    1.0000 </r>
       <r>    6.8995    1.0000 </r>
       <r>    7.1736    1.0000 </r>
       <r>    7.3637    1.0000 </r>
       <r>    7.4997    1.0000 </r>
       <r>    7.6183    1.0000 </r>
       <r>    7.8007    1.0000 </r>
       <r>    7.9560    1.0000 </r>
       <r>    8.0418    1.0000 </r>
       <r>    8.1788    1.0000 </r>
       <r>    8.3525    1.0000 </r>
       <r>    8.5127    1.0000 </r>
       <r>    8.7210    1.0000 </r>
       <r>    8.8876    1.0000 </r>
       <r>    9.5147    0.7165 </r>
       <r>    9.7430   -0.0069 </r>
       <r>    9.8201   -0.0353 </r>
       <r>   10.0734   -0.0010 </r>
       <r>   10.4259   -0.0000 </r>
       <r>   10.5616   -0.0000 </r>
       <r>   10.6808   -0.0000 </r>
       <r>   10.8804   -0.0000 </r>
       <r>   10.9987   -0.0000 </r>
       <r>   11.1184   -0.0000 </r>
       <r>   11.3967   -0.0000 </r>
       <r>   11.4744   -0.0000 </r>
       <r>   11.6092   -0.0000 </r>
       <r>   11.6956   -0.0000 </r>
       <r>   12.1029   -0.0000 </r>
       <r>   12.3054   -0.0000 </r>
       <r>   12.4152   -0.0000 </r>
       <r>   12.6350   -0.0000 </r>
       <r>   12.8470   -0.0000 </r>
       <r>   12.9766   -0.0000 </r>
       <r>   13.0830   -0.0000 </r>
       <r>   13.1590   -0.0000 </r>
       <r>   13.2777   -0.0000 </r>
       <r>   13.5666   -0.0000 </r>
      </set>
      <set comment="kpoint 15">
       <r>   -2.4437    1.0000 </r>
       <r>   -1.1123    1.0000 </r>
       <r>   -0.5393    1.0000 </r>
       <r>   -0.0968    1.0000 </r>
       <r>    0.3260    1.0000 </r>
       <r>    0.4621    1.0000 </r>
       <r>    0.8809    1.0000 </r>
       <r>    1.0829    1.0000 </r>
       <r>    1.3887    1.0000 </r>
       <r>    1.7043    1.0000 </r>
       <r>    2.2713    1.0000 </r>
       <r>    2.4702    1.0000 </r>
       <r>    2.8457    1.0000 </r>
       <r>    3.0206    1.0000 </r>
       <r>    3.3763    1.0000 </r>
       <r>    3.8270    1.0000 </r>
       <r>    4.0538    1.0000 </r>
       <r>    4.4295    1.0000 </r>
       <r>    4.7618    1.0000 </r>
       <r>    5.3779    1.0000 </r>
       <r>    5.4434    1.0000 </r>
       <r>    5.8355    1.0000 </r>
       <r>    5.9652    1.0000 </r>
       <r>    6.1679    1.0000 </r>
       <r>    6.3477    1.0000 </r>
       <r>    6.5888    1.0000 </r>
       <r>    6.6848    1.0000 </r>
       <r>    6.9458    1.0000 </r>
       <r>    7.1618    1.0000 </r>
       <r>    7.2996    1.0000 </r>
       <r>    7.6129    1.0000 </r>
       <r>    7.6988    1.0000 </r>
       <r>    7.8578    1.0000 </r>
       <r>    7.9128    1.0000 </r>
       <r>    8.0628    1.0000 </r>
       <r>    8.1925    1.0000 </r>
       <r>    8.2424    1.0000 </r>
       <r>    8.4997    1.0000 </r>
       <r>    8.8546    1.0000 </r>
       <r>    8.9272    1.0000 </r>
       <r>    9.5921    0.3983 </r>
       <r>    9.6432    0.2050 </r>
       <r>    9.8670   -0.0279 </r>
       <r>   10.1462   -0.0002 </r>
       <r>   10.2508   -0.0000 </r>
       <r>   10.6469   -0.0000 </r>
       <r>   10.6889   -0.0000 </r>
       <r>   10.9012   -0.0000 </r>
       <r>   10.9551   -0.0000 </r>
       <r>   11.1136   -0.0000 </r>
       <r>   11.2510   -0.0000 </r>
       <r>   11.4786   -0.0000 </r>
       <r>   11.5697   -0.0000 </r>
       <r>   11.6912   -0.0000 </r>
       <r>   12.0041   -0.0000 </r>
       <r>   12.1834   -0.0000 </r>
       <r>   12.3636   -0.0000 </r>
       <r>   12.5655   -0.0000 </r>
       <r>   12.7294   -0.0000 </r>
       <r>   12.8973   -0.0000 </r>
       <r>   13.0477   -0.0000 </r>
       <r>   13.1910   -0.0000 </r>
       <r>   13.4966   -0.0000 </r>
       <r>   13.7450   -0.0000 </r>
      </set>
      <set comment="kpoint 16">
       <r>   -2.4472    1.0000 </r>
       <r>   -1.1086    1.0000 </r>
       <r>   -0.6102    1.0000 </r>
       <r>    0.0960    1.0000 </r>
       <r>    0.3192    1.0000 </r>
       <r>    0.5467    1.0000 </r>
       <r>    0.7970    1.0000 </r>
       <r>    1.0853    1.0000 </r>
       <r>    1.1587    1.0000 </r>
       <r>    1.6165    1.0000 </r>
       <r>    2.2532    1.0000 </r>
       <r>    2.5608    1.0000 </r>
       <r>    2.9527    1.0000 </r>
       <r>    3.0326    1.0000 </r>
       <r>    3.5994    1.0000 </r>
       <r>    3.7447    1.0000 </r>
       <r>    4.0909    1.0000 </r>
       <r>    4.1611    1.0000 </r>
       <r>    4.9941    1.0000 </r>
       <r>    5.1523    1.0000 </r>
       <r>    5.7148    1.0000 </r>
       <r>    5.8200    1.0000 </r>
       <r>    5.9783    1.0000 </r>
       <r>    6.1484    1.0000 </r>
       <r>    6.2775    1.0000 </r>
       <r>    6.4286    1.0000 </r>
       <r>    6.7991    1.0000 </r>
       <r>    7.0239    1.0000 </r>
       <r>    7.2837    1.0000 </r>
       <r>    7.3601    1.0000 </r>
       <r>    7.4345    1.0000 </r>
       <r>    7.5207    1.0000 </r>
       <r>    7.7005    1.0000 </r>
       <r>    7.9517    1.0000 </r>
       <r>    8.1642    1.0000 </r>
       <r>    8.2100    1.0000 </r>
       <r>    8.3088    1.0000 </r>
       <r>    8.4866    1.0000 </r>
       <r>    8.6341    1.0000 </r>
       <r>    8.9173    1.0000 </r>
       <r>    9.5586    0.5393 </r>
       <r>    9.7532   -0.0157 </r>
       <r>    9.8780   -0.0254 </r>
       <r>   10.1298   -0.0003 </r>
       <r>   10.3882   -0.0000 </r>
       <r>   10.5473   -0.0000 </r>
       <r>   10.7384   -0.0000 </r>
       <r>   10.7901   -0.0000 </r>
       <r>   11.0545   -0.0000 </r>
       <r>   11.0943   -0.0000 </r>
       <r>   11.3711   -0.0000 </r>
       <r>   11.4915   -0.0000 </r>
       <r>   11.5767   -0.0000 </r>
       <r>   11.6065   -0.0000 </r>
       <r>   12.0561   -0.0000 </r>
       <r>   12.2093   -0.0000 </r>
       <r>   12.4842   -0.0000 </r>
       <r>   12.6285   -0.0000 </r>
       <r>   12.7967   -0.0000 </r>
       <r>   12.9520   -0.0000 </r>
       <r>   13.0450   -0.0000 </r>
       <r>   13.3003   -0.0000 </r>
       <r>   13.3990   -0.0000 </r>
       <r>   13.5675   -0.0000 </r>
      </set>
      <set comment="kpoint 17">
       <r>   -2.1016    1.0000 </r>
       <r>   -1.7007    1.0000 </r>
       <r>   -0.5379    1.0000 </r>
       <r>   -0.1612    1.0000 </r>
       <r>    0.0355    1.0000 </r>
       <r>    0.5005    1.0000 </r>
       <r>    0.8891    1.0000 </r>
       <r>    1.1986    1.0000 </r>
       <r>    1.5725    1.0000 </r>
       <r>    2.2233    1.0000 </r>
       <r>    2.4215    1.0000 </r>
       <r>    2.5399    1.0000 </r>
       <r>    2.8419    1.0000 </r>
       <r>    3.4854    1.0000 </r>
       <r>    3.7722    1.0000 </r>
       <r>    4.0754    1.0000 </r>
       <r>    4.2266    1.0000 </r>
       <r>    4.3260    1.0000 </r>
       <r>    4.9030    1.0000 </r>
       <r>    5.0349    1.0000 </r>
       <r>    5.2190    1.0000 </r>
       <r>    5.3473    1.0000 </r>
       <r>    5.4642    1.0000 </r>
       <r>    5.6762    1.0000 </r>
       <r>    5.7914    1.0000 </r>
       <r>    6.0098    1.0000 </r>
       <r>    6.3968    1.0000 </r>
       <r>    6.6674    1.0000 </r>
       <r>    6.8631    1.0000 </r>
       <r>    6.9824    1.0000 </r>
       <r>    7.3830    1.0000 </r>
       <r>    7.5158    1.0000 </r>
       <r>    7.7829    1.0000 </r>
       <r>    7.8338    1.0000 </r>
       <r>    8.0970    1.0000 </r>
       <r>    8.1347    1.0000 </r>
       <r>    8.4193    1.0000 </r>
       <r>    9.3072    1.0346 </r>
       <r>    9.4288    0.9583 </r>
       <r>    9.5712    0.4860 </r>
       <r>    9.7267    0.0114 </r>
       <r>   10.0053   -0.0042 </r>
       <r>   10.2502   -0.0000 </r>
       <r>   10.3010   -0.0000 </r>
       <r>   10.5260   -0.0000 </r>
       <r>   10.7539   -0.0000 </r>
       <r>   10.9215   -0.0000 </r>
       <r>   10.9936   -0.0000 </r>
       <r>   11.2091   -0.0000 </r>
       <r>   11.4807   -0.0000 </r>
       <r>   11.6198   -0.0000 </r>
       <r>   11.8174   -0.0000 </r>
       <r>   11.8968   -0.0000 </r>
       <r>   12.1364   -0.0000 </r>
       <r>   12.2051   -0.0000 </r>
       <r>   12.4074   -0.0000 </r>
       <r>   12.5679   -0.0000 </r>
       <r>   12.7260   -0.0000 </r>
       <r>   12.8025   -0.0000 </r>
       <r>   12.9286   -0.0000 </r>
       <r>   13.0026   -0.0000 </r>
       <r>   13.1669   -0.0000 </r>
       <r>   13.3526   -0.0000 </r>
       <r>   13.5479   -0.0000 </r>
      </set>
      <set comment="kpoint 18">
       <r>   -2.1339    1.0000 </r>
       <r>   -1.6414    1.0000 </r>
       <r>   -0.5253    1.0000 </r>
       <r>   -0.2637    1.0000 </r>
       <r>    0.0703    1.0000 </r>
       <r>    0.6395    1.0000 </r>
       <r>    0.7531    1.0000 </r>
       <r>    1.1472    1.0000 </r>
       <r>    1.6039    1.0000 </r>
       <r>    2.2594    1.0000 </r>
       <r>    2.4022    1.0000 </r>
       <r>    2.5971    1.0000 </r>
       <r>    2.8064    1.0000 </r>
       <r>    3.5472    1.0000 </r>
       <r>    3.8894    1.0000 </r>
       <r>    3.9741    1.0000 </r>
       <r>    4.1523    1.0000 </r>
       <r>    4.4081    1.0000 </r>
       <r>    4.9321    1.0000 </r>
       <r>    5.0657    1.0000 </r>
       <r>    5.1612    1.0000 </r>
       <r>    5.3064    1.0000 </r>
       <r>    5.4302    1.0000 </r>
       <r>    5.6391    1.0000 </r>
       <r>    5.7930    1.0000 </r>
       <r>    5.9240    1.0000 </r>
       <r>    6.4309    1.0000 </r>
       <r>    6.6026    1.0000 </r>
       <r>    6.8941    1.0000 </r>
       <r>    7.0593    1.0000 </r>
       <r>    7.3406    1.0000 </r>
       <r>    7.4954    1.0000 </r>
       <r>    7.7387    1.0000 </r>
       <r>    7.9014    1.0000 </r>
       <r>    8.1711    1.0000 </r>
       <r>    8.2352    1.0000 </r>
       <r>    8.4507    1.0000 </r>
       <r>    9.2751    1.0292 </r>
       <r>    9.3800    1.0176 </r>
       <r>    9.4968    0.7808 </r>
       <r>    9.7891   -0.0329 </r>
       <r>    9.9315   -0.0137 </r>
       <r>   10.1067   -0.0005 </r>
       <r>   10.2932   -0.0000 </r>
       <r>   10.5936   -0.0000 </r>
       <r>   10.7947   -0.0000 </r>
       <r>   10.8994   -0.0000 </r>
       <r>   11.0791   -0.0000 </r>
       <r>   11.2657   -0.0000 </r>
       <r>   11.3926   -0.0000 </r>
       <r>   11.6547   -0.0000 </r>
       <r>   11.8602   -0.0000 </r>
       <r>   11.9197   -0.0000 </r>
       <r>   12.2195   -0.0000 </r>
       <r>   12.2894   -0.0000 </r>
       <r>   12.3460   -0.0000 </r>
       <r>   12.4261   -0.0000 </r>
       <r>   12.6683   -0.0000 </r>
       <r>   12.7751   -0.0000 </r>
       <r>   12.9451   -0.0000 </r>
       <r>   13.0902   -0.0000 </r>
       <r>   13.1946   -0.0000 </r>
       <r>   13.2947   -0.0000 </r>
       <r>   13.7059   -0.0000 </r>
      </set>
      <set comment="kpoint 19">
       <r>   -2.0908    1.0000 </r>
       <r>   -1.6970    1.0000 </r>
       <r>   -0.5609    1.0000 </r>
       <r>   -0.2709    1.0000 </r>
       <r>    0.0841    1.0000 </r>
       <r>    0.5236    1.0000 </r>
       <r>    0.8857    1.0000 </r>
       <r>    1.3126    1.0000 </r>
       <r>    1.5941    1.0000 </r>
       <r>    2.1762    1.0000 </r>
       <r>    2.4137    1.0000 </r>
       <r>    2.5890    1.0000 </r>
       <r>    2.9119    1.0000 </r>
       <r>    3.4943    1.0000 </r>
       <r>    3.7379    1.0000 </r>
       <r>    3.8979    1.0000 </r>
       <r>    4.1860    1.0000 </r>
       <r>    4.3325    1.0000 </r>
       <r>    4.9377    1.0000 </r>
       <r>    5.0133    1.0000 </r>
       <r>    5.2048    1.0000 </r>
       <r>    5.2812    1.0000 </r>
       <r>    5.4972    1.0000 </r>
       <r>    5.5870    1.0000 </r>
       <r>    5.6785    1.0000 </r>
       <r>    6.0286    1.0000 </r>
       <r>    6.4897    1.0000 </r>
       <r>    6.7097    1.0000 </r>
       <r>    6.8451    1.0000 </r>
       <r>    7.0765    1.0000 </r>
       <r>    7.4305    1.0000 </r>
       <r>    7.6435    1.0000 </r>
       <r>    7.7858    1.0000 </r>
       <r>    7.9220    1.0000 </r>
       <r>    8.0934    1.0000 </r>
       <r>    8.2181    1.0000 </r>
       <r>    8.5206    1.0000 </r>
       <r>    9.2980    1.0334 </r>
       <r>    9.4438    0.9290 </r>
       <r>    9.5311    0.6528 </r>
       <r>    9.7073    0.0411 </r>
       <r>    9.8651   -0.0283 </r>
       <r>   10.1020   -0.0005 </r>
       <r>   10.3274   -0.0000 </r>
       <r>   10.4869   -0.0000 </r>
       <r>   10.6889   -0.0000 </r>
       <r>   10.8452   -0.0000 </r>
       <r>   11.0777   -0.0000 </r>
       <r>   11.2197   -0.0000 </r>
       <r>   11.2712   -0.0000 </r>
       <r>   11.7044   -0.0000 </r>
       <r>   11.8486   -0.0000 </r>
       <r>   11.9577   -0.0000 </r>
       <r>   12.1264   -0.0000 </r>
       <r>   12.2198   -0.0000 </r>
       <r>   12.4075   -0.0000 </r>
       <r>   12.5190   -0.0000 </r>
       <r>   12.6332   -0.0000 </r>
       <r>   12.7930   -0.0000 </r>
       <r>   12.9501   -0.0000 </r>
       <r>   13.0619   -0.0000 </r>
       <r>   13.2212   -0.0000 </r>
       <r>   13.4194   -0.0000 </r>
       <r>   13.5215   -0.0000 </r>
      </set>
      <set comment="kpoint 20">
       <r>   -2.0935    1.0000 </r>
       <r>   -1.6923    1.0000 </r>
       <r>   -0.5818    1.0000 </r>
       <r>   -0.1857    1.0000 </r>
       <r>    0.0194    1.0000 </r>
       <r>    0.4435    1.0000 </r>
       <r>    1.0283    1.0000 </r>
       <r>    1.2550    1.0000 </r>
       <r>    1.5816    1.0000 </r>
       <r>    2.1586    1.0000 </r>
       <r>    2.4146    1.0000 </r>
       <r>    2.6022    1.0000 </r>
       <r>    2.9607    1.0000 </r>
       <r>    3.4402    1.0000 </r>
       <r>    3.7341    1.0000 </r>
       <r>    4.0733    1.0000 </r>
       <r>    4.1195    1.0000 </r>
       <r>    4.2801    1.0000 </r>
       <r>    4.8101    1.0000 </r>
       <r>    5.0223    1.0000 </r>
       <r>    5.1449    1.0000 </r>
       <r>    5.3652    1.0000 </r>
       <r>    5.3873    1.0000 </r>
       <r>    5.6178    1.0000 </r>
       <r>    5.7352    1.0000 </r>
       <r>    6.1954    1.0000 </r>
       <r>    6.5591    1.0000 </r>
       <r>    6.6773    1.0000 </r>
       <r>    6.7854    1.0000 </r>
       <r>    7.0877    1.0000 </r>
       <r>    7.3385    1.0000 </r>
       <r>    7.4780    1.0000 </r>
       <r>    7.7907    1.0000 </r>
       <r>    8.0123    1.0000 </r>
       <r>    8.1738    1.0000 </r>
       <r>    8.3704    1.0000 </r>
       <r>    8.4183    1.0000 </r>
       <r>    9.2449    1.0224 </r>
       <r>    9.3365    1.0347 </r>
       <r>    9.5358    0.6339 </r>
       <r>    9.7231    0.0163 </r>
       <r>    9.8746   -0.0261 </r>
       <r>   10.2396   -0.0000 </r>
       <r>   10.3563   -0.0000 </r>
       <r>   10.5419   -0.0000 </r>
       <r>   10.6832   -0.0000 </r>
       <r>   10.8564   -0.0000 </r>
       <r>   10.9477   -0.0000 </r>
       <r>   11.0490   -0.0000 </r>
       <r>   11.3937   -0.0000 </r>
       <r>   11.6563   -0.0000 </r>
       <r>   11.9316   -0.0000 </r>
       <r>   11.9901   -0.0000 </r>
       <r>   12.2225   -0.0000 </r>
       <r>   12.2597   -0.0000 </r>
       <r>   12.4595   -0.0000 </r>
       <r>   12.5286   -0.0000 </r>
       <r>   12.5916   -0.0000 </r>
       <r>   12.6655   -0.0000 </r>
       <r>   12.9144   -0.0000 </r>
       <r>   13.0696   -0.0000 </r>
       <r>   13.2169   -0.0000 </r>
       <r>   13.2855   -0.0000 </r>
       <r>   13.4947   -0.0000 </r>
      </set>
      <set comment="kpoint 21">
       <r>   -2.1144    1.0000 </r>
       <r>   -1.6887    1.0000 </r>
       <r>   -0.4938    1.0000 </r>
       <r>   -0.2189    1.0000 </r>
       <r>    0.0737    1.0000 </r>
       <r>    0.5478    1.0000 </r>
       <r>    0.8564    1.0000 </r>
       <r>    1.1194    1.0000 </r>
       <r>    1.5604    1.0000 </r>
       <r>    2.1294    1.0000 </r>
       <r>    2.4079    1.0000 </r>
       <r>    2.6126    1.0000 </r>
       <r>    2.9111    1.0000 </r>
       <r>    3.5671    1.0000 </r>
       <r>    3.8111    1.0000 </r>
       <r>    4.0860    1.0000 </r>
       <r>    4.1849    1.0000 </r>
       <r>    4.3265    1.0000 </r>
       <r>    4.9240    1.0000 </r>
       <r>    5.0823    1.0000 </r>
       <r>    5.2421    1.0000 </r>
       <r>    5.3235    1.0000 </r>
       <r>    5.3897    1.0000 </r>
       <r>    5.6301    1.0000 </r>
       <r>    5.7225    1.0000 </r>
       <r>    6.0413    1.0000 </r>
       <r>    6.4125    1.0000 </r>
       <r>    6.6409    1.0000 </r>
       <r>    6.8144    1.0000 </r>
       <r>    7.0209    1.0000 </r>
       <r>    7.3652    1.0000 </r>
       <r>    7.5248    1.0000 </r>
       <r>    7.7126    1.0000 </r>
       <r>    7.9157    1.0000 </r>
       <r>    8.0589    1.0000 </r>
       <r>    8.2875    1.0000 </r>
       <r>    8.3650    1.0000 </r>
       <r>    9.2393    1.0211 </r>
       <r>    9.4397    0.9376 </r>
       <r>    9.5335    0.6430 </r>
       <r>    9.8421   -0.0328 </r>
       <r>    9.9825   -0.0063 </r>
       <r>   10.1906   -0.0000 </r>
       <r>   10.2264   -0.0000 </r>
       <r>   10.4314   -0.0000 </r>
       <r>   10.8426   -0.0000 </r>
       <r>   10.9464   -0.0000 </r>
       <r>   10.9946   -0.0000 </r>
       <r>   11.2597   -0.0000 </r>
       <r>   11.3633   -0.0000 </r>
       <r>   11.6737   -0.0000 </r>
       <r>   11.7969   -0.0000 </r>
       <r>   12.0349   -0.0000 </r>
       <r>   12.1917   -0.0000 </r>
       <r>   12.2834   -0.0000 </r>
       <r>   12.4630   -0.0000 </r>
       <r>   12.5366   -0.0000 </r>
       <r>   12.6539   -0.0000 </r>
       <r>   12.7214   -0.0000 </r>
       <r>   12.9521   -0.0000 </r>
       <r>   13.0311   -0.0000 </r>
       <r>   13.2151   -0.0000 </r>
       <r>   13.2934   -0.0000 </r>
       <r>   13.5739   -0.0000 </r>
      </set>
      <set comment="kpoint 22">
       <r>   -2.1325    1.0000 </r>
       <r>   -1.6425    1.0000 </r>
       <r>   -0.5609    1.0000 </r>
       <r>   -0.2088    1.0000 </r>
       <r>    0.0458    1.0000 </r>
       <r>    0.6443    1.0000 </r>
       <r>    0.8013    1.0000 </r>
       <r>    1.1315    1.0000 </r>
       <r>    1.5402    1.0000 </r>
       <r>    2.2664    1.0000 </r>
       <r>    2.3341    1.0000 </r>
       <r>    2.6930    1.0000 </r>
       <r>    2.8588    1.0000 </r>
       <r>    3.4961    1.0000 </r>
       <r>    3.8586    1.0000 </r>
       <r>    3.9576    1.0000 </r>
       <r>    4.2108    1.0000 </r>
       <r>    4.3299    1.0000 </r>
       <r>    4.9849    1.0000 </r>
       <r>    5.0527    1.0000 </r>
       <r>    5.2568    1.0000 </r>
       <r>    5.3065    1.0000 </r>
       <r>    5.4167    1.0000 </r>
       <r>    5.5495    1.0000 </r>
       <r>    5.7693    1.0000 </r>
       <r>    6.0057    1.0000 </r>
       <r>    6.5322    1.0000 </r>
       <r>    6.6024    1.0000 </r>
       <r>    6.7490    1.0000 </r>
       <r>    7.0093    1.0000 </r>
       <r>    7.3769    1.0000 </r>
       <r>    7.6158    1.0000 </r>
       <r>    7.6681    1.0000 </r>
       <r>    7.9924    1.0000 </r>
       <r>    8.0435    1.0000 </r>
       <r>    8.2320    1.0000 </r>
       <r>    8.4099    1.0000 </r>
       <r>    9.3279    1.0354 </r>
       <r>    9.4249    0.9649 </r>
       <r>    9.4858    0.8171 </r>
       <r>    9.7773   -0.0293 </r>
       <r>    9.9219   -0.0156 </r>
       <r>   10.1508   -0.0001 </r>
       <r>   10.3360   -0.0000 </r>
       <r>   10.6081   -0.0000 </r>
       <r>   10.6259   -0.0000 </r>
       <r>   10.9199   -0.0000 </r>
       <r>   11.0076   -0.0000 </r>
       <r>   11.2411   -0.0000 </r>
       <r>   11.5126   -0.0000 </r>
       <r>   11.6901   -0.0000 </r>
       <r>   11.8533   -0.0000 </r>
       <r>   11.9684   -0.0000 </r>
       <r>   12.1047   -0.0000 </r>
       <r>   12.2783   -0.0000 </r>
       <r>   12.3300   -0.0000 </r>
       <r>   12.4786   -0.0000 </r>
       <r>   12.6668   -0.0000 </r>
       <r>   12.7857   -0.0000 </r>
       <r>   12.9728   -0.0000 </r>
       <r>   13.0300   -0.0000 </r>
       <r>   13.2848   -0.0000 </r>
       <r>   13.3578   -0.0000 </r>
       <r>   13.5975   -0.0000 </r>
      </set>
      <set comment="kpoint 23">
       <r>   -2.1369    1.0000 </r>
       <r>   -1.6353    1.0000 </r>
       <r>   -0.5478    1.0000 </r>
       <r>   -0.2620    1.0000 </r>
       <r>    0.1518    1.0000 </r>
       <r>    0.4723    1.0000 </r>
       <r>    0.9477    1.0000 </r>
       <r>    1.0715    1.0000 </r>
       <r>    1.5860    1.0000 </r>
       <r>    2.1361    1.0000 </r>
       <r>    2.3506    1.0000 </r>
       <r>    2.7516    1.0000 </r>
       <r>    2.9657    1.0000 </r>
       <r>    3.4252    1.0000 </r>
       <r>    3.6841    1.0000 </r>
       <r>    4.2308    1.0000 </r>
       <r>    4.2672    1.0000 </r>
       <r>    4.3368    1.0000 </r>
       <r>    4.7897    1.0000 </r>
       <r>    5.0061    1.0000 </r>
       <r>    5.1642    1.0000 </r>
       <r>    5.2112    1.0000 </r>
       <r>    5.4796    1.0000 </r>
       <r>    5.6670    1.0000 </r>
       <r>    5.7798    1.0000 </r>
       <r>    6.1880    1.0000 </r>
       <r>    6.4136    1.0000 </r>
       <r>    6.6656    1.0000 </r>
       <r>    6.7486    1.0000 </r>
       <r>    7.1104    1.0000 </r>
       <r>    7.2117    1.0000 </r>
       <r>    7.4906    1.0000 </r>
       <r>    7.7057    1.0000 </r>
       <r>    7.8891    1.0000 </r>
       <r>    8.1336    1.0000 </r>
       <r>    8.3713    1.0000 </r>
       <r>    8.4815    1.0000 </r>
       <r>    9.2136    1.0156 </r>
       <r>    9.4215    0.9705 </r>
       <r>    9.5151    0.7150 </r>
       <r>    9.7111    0.0346 </r>
       <r>    9.8561   -0.0302 </r>
       <r>   10.1709   -0.0001 </r>
       <r>   10.3189   -0.0000 </r>
       <r>   10.4957   -0.0000 </r>
       <r>   10.7772   -0.0000 </r>
       <r>   10.9575   -0.0000 </r>
       <r>   11.0749   -0.0000 </r>
       <r>   11.2949   -0.0000 </r>
       <r>   11.4260   -0.0000 </r>
       <r>   11.6729   -0.0000 </r>
       <r>   11.8723   -0.0000 </r>
       <r>   12.0584   -0.0000 </r>
       <r>   12.1059   -0.0000 </r>
       <r>   12.2612   -0.0000 </r>
       <r>   12.3756   -0.0000 </r>
       <r>   12.5464   -0.0000 </r>
       <r>   12.6684   -0.0000 </r>
       <r>   12.7418   -0.0000 </r>
       <r>   12.8857   -0.0000 </r>
       <r>   13.0846   -0.0000 </r>
       <r>   13.1871   -0.0000 </r>
       <r>   13.3112   -0.0000 </r>
       <r>   13.5100   -0.0000 </r>
      </set>
      <set comment="kpoint 24">
       <r>   -2.1005    1.0000 </r>
       <r>   -1.6992    1.0000 </r>
       <r>   -0.5587    1.0000 </r>
       <r>   -0.1719    1.0000 </r>
       <r>    0.0802    1.0000 </r>
       <r>    0.4590    1.0000 </r>
       <r>    1.0399    1.0000 </r>
       <r>    1.0979    1.0000 </r>
       <r>    1.5350    1.0000 </r>
       <r>    2.1406    1.0000 </r>
       <r>    2.4000    1.0000 </r>
       <r>    2.6906    1.0000 </r>
       <r>    2.8696    1.0000 </r>
       <r>    3.4593    1.0000 </r>
       <r>    3.6935    1.0000 </r>
       <r>    4.1610    1.0000 </r>
       <r>    4.2318    1.0000 </r>
       <r>    4.3867    1.0000 </r>
       <r>    4.8389    1.0000 </r>
       <r>    4.9805    1.0000 </r>
       <r>    5.1461    1.0000 </r>
       <r>    5.2777    1.0000 </r>
       <r>    5.4701    1.0000 </r>
       <r>    5.6480    1.0000 </r>
       <r>    5.7646    1.0000 </r>
       <r>    6.1725    1.0000 </r>
       <r>    6.4966    1.0000 </r>
       <r>    6.7177    1.0000 </r>
       <r>    6.8624    1.0000 </r>
       <r>    7.0404    1.0000 </r>
       <r>    7.2063    1.0000 </r>
       <r>    7.4892    1.0000 </r>
       <r>    7.6814    1.0000 </r>
       <r>    7.8483    1.0000 </r>
       <r>    8.1133    1.0000 </r>
       <r>    8.3229    1.0000 </r>
       <r>    8.4836    1.0000 </r>
       <r>    9.2200    1.0169 </r>
       <r>    9.3957    1.0040 </r>
       <r>    9.5190    0.7000 </r>
       <r>    9.7953   -0.0341 </r>
       <r>    9.9154   -0.0169 </r>
       <r>   10.1462   -0.0002 </r>
       <r>   10.3437   -0.0000 </r>
       <r>   10.5215   -0.0000 </r>
       <r>   10.7127   -0.0000 </r>
       <r>   10.9041   -0.0000 </r>
       <r>   11.0789   -0.0000 </r>
       <r>   11.1511   -0.0000 </r>
       <r>   11.4871   -0.0000 </r>
       <r>   11.7549   -0.0000 </r>
       <r>   11.8725   -0.0000 </r>
       <r>   12.0387   -0.0000 </r>
       <r>   12.1633   -0.0000 </r>
       <r>   12.2398   -0.0000 </r>
       <r>   12.3636   -0.0000 </r>
       <r>   12.5479   -0.0000 </r>
       <r>   12.6611   -0.0000 </r>
       <r>   12.6990   -0.0000 </r>
       <r>   12.9073   -0.0000 </r>
       <r>   13.0104   -0.0000 </r>
       <r>   13.2309   -0.0000 </r>
       <r>   13.2996   -0.0000 </r>
       <r>   13.4595   -0.0000 </r>
      </set>
      <set comment="kpoint 25">
       <r>   -2.1106    1.0000 </r>
       <r>   -1.6920    1.0000 </r>
       <r>   -0.4995    1.0000 </r>
       <r>   -0.2872    1.0000 </r>
       <r>    0.1994    1.0000 </r>
       <r>    0.5814    1.0000 </r>
       <r>    0.7448    1.0000 </r>
       <r>    1.1703    1.0000 </r>
       <r>    1.5128    1.0000 </r>
       <r>    2.0819    1.0000 </r>
       <r>    2.5090    1.0000 </r>
       <r>    2.6277    1.0000 </r>
       <r>    2.9230    1.0000 </r>
       <r>    3.4853    1.0000 </r>
       <r>    3.7290    1.0000 </r>
       <r>    4.0797    1.0000 </r>
       <r>    4.2932    1.0000 </r>
       <r>    4.4175    1.0000 </r>
       <r>    4.9086    1.0000 </r>
       <r>    5.0247    1.0000 </r>
       <r>    5.1114    1.0000 </r>
       <r>    5.3896    1.0000 </r>
       <r>    5.4471    1.0000 </r>
       <r>    5.5347    1.0000 </r>
       <r>    5.6971    1.0000 </r>
       <r>    6.0957    1.0000 </r>
       <r>    6.5283    1.0000 </r>
       <r>    6.6927    1.0000 </r>
       <r>    6.8036    1.0000 </r>
       <r>    6.9822    1.0000 </r>
       <r>    7.3360    1.0000 </r>
       <r>    7.4830    1.0000 </r>
       <r>    7.7813    1.0000 </r>
       <r>    7.8740    1.0000 </r>
       <r>    8.1134    1.0000 </r>
       <r>    8.2284    1.0000 </r>
       <r>    8.3408    1.0000 </r>
       <r>    9.2995    1.0337 </r>
       <r>    9.4280    0.9596 </r>
       <r>    9.5470    0.5877 </r>
       <r>    9.7557   -0.0176 </r>
       <r>    9.9641   -0.0085 </r>
       <r>   10.1402   -0.0002 </r>
       <r>   10.3394   -0.0000 </r>
       <r>   10.4808   -0.0000 </r>
       <r>   10.7376   -0.0000 </r>
       <r>   10.8851   -0.0000 </r>
       <r>   11.0616   -0.0000 </r>
       <r>   11.2526   -0.0000 </r>
       <r>   11.3504   -0.0000 </r>
       <r>   11.7436   -0.0000 </r>
       <r>   11.8880   -0.0000 </r>
       <r>   12.0316   -0.0000 </r>
       <r>   12.0959   -0.0000 </r>
       <r>   12.2654   -0.0000 </r>
       <r>   12.3924   -0.0000 </r>
       <r>   12.5251   -0.0000 </r>
       <r>   12.6580   -0.0000 </r>
       <r>   12.7731   -0.0000 </r>
       <r>   12.9719   -0.0000 </r>
       <r>   13.1018   -0.0000 </r>
       <r>   13.2032   -0.0000 </r>
       <r>   13.3234   -0.0000 </r>
       <r>   13.5527   -0.0000 </r>
      </set>
      <set comment="kpoint 26">
       <r>   -2.1111    1.0000 </r>
       <r>   -1.6941    1.0000 </r>
       <r>   -0.4476    1.0000 </r>
       <r>   -0.2790    1.0000 </r>
       <r>    0.0486    1.0000 </r>
       <r>    0.6767    1.0000 </r>
       <r>    0.7802    1.0000 </r>
       <r>    1.1035    1.0000 </r>
       <r>    1.5277    1.0000 </r>
       <r>    2.2167    1.0000 </r>
       <r>    2.5130    1.0000 </r>
       <r>    2.5693    1.0000 </r>
       <r>    2.7482    1.0000 </r>
       <r>    3.5922    1.0000 </r>
       <r>    3.9109    1.0000 </r>
       <r>    4.0305    1.0000 </r>
       <r>    4.1439    1.0000 </r>
       <r>    4.3538    1.0000 </r>
       <r>    4.9352    1.0000 </r>
       <r>    5.0922    1.0000 </r>
       <r>    5.1773    1.0000 </r>
       <r>    5.3294    1.0000 </r>
       <r>    5.4060    1.0000 </r>
       <r>    5.5974    1.0000 </r>
       <r>    5.7583    1.0000 </r>
       <r>    6.0011    1.0000 </r>
       <r>    6.5456    1.0000 </r>
       <r>    6.6006    1.0000 </r>
       <r>    6.7703    1.0000 </r>
       <r>    6.9912    1.0000 </r>
       <r>    7.3838    1.0000 </r>
       <r>    7.5672    1.0000 </r>
       <r>    7.7379    1.0000 </r>
       <r>    7.8851    1.0000 </r>
       <r>    8.0826    1.0000 </r>
       <r>    8.2841    1.0000 </r>
       <r>    8.3455    1.0000 </r>
       <r>    9.2361    1.0204 </r>
       <r>    9.3928    1.0069 </r>
       <r>    9.5482    0.5827 </r>
       <r>    9.7796   -0.0302 </r>
       <r>    9.9289   -0.0142 </r>
       <r>   10.1501   -0.0002 </r>
       <r>   10.3526   -0.0000 </r>
       <r>   10.6509   -0.0000 </r>
       <r>   10.7158   -0.0000 </r>
       <r>   10.8271   -0.0000 </r>
       <r>   11.0410   -0.0000 </r>
       <r>   11.3124   -0.0000 </r>
       <r>   11.4970   -0.0000 </r>
       <r>   11.6806   -0.0000 </r>
       <r>   11.8063   -0.0000 </r>
       <r>   12.0274   -0.0000 </r>
       <r>   12.1378   -0.0000 </r>
       <r>   12.2117   -0.0000 </r>
       <r>   12.3600   -0.0000 </r>
       <r>   12.4954   -0.0000 </r>
       <r>   12.6005   -0.0000 </r>
       <r>   12.8135   -0.0000 </r>
       <r>   12.8929   -0.0000 </r>
       <r>   13.0073   -0.0000 </r>
       <r>   13.2358   -0.0000 </r>
       <r>   13.3396   -0.0000 </r>
       <r>   13.5466   -0.0000 </r>
      </set>
      <set comment="kpoint 27">
       <r>   -2.0952    1.0000 </r>
       <r>   -1.6926    1.0000 </r>
       <r>   -0.5450    1.0000 </r>
       <r>   -0.2578    1.0000 </r>
       <r>    0.0688    1.0000 </r>
       <r>    0.4260    1.0000 </r>
       <r>    1.0469    1.0000 </r>
       <r>    1.2292    1.0000 </r>
       <r>    1.6087    1.0000 </r>
       <r>    2.1349    1.0000 </r>
       <r>    2.4035    1.0000 </r>
       <r>    2.6101    1.0000 </r>
       <r>    2.9603    1.0000 </r>
       <r>    3.4694    1.0000 </r>
       <r>    3.6945    1.0000 </r>
       <r>    4.0969    1.0000 </r>
       <r>    4.1254    1.0000 </r>
       <r>    4.2764    1.0000 </r>
       <r>    4.7781    1.0000 </r>
       <r>    5.0644    1.0000 </r>
       <r>    5.1493    1.0000 </r>
       <r>    5.2323    1.0000 </r>
       <r>    5.5272    1.0000 </r>
       <r>    5.6210    1.0000 </r>
       <r>    5.9270    1.0000 </r>
       <r>    6.0486    1.0000 </r>
       <r>    6.3980    1.0000 </r>
       <r>    6.6859    1.0000 </r>
       <r>    6.8692    1.0000 </r>
       <r>    7.0423    1.0000 </r>
       <r>    7.3108    1.0000 </r>
       <r>    7.4703    1.0000 </r>
       <r>    7.8712    1.0000 </r>
       <r>    8.0291    1.0000 </r>
       <r>    8.1661    1.0000 </r>
       <r>    8.3745    1.0000 </r>
       <r>    8.4257    1.0000 </r>
       <r>    9.1801    1.0097 </r>
       <r>    9.3747    1.0212 </r>
       <r>    9.4812    0.8313 </r>
       <r>    9.7692   -0.0258 </r>
       <r>    9.9343   -0.0132 </r>
       <r>   10.1920   -0.0000 </r>
       <r>   10.3030   -0.0000 </r>
       <r>   10.3955   -0.0000 </r>
       <r>   10.7161   -0.0000 </r>
       <r>   10.9012   -0.0000 </r>
       <r>   11.0141   -0.0000 </r>
       <r>   11.2339   -0.0000 </r>
       <r>   11.4375   -0.0000 </r>
       <r>   11.6528   -0.0000 </r>
       <r>   11.9012   -0.0000 </r>
       <r>   11.9767   -0.0000 </r>
       <r>   12.1161   -0.0000 </r>
       <r>   12.2932   -0.0000 </r>
       <r>   12.3469   -0.0000 </r>
       <r>   12.4528   -0.0000 </r>
       <r>   12.5916   -0.0000 </r>
       <r>   12.6411   -0.0000 </r>
       <r>   12.9444   -0.0000 </r>
       <r>   13.1126   -0.0000 </r>
       <r>   13.2329   -0.0000 </r>
       <r>   13.3671   -0.0000 </r>
       <r>   13.4614   -0.0000 </r>
      </set>
      <set comment="kpoint 28">
       <r>   -2.0965    1.0000 </r>
       <r>   -1.7079    1.0000 </r>
       <r>   -0.5243    1.0000 </r>
       <r>   -0.1874    1.0000 </r>
       <r>   -0.0083    1.0000 </r>
       <r>    0.6671    1.0000 </r>
       <r>    0.8298    1.0000 </r>
       <r>    1.1461    1.0000 </r>
       <r>    1.5909    1.0000 </r>
       <r>    2.1555    1.0000 </r>
       <r>    2.3862    1.0000 </r>
       <r>    2.6641    1.0000 </r>
       <r>    2.7984    1.0000 </r>
       <r>    3.5093    1.0000 </r>
       <r>    3.8553    1.0000 </r>
       <r>    3.9837    1.0000 </r>
       <r>    4.1947    1.0000 </r>
       <r>    4.2681    1.0000 </r>
       <r>    5.0527    1.0000 </r>
       <r>    5.1131    1.0000 </r>
       <r>    5.2262    1.0000 </r>
       <r>    5.3024    1.0000 </r>
       <r>    5.4436    1.0000 </r>
       <r>    5.5314    1.0000 </r>
       <r>    5.8073    1.0000 </r>
       <r>    5.9791    1.0000 </r>
       <r>    6.5130    1.0000 </r>
       <r>    6.6876    1.0000 </r>
       <r>    6.7639    1.0000 </r>
       <r>    6.9206    1.0000 </r>
       <r>    7.3793    1.0000 </r>
       <r>    7.6342    1.0000 </r>
       <r>    7.7675    1.0000 </r>
       <r>    7.9008    1.0000 </r>
       <r>    8.0786    1.0000 </r>
       <r>    8.2632    1.0000 </r>
       <r>    8.3458    1.0000 </r>
       <r>    9.1863    1.0106 </r>
       <r>    9.4083    0.9895 </r>
       <r>    9.5302    0.6564 </r>
       <r>    9.8205   -0.0352 </r>
       <r>    9.9670   -0.0081 </r>
       <r>   10.1247   -0.0003 </r>
       <r>   10.3480   -0.0000 </r>
       <r>   10.5329   -0.0000 </r>
       <r>   10.7449   -0.0000 </r>
       <r>   10.8616   -0.0000 </r>
       <r>   11.0559   -0.0000 </r>
       <r>   11.3254   -0.0000 </r>
       <r>   11.4953   -0.0000 </r>
       <r>   11.6619   -0.0000 </r>
       <r>   11.8790   -0.0000 </r>
       <r>   11.9526   -0.0000 </r>
       <r>   12.0374   -0.0000 </r>
       <r>   12.1885   -0.0000 </r>
       <r>   12.4060   -0.0000 </r>
       <r>   12.5498   -0.0000 </r>
       <r>   12.5716   -0.0000 </r>
       <r>   12.7218   -0.0000 </r>
       <r>   12.9273   -0.0000 </r>
       <r>   13.0398   -0.0000 </r>
       <r>   13.3168   -0.0000 </r>
       <r>   13.4060   -0.0000 </r>
       <r>   13.6177   -0.0000 </r>
      </set>
      <set comment="kpoint 29">
       <r>   -2.5748    1.0000 </r>
       <r>   -0.7702    1.0000 </r>
       <r>   -0.3639    1.0000 </r>
       <r>   -0.0405    1.0000 </r>
       <r>    0.1844    1.0000 </r>
       <r>    0.4583    1.0000 </r>
       <r>    0.9625    1.0000 </r>
       <r>    1.1466    1.0000 </r>
       <r>    1.3724    1.0000 </r>
       <r>    1.5993    1.0000 </r>
       <r>    1.7501    1.0000 </r>
       <r>    2.2264    1.0000 </r>
       <r>    2.5448    1.0000 </r>
       <r>    2.6611    1.0000 </r>
       <r>    3.5663    1.0000 </r>
       <r>    3.7765    1.0000 </r>
       <r>    4.0154    1.0000 </r>
       <r>    4.8305    1.0000 </r>
       <r>    5.0002    1.0000 </r>
       <r>    5.2714    1.0000 </r>
       <r>    5.7601    1.0000 </r>
       <r>    6.0630    1.0000 </r>
       <r>    6.1105    1.0000 </r>
       <r>    6.5944    1.0000 </r>
       <r>    6.6848    1.0000 </r>
       <r>    6.8193    1.0000 </r>
       <r>    6.9396    1.0000 </r>
       <r>    7.0730    1.0000 </r>
       <r>    7.2319    1.0000 </r>
       <r>    7.3006    1.0000 </r>
       <r>    7.4662    1.0000 </r>
       <r>    7.6278    1.0000 </r>
       <r>    7.8768    1.0000 </r>
       <r>    7.9642    1.0000 </r>
       <r>    8.0134    1.0000 </r>
       <r>    8.3203    1.0000 </r>
       <r>    8.5259    1.0000 </r>
       <r>    8.5882    1.0000 </r>
       <r>    8.7902    1.0000 </r>
       <r>    9.0601    1.0010 </r>
       <r>    9.2393    1.0211 </r>
       <r>    9.5021    0.7625 </r>
       <r>    9.5873    0.4184 </r>
       <r>    9.7070    0.0417 </r>
       <r>    9.7964   -0.0343 </r>
       <r>   10.0611   -0.0013 </r>
       <r>   10.2229   -0.0000 </r>
       <r>   10.6255   -0.0000 </r>
       <r>   10.6964   -0.0000 </r>
       <r>   10.9757   -0.0000 </r>
       <r>   11.2475   -0.0000 </r>
       <r>   11.3648   -0.0000 </r>
       <r>   11.5433   -0.0000 </r>
       <r>   11.6027   -0.0000 </r>
       <r>   11.7446   -0.0000 </r>
       <r>   11.8991   -0.0000 </r>
       <r>   12.0301   -0.0000 </r>
       <r>   12.1311   -0.0000 </r>
       <r>   12.5840   -0.0000 </r>
       <r>   12.8507   -0.0000 </r>
       <r>   13.1102   -0.0000 </r>
       <r>   13.3139   -0.0000 </r>
       <r>   13.5597   -0.0000 </r>
       <r>   13.7327   -0.0000 </r>
      </set>
      <set comment="kpoint 30">
       <r>   -2.5754    1.0000 </r>
       <r>   -0.7527    1.0000 </r>
       <r>   -0.3501    1.0000 </r>
       <r>   -0.1281    1.0000 </r>
       <r>    0.2584    1.0000 </r>
       <r>    0.4762    1.0000 </r>
       <r>    0.8635    1.0000 </r>
       <r>    1.1254    1.0000 </r>
       <r>    1.3982    1.0000 </r>
       <r>    1.6367    1.0000 </r>
       <r>    1.8348    1.0000 </r>
       <r>    2.2083    1.0000 </r>
       <r>    2.4284    1.0000 </r>
       <r>    2.7543    1.0000 </r>
       <r>    3.5629    1.0000 </r>
       <r>    3.8108    1.0000 </r>
       <r>    3.9748    1.0000 </r>
       <r>    4.8571    1.0000 </r>
       <r>    5.0161    1.0000 </r>
       <r>    5.1949    1.0000 </r>
       <r>    5.7992    1.0000 </r>
       <r>    5.9720    1.0000 </r>
       <r>    6.0780    1.0000 </r>
       <r>    6.6021    1.0000 </r>
       <r>    6.6815    1.0000 </r>
       <r>    6.7955    1.0000 </r>
       <r>    7.0364    1.0000 </r>
       <r>    7.0878    1.0000 </r>
       <r>    7.2151    1.0000 </r>
       <r>    7.3144    1.0000 </r>
       <r>    7.4269    1.0000 </r>
       <r>    7.6499    1.0000 </r>
       <r>    7.8742    1.0000 </r>
       <r>    7.9987    1.0000 </r>
       <r>    8.1161    1.0000 </r>
       <r>    8.2073    1.0000 </r>
       <r>    8.5867    1.0000 </r>
       <r>    8.6847    1.0000 </r>
       <r>    8.8514    1.0000 </r>
       <r>    9.0533    1.0008 </r>
       <r>    9.2843    1.0311 </r>
       <r>    9.3633    1.0273 </r>
       <r>    9.4817    0.8298 </r>
       <r>    9.5854    0.4261 </r>
       <r>    9.9236   -0.0153 </r>
       <r>   10.0251   -0.0029 </r>
       <r>   10.1947   -0.0000 </r>
       <r>   10.6526   -0.0000 </r>
       <r>   10.7778   -0.0000 </r>
       <r>   11.0256   -0.0000 </r>
       <r>   11.2180   -0.0000 </r>
       <r>   11.2947   -0.0000 </r>
       <r>   11.4398   -0.0000 </r>
       <r>   11.5785   -0.0000 </r>
       <r>   11.7541   -0.0000 </r>
       <r>   11.9290   -0.0000 </r>
       <r>   11.9675   -0.0000 </r>
       <r>   12.1125   -0.0000 </r>
       <r>   12.6197   -0.0000 </r>
       <r>   12.9526   -0.0000 </r>
       <r>   13.1990   -0.0000 </r>
       <r>   13.4434   -0.0000 </r>
       <r>   13.5432   -0.0000 </r>
       <r>   13.7440   -0.0000 </r>
      </set>
      <set comment="kpoint 31">
       <r>   -2.5726    1.0000 </r>
       <r>   -0.7571    1.0000 </r>
       <r>   -0.3108    1.0000 </r>
       <r>   -0.2064    1.0000 </r>
       <r>    0.2041    1.0000 </r>
       <r>    0.4862    1.0000 </r>
       <r>    0.9712    1.0000 </r>
       <r>    1.1648    1.0000 </r>
       <r>    1.4542    1.0000 </r>
       <r>    1.6644    1.0000 </r>
       <r>    1.8891    1.0000 </r>
       <r>    2.1879    1.0000 </r>
       <r>    2.2452    1.0000 </r>
       <r>    2.6329    1.0000 </r>
       <r>    3.6392    1.0000 </r>
       <r>    3.8015    1.0000 </r>
       <r>    4.0831    1.0000 </r>
       <r>    4.7571    1.0000 </r>
       <r>    5.0815    1.0000 </r>
       <r>    5.1346    1.0000 </r>
       <r>    5.7719    1.0000 </r>
       <r>    6.0165    1.0000 </r>
       <r>    6.0931    1.0000 </r>
       <r>    6.4882    1.0000 </r>
       <r>    6.7690    1.0000 </r>
       <r>    6.8265    1.0000 </r>
       <r>    7.0521    1.0000 </r>
       <r>    7.1087    1.0000 </r>
       <r>    7.2175    1.0000 </r>
       <r>    7.3446    1.0000 </r>
       <r>    7.5169    1.0000 </r>
       <r>    7.7153    1.0000 </r>
       <r>    7.8587    1.0000 </r>
       <r>    7.8938    1.0000 </r>
       <r>    7.9919    1.0000 </r>
       <r>    8.3269    1.0000 </r>
       <r>    8.4221    1.0000 </r>
       <r>    8.7510    1.0000 </r>
       <r>    8.8254    1.0000 </r>
       <r>    9.0786    1.0015 </r>
       <r>    9.2583    1.0255 </r>
       <r>    9.3744    1.0214 </r>
       <r>    9.5223    0.6874 </r>
       <r>    9.6639    0.1411 </r>
       <r>    9.8288   -0.0346 </r>
       <r>    9.9364   -0.0129 </r>
       <r>   10.2932   -0.0000 </r>
       <r>   10.6855   -0.0000 </r>
       <r>   10.8025   -0.0000 </r>
       <r>   10.9618   -0.0000 </r>
       <r>   11.1371   -0.0000 </r>
       <r>   11.3271   -0.0000 </r>
       <r>   11.5073   -0.0000 </r>
       <r>   11.6106   -0.0000 </r>
       <r>   11.7272   -0.0000 </r>
       <r>   11.9288   -0.0000 </r>
       <r>   11.9958   -0.0000 </r>
       <r>   12.1774   -0.0000 </r>
       <r>   12.5834   -0.0000 </r>
       <r>   12.8763   -0.0000 </r>
       <r>   13.0150   -0.0000 </r>
       <r>   13.3364   -0.0000 </r>
       <r>   13.6682   -0.0000 </r>
       <r>   13.7838   -0.0000 </r>
      </set>
      <set comment="kpoint 32">
       <r>   -2.5732    1.0000 </r>
       <r>   -0.7408    1.0000 </r>
       <r>   -0.4353    1.0000 </r>
       <r>   -0.0168    1.0000 </r>
       <r>    0.1884    1.0000 </r>
       <r>    0.4986    1.0000 </r>
       <r>    0.7954    1.0000 </r>
       <r>    1.2514    1.0000 </r>
       <r>    1.3530    1.0000 </r>
       <r>    1.6555    1.0000 </r>
       <r>    1.9675    1.0000 </r>
       <r>    2.1291    1.0000 </r>
       <r>    2.3883    1.0000 </r>
       <r>    2.6864    1.0000 </r>
       <r>    3.5696    1.0000 </r>
       <r>    3.7720    1.0000 </r>
       <r>    4.1162    1.0000 </r>
       <r>    4.6616    1.0000 </r>
       <r>    5.0858    1.0000 </r>
       <r>    5.1433    1.0000 </r>
       <r>    5.8187    1.0000 </r>
       <r>    6.0496    1.0000 </r>
       <r>    6.1132    1.0000 </r>
       <r>    6.6164    1.0000 </r>
       <r>    6.6411    1.0000 </r>
       <r>    6.7930    1.0000 </r>
       <r>    6.9312    1.0000 </r>
       <r>    7.0798    1.0000 </r>
       <r>    7.2980    1.0000 </r>
       <r>    7.4242    1.0000 </r>
       <r>    7.4963    1.0000 </r>
       <r>    7.6276    1.0000 </r>
       <r>    7.7426    1.0000 </r>
       <r>    7.8407    1.0000 </r>
       <r>    8.0807    1.0000 </r>
       <r>    8.3829    1.0000 </r>
       <r>    8.6432    1.0000 </r>
       <r>    8.7518    1.0000 </r>
       <r>    8.8766    1.0000 </r>
       <r>    9.0081    1.0003 </r>
       <r>    9.2800    1.0302 </r>
       <r>    9.4042    0.9946 </r>
       <r>    9.4873    0.8120 </r>
       <r>    9.6371    0.2255 </r>
       <r>    9.7185    0.0229 </r>
       <r>   10.0708   -0.0011 </r>
       <r>   10.2343   -0.0000 </r>
       <r>   10.6990   -0.0000 </r>
       <r>   10.8550   -0.0000 </r>
       <r>   10.9768   -0.0000 </r>
       <r>   11.0865   -0.0000 </r>
       <r>   11.3064   -0.0000 </r>
       <r>   11.3994   -0.0000 </r>
       <r>   11.5135   -0.0000 </r>
       <r>   11.7562   -0.0000 </r>
       <r>   11.8410   -0.0000 </r>
       <r>   11.9974   -0.0000 </r>
       <r>   12.2867   -0.0000 </r>
       <r>   12.6216   -0.0000 </r>
       <r>   12.8679   -0.0000 </r>
       <r>   13.0785   -0.0000 </r>
       <r>   13.3282   -0.0000 </r>
       <r>   13.7399   -0.0000 </r>
       <r>   13.8581   -0.0000 </r>
      </set>
      <set comment="kpoint 33">
       <r>   -2.5760    1.0000 </r>
       <r>   -0.7782    1.0000 </r>
       <r>   -0.3279    1.0000 </r>
       <r>   -0.0836    1.0000 </r>
       <r>    0.2400    1.0000 </r>
       <r>    0.4869    1.0000 </r>
       <r>    0.8481    1.0000 </r>
       <r>    1.1720    1.0000 </r>
       <r>    1.3853    1.0000 </r>
       <r>    1.4908    1.0000 </r>
       <r>    1.8507    1.0000 </r>
       <r>    2.2766    1.0000 </r>
       <r>    2.4531    1.0000 </r>
       <r>    2.7007    1.0000 </r>
       <r>    3.5400    1.0000 </r>
       <r>    3.8509    1.0000 </r>
       <r>    4.0540    1.0000 </r>
       <r>    4.8317    1.0000 </r>
       <r>    4.9798    1.0000 </r>
       <r>    5.2231    1.0000 </r>
       <r>    5.7698    1.0000 </r>
       <r>    6.0582    1.0000 </r>
       <r>    6.1040    1.0000 </r>
       <r>    6.5377    1.0000 </r>
       <r>    6.7091    1.0000 </r>
       <r>    6.8146    1.0000 </r>
       <r>    6.9250    1.0000 </r>
       <r>    7.0564    1.0000 </r>
       <r>    7.1438    1.0000 </r>
       <r>    7.3650    1.0000 </r>
       <r>    7.5336    1.0000 </r>
       <r>    7.6651    1.0000 </r>
       <r>    7.8649    1.0000 </r>
       <r>    7.9547    1.0000 </r>
       <r>    8.0535    1.0000 </r>
       <r>    8.3327    1.0000 </r>
       <r>    8.5242    1.0000 </r>
       <r>    8.6711    1.0000 </r>
       <r>    8.8759    1.0000 </r>
       <r>    8.9563    1.0001 </r>
       <r>    9.2196    1.0168 </r>
       <r>    9.3525    1.0314 </r>
       <r>    9.4796    0.8362 </r>
       <r>    9.6634    0.1424 </r>
       <r>    9.8885   -0.0229 </r>
       <r>   10.0449   -0.0019 </r>
       <r>   10.2082   -0.0000 </r>
       <r>   10.6478   -0.0000 </r>
       <r>   10.8405   -0.0000 </r>
       <r>   11.0052   -0.0000 </r>
       <r>   11.2443   -0.0000 </r>
       <r>   11.3633   -0.0000 </r>
       <r>   11.5221   -0.0000 </r>
       <r>   11.6468   -0.0000 </r>
       <r>   11.7399   -0.0000 </r>
       <r>   11.8920   -0.0000 </r>
       <r>   12.0154   -0.0000 </r>
       <r>   12.0919   -0.0000 </r>
       <r>   12.5300   -0.0000 </r>
       <r>   12.9329   -0.0000 </r>
       <r>   13.1129   -0.0000 </r>
       <r>   13.3956   -0.0000 </r>
       <r>   13.6383   -0.0000 </r>
       <r>   13.7286   -0.0000 </r>
      </set>
      <set comment="kpoint 34">
       <r>   -2.5755    1.0000 </r>
       <r>   -0.7521    1.0000 </r>
       <r>   -0.3239    1.0000 </r>
       <r>   -0.1658    1.0000 </r>
       <r>    0.2056    1.0000 </r>
       <r>    0.5335    1.0000 </r>
       <r>    0.8717    1.0000 </r>
       <r>    1.2323    1.0000 </r>
       <r>    1.3826    1.0000 </r>
       <r>    1.5847    1.0000 </r>
       <r>    1.8103    1.0000 </r>
       <r>    2.2021    1.0000 </r>
       <r>    2.4160    1.0000 </r>
       <r>    2.6460    1.0000 </r>
       <r>    3.6445    1.0000 </r>
       <r>    3.9042    1.0000 </r>
       <r>    3.9774    1.0000 </r>
       <r>    4.8631    1.0000 </r>
       <r>    4.9840    1.0000 </r>
       <r>    5.0887    1.0000 </r>
       <r>    5.8023    1.0000 </r>
       <r>    6.0023    1.0000 </r>
       <r>    6.1399    1.0000 </r>
       <r>    6.6576    1.0000 </r>
       <r>    6.7791    1.0000 </r>
       <r>    6.8131    1.0000 </r>
       <r>    6.9042    1.0000 </r>
       <r>    7.0703    1.0000 </r>
       <r>    7.2116    1.0000 </r>
       <r>    7.3076    1.0000 </r>
       <r>    7.4861    1.0000 </r>
       <r>    7.6675    1.0000 </r>
       <r>    7.7262    1.0000 </r>
       <r>    7.9682    1.0000 </r>
       <r>    8.2077    1.0000 </r>
       <r>    8.2571    1.0000 </r>
       <r>    8.5398    1.0000 </r>
       <r>    8.5783    1.0000 </r>
       <r>    8.7966    1.0000 </r>
       <r>    9.0071    1.0003 </r>
       <r>    9.2957    1.0331 </r>
       <r>    9.3738    1.0218 </r>
       <r>    9.5434    0.6025 </r>
       <r>    9.6738    0.1142 </r>
       <r>    9.8327   -0.0341 </r>
       <r>   10.0461   -0.0019 </r>
       <r>   10.2290   -0.0000 </r>
       <r>   10.5903   -0.0000 </r>
       <r>   10.8012   -0.0000 </r>
       <r>   10.9866   -0.0000 </r>
       <r>   11.2960   -0.0000 </r>
       <r>   11.3804   -0.0000 </r>
       <r>   11.4710   -0.0000 </r>
       <r>   11.7065   -0.0000 </r>
       <r>   11.7675   -0.0000 </r>
       <r>   11.8415   -0.0000 </r>
       <r>   11.9569   -0.0000 </r>
       <r>   12.1253   -0.0000 </r>
       <r>   12.6017   -0.0000 </r>
       <r>   12.9008   -0.0000 </r>
       <r>   13.1010   -0.0000 </r>
       <r>   13.2382   -0.0000 </r>
       <r>   13.6107   -0.0000 </r>
       <r>   13.8127   -0.0000 </r>
      </set>
      <set comment="kpoint 35">
       <r>   -2.5772    1.0000 </r>
       <r>   -0.7208    1.0000 </r>
       <r>   -0.4496    1.0000 </r>
       <r>   -0.0218    1.0000 </r>
       <r>    0.2459    1.0000 </r>
       <r>    0.5255    1.0000 </r>
       <r>    0.8115    1.0000 </r>
       <r>    1.1391    1.0000 </r>
       <r>    1.3787    1.0000 </r>
       <r>    1.5064    1.0000 </r>
       <r>    1.9240    1.0000 </r>
       <r>    2.1905    1.0000 </r>
       <r>    2.3999    1.0000 </r>
       <r>    2.8173    1.0000 </r>
       <r>    3.5175    1.0000 </r>
       <r>    3.7369    1.0000 </r>
       <r>    4.2806    1.0000 </r>
       <r>    4.7142    1.0000 </r>
       <r>    4.9380    1.0000 </r>
       <r>    5.2317    1.0000 </r>
       <r>    5.7211    1.0000 </r>
       <r>    6.0839    1.0000 </r>
       <r>    6.2257    1.0000 </r>
       <r>    6.4334    1.0000 </r>
       <r>    6.6754    1.0000 </r>
       <r>    6.8362    1.0000 </r>
       <r>    6.9622    1.0000 </r>
       <r>    7.1266    1.0000 </r>
       <r>    7.1895    1.0000 </r>
       <r>    7.3905    1.0000 </r>
       <r>    7.4788    1.0000 </r>
       <r>    7.6976    1.0000 </r>
       <r>    7.7931    1.0000 </r>
       <r>    7.8310    1.0000 </r>
       <r>    8.0410    1.0000 </r>
       <r>    8.3948    1.0000 </r>
       <r>    8.5437    1.0000 </r>
       <r>    8.6502    1.0000 </r>
       <r>    8.8933    1.0000 </r>
       <r>    9.0422    1.0006 </r>
       <r>    9.1040    1.0025 </r>
       <r>    9.3884    1.0109 </r>
       <r>    9.4931    0.7933 </r>
       <r>    9.6783    0.1025 </r>
       <r>    9.8385   -0.0333 </r>
       <r>   10.0579   -0.0014 </r>
       <r>   10.3013   -0.0000 </r>
       <r>   10.6346   -0.0000 </r>
       <r>   10.7934   -0.0000 </r>
       <r>   10.9613   -0.0000 </r>
       <r>   11.2370   -0.0000 </r>
       <r>   11.3358   -0.0000 </r>
       <r>   11.4997   -0.0000 </r>
       <r>   11.6354   -0.0000 </r>
       <r>   11.7571   -0.0000 </r>
       <r>   11.8937   -0.0000 </r>
       <r>   12.0029   -0.0000 </r>
       <r>   12.2922   -0.0000 </r>
       <r>   12.5000   -0.0000 </r>
       <r>   12.8977   -0.0000 </r>
       <r>   12.9736   -0.0000 </r>
       <r>   13.4418   -0.0000 </r>
       <r>   13.6691   -0.0000 </r>
       <r>   13.9053   -0.0000 </r>
      </set>
      <set comment="kpoint 36">
       <r>   -2.5744    1.0000 </r>
       <r>   -0.7682    1.0000 </r>
       <r>   -0.4225    1.0000 </r>
       <r>    0.0141    1.0000 </r>
       <r>    0.2411    1.0000 </r>
       <r>    0.5303    1.0000 </r>
       <r>    0.7898    1.0000 </r>
       <r>    1.1916    1.0000 </r>
       <r>    1.2904    1.0000 </r>
       <r>    1.5607    1.0000 </r>
       <r>    1.8984    1.0000 </r>
       <r>    2.1741    1.0000 </r>
       <r>    2.4435    1.0000 </r>
       <r>    2.8495    1.0000 </r>
       <r>    3.5353    1.0000 </r>
       <r>    3.6764    1.0000 </r>
       <r>    4.2215    1.0000 </r>
       <r>    4.7366    1.0000 </r>
       <r>    4.9352    1.0000 </r>
       <r>    5.1485    1.0000 </r>
       <r>    5.8317    1.0000 </r>
       <r>    6.0626    1.0000 </r>
       <r>    6.1977    1.0000 </r>
       <r>    6.5532    1.0000 </r>
       <r>    6.6782    1.0000 </r>
       <r>    6.7800    1.0000 </r>
       <r>    7.0116    1.0000 </r>
       <r>    7.0782    1.0000 </r>
       <r>    7.2671    1.0000 </r>
       <r>    7.3271    1.0000 </r>
       <r>    7.4487    1.0000 </r>
       <r>    7.5948    1.0000 </r>
       <r>    7.8153    1.0000 </r>
       <r>    7.9812    1.0000 </r>
       <r>    8.1168    1.0000 </r>
       <r>    8.3582    1.0000 </r>
       <r>    8.4979    1.0000 </r>
       <r>    8.5938    1.0000 </r>
       <r>    8.8926    1.0000 </r>
       <r>    9.0110    1.0003 </r>
       <r>    9.2546    1.0246 </r>
       <r>    9.3774    1.0194 </r>
       <r>    9.4553    0.9026 </r>
       <r>    9.5947    0.3876 </r>
       <r>    9.8078   -0.0354 </r>
       <r>   10.0618   -0.0013 </r>
       <r>   10.3453   -0.0000 </r>
       <r>   10.6687   -0.0000 </r>
       <r>   10.8301   -0.0000 </r>
       <r>   10.9966   -0.0000 </r>
       <r>   11.1918   -0.0000 </r>
       <r>   11.2908   -0.0000 </r>
       <r>   11.4470   -0.0000 </r>
       <r>   11.5915   -0.0000 </r>
       <r>   11.6585   -0.0000 </r>
       <r>   11.9645   -0.0000 </r>
       <r>   12.1091   -0.0000 </r>
       <r>   12.2280   -0.0000 </r>
       <r>   12.5292   -0.0000 </r>
       <r>   12.8013   -0.0000 </r>
       <r>   13.0379   -0.0000 </r>
       <r>   13.4311   -0.0000 </r>
       <r>   13.7617   -0.0000 </r>
       <r>   13.9128   -0.0000 </r>
      </set>
      <set comment="kpoint 37">
       <r>   -2.5750    1.0000 </r>
       <r>   -0.7904    1.0000 </r>
       <r>   -0.2931    1.0000 </r>
       <r>   -0.1575    1.0000 </r>
       <r>    0.2908    1.0000 </r>
       <r>    0.5090    1.0000 </r>
       <r>    0.8858    1.0000 </r>
       <r>    1.1090    1.0000 </r>
       <r>    1.4081    1.0000 </r>
       <r>    1.5071    1.0000 </r>
       <r>    1.9016    1.0000 </r>
       <r>    2.1858    1.0000 </r>
       <r>    2.3177    1.0000 </r>
       <r>    2.7971    1.0000 </r>
       <r>    3.6161    1.0000 </r>
       <r>    3.7994    1.0000 </r>
       <r>    4.1544    1.0000 </r>
       <r>    4.7907    1.0000 </r>
       <r>    4.9612    1.0000 </r>
       <r>    5.0964    1.0000 </r>
       <r>    5.7560    1.0000 </r>
       <r>    6.0364    1.0000 </r>
       <r>    6.2431    1.0000 </r>
       <r>    6.5669    1.0000 </r>
       <r>    6.7071    1.0000 </r>
       <r>    6.8260    1.0000 </r>
       <r>    6.9950    1.0000 </r>
       <r>    7.0572    1.0000 </r>
       <r>    7.2026    1.0000 </r>
       <r>    7.3966    1.0000 </r>
       <r>    7.5011    1.0000 </r>
       <r>    7.6267    1.0000 </r>
       <r>    7.8446    1.0000 </r>
       <r>    7.8802    1.0000 </r>
       <r>    8.0912    1.0000 </r>
       <r>    8.3623    1.0000 </r>
       <r>    8.4479    1.0000 </r>
       <r>    8.6793    1.0000 </r>
       <r>    8.7784    1.0000 </r>
       <r>    8.8946    1.0000 </r>
       <r>    9.1697    1.0082 </r>
       <r>    9.3877    1.0116 </r>
       <r>    9.5377    0.6261 </r>
       <r>    9.7083    0.0395 </r>
       <r>    9.8516   -0.0311 </r>
       <r>    9.9330   -0.0135 </r>
       <r>   10.4020   -0.0000 </r>
       <r>   10.6616   -0.0000 </r>
       <r>   10.7884   -0.0000 </r>
       <r>   10.9391   -0.0000 </r>
       <r>   11.3478   -0.0000 </r>
       <r>   11.4136   -0.0000 </r>
       <r>   11.4660   -0.0000 </r>
       <r>   11.6184   -0.0000 </r>
       <r>   11.7685   -0.0000 </r>
       <r>   11.9258   -0.0000 </r>
       <r>   12.0300   -0.0000 </r>
       <r>   12.1828   -0.0000 </r>
       <r>   12.4894   -0.0000 </r>
       <r>   12.8157   -0.0000 </r>
       <r>   13.0478   -0.0000 </r>
       <r>   13.3872   -0.0000 </r>
       <r>   13.7162   -0.0000 </r>
       <r>   13.8235   -0.0000 </r>
      </set>
      <set comment="kpoint 38">
       <r>   -2.5741    1.0000 </r>
       <r>   -0.8030    1.0000 </r>
       <r>   -0.2916    1.0000 </r>
       <r>   -0.1062    1.0000 </r>
       <r>    0.2694    1.0000 </r>
       <r>    0.4616    1.0000 </r>
       <r>    0.9018    1.0000 </r>
       <r>    1.1327    1.0000 </r>
       <r>    1.2662    1.0000 </r>
       <r>    1.6084    1.0000 </r>
       <r>    1.8485    1.0000 </r>
       <r>    2.2931    1.0000 </r>
       <r>    2.4490    1.0000 </r>
       <r>    2.7178    1.0000 </r>
       <r>    3.5727    1.0000 </r>
       <r>    3.7909    1.0000 </r>
       <r>    4.0100    1.0000 </r>
       <r>    4.8868    1.0000 </r>
       <r>    4.9703    1.0000 </r>
       <r>    5.1406    1.0000 </r>
       <r>    5.8230    1.0000 </r>
       <r>    5.9668    1.0000 </r>
       <r>    6.1218    1.0000 </r>
       <r>    6.6147    1.0000 </r>
       <r>    6.7405    1.0000 </r>
       <r>    6.8352    1.0000 </r>
       <r>    6.9381    1.0000 </r>
       <r>    7.0986    1.0000 </r>
       <r>    7.2264    1.0000 </r>
       <r>    7.3346    1.0000 </r>
       <r>    7.4447    1.0000 </r>
       <r>    7.6147    1.0000 </r>
       <r>    7.8081    1.0000 </r>
       <r>    7.9615    1.0000 </r>
       <r>    8.1475    1.0000 </r>
       <r>    8.3019    1.0000 </r>
       <r>    8.5101    1.0000 </r>
       <r>    8.7241    1.0000 </r>
       <r>    8.8246    1.0000 </r>
       <r>    8.9322    1.0000 </r>
       <r>    9.2224    1.0174 </r>
       <r>    9.3475    1.0327 </r>
       <r>    9.5190    0.7002 </r>
       <r>    9.6848    0.0871 </r>
       <r>    9.9573   -0.0094 </r>
       <r>   10.0097   -0.0038 </r>
       <r>   10.2441   -0.0000 </r>
       <r>   10.6128   -0.0000 </r>
       <r>   10.8738   -0.0000 </r>
       <r>   10.9190   -0.0000 </r>
       <r>   11.2231   -0.0000 </r>
       <r>   11.3109   -0.0000 </r>
       <r>   11.4395   -0.0000 </r>
       <r>   11.6793   -0.0000 </r>
       <r>   11.7324   -0.0000 </r>
       <r>   11.8902   -0.0000 </r>
       <r>   12.0166   -0.0000 </r>
       <r>   12.1704   -0.0000 </r>
       <r>   12.5001   -0.0000 </r>
       <r>   12.8908   -0.0000 </r>
       <r>   13.2424   -0.0000 </r>
       <r>   13.3212   -0.0000 </r>
       <r>   13.5811   -0.0000 </r>
       <r>   13.8495   -0.0000 </r>
      </set>
      <set comment="kpoint 39">
       <r>   -2.5736    1.0000 </r>
       <r>   -0.7427    1.0000 </r>
       <r>   -0.4348    1.0000 </r>
       <r>    0.0085    1.0000 </r>
       <r>    0.1705    1.0000 </r>
       <r>    0.4490    1.0000 </r>
       <r>    0.9001    1.0000 </r>
       <r>    1.1717    1.0000 </r>
       <r>    1.3927    1.0000 </r>
       <r>    1.6799    1.0000 </r>
       <r>    1.8878    1.0000 </r>
       <r>    2.1517    1.0000 </r>
       <r>    2.3836    1.0000 </r>
       <r>    2.6776    1.0000 </r>
       <r>    3.5605    1.0000 </r>
       <r>    3.7725    1.0000 </r>
       <r>    4.1299    1.0000 </r>
       <r>    4.6779    1.0000 </r>
       <r>    5.0884    1.0000 </r>
       <r>    5.2703    1.0000 </r>
       <r>    5.7151    1.0000 </r>
       <r>    6.0699    1.0000 </r>
       <r>    6.1140    1.0000 </r>
       <r>    6.4990    1.0000 </r>
       <r>    6.6328    1.0000 </r>
       <r>    6.7917    1.0000 </r>
       <r>    6.9898    1.0000 </r>
       <r>    7.1902    1.0000 </r>
       <r>    7.3146    1.0000 </r>
       <r>    7.3374    1.0000 </r>
       <r>    7.5325    1.0000 </r>
       <r>    7.6133    1.0000 </r>
       <r>    7.7183    1.0000 </r>
       <r>    7.8793    1.0000 </r>
       <r>    8.0042    1.0000 </r>
       <r>    8.4199    1.0000 </r>
       <r>    8.5534    1.0000 </r>
       <r>    8.7581    1.0000 </r>
       <r>    8.9425    1.0000 </r>
       <r>    8.9965    1.0002 </r>
       <r>    9.0875    1.0018 </r>
       <r>    9.4732    0.8550 </r>
       <r>    9.5261    0.6725 </r>
       <r>    9.6774    0.1049 </r>
       <r>    9.8328   -0.0341 </r>
       <r>    9.9799   -0.0066 </r>
       <r>   10.2690   -0.0000 </r>
       <r>   10.6764   -0.0000 </r>
       <r>   10.7678   -0.0000 </r>
       <r>   11.1138   -0.0000 </r>
       <r>   11.1866   -0.0000 </r>
       <r>   11.2665   -0.0000 </r>
       <r>   11.3882   -0.0000 </r>
       <r>   11.5079   -0.0000 </r>
       <r>   11.7166   -0.0000 </r>
       <r>   11.8556   -0.0000 </r>
       <r>   12.0748   -0.0000 </r>
       <r>   12.2950   -0.0000 </r>
       <r>   12.5408   -0.0000 </r>
       <r>   12.8793   -0.0000 </r>
       <r>   12.9531   -0.0000 </r>
       <r>   13.4615   -0.0000 </r>
       <r>   13.6802   -0.0000 </r>
       <r>   13.7663   -0.0000 </r>
      </set>
      <set comment="kpoint 40">
       <r>   -2.5731    1.0000 </r>
       <r>   -0.7962    1.0000 </r>
       <r>   -0.2707    1.0000 </r>
       <r>   -0.1565    1.0000 </r>
       <r>    0.1698    1.0000 </r>
       <r>    0.5269    1.0000 </r>
       <r>    0.9724    1.0000 </r>
       <r>    1.2250    1.0000 </r>
       <r>    1.3760    1.0000 </r>
       <r>    1.5655    1.0000 </r>
       <r>    1.6887    1.0000 </r>
       <r>    2.2685    1.0000 </r>
       <r>    2.4931    1.0000 </r>
       <r>    2.5944    1.0000 </r>
       <r>    3.6144    1.0000 </r>
       <r>    3.8600    1.0000 </r>
       <r>    3.9843    1.0000 </r>
       <r>    4.9242    1.0000 </r>
       <r>    4.9763    1.0000 </r>
       <r>    5.1046    1.0000 </r>
       <r>    5.8042    1.0000 </r>
       <r>    5.9585    1.0000 </r>
       <r>    6.1563    1.0000 </r>
       <r>    6.5697    1.0000 </r>
       <r>    6.7332    1.0000 </r>
       <r>    6.8923    1.0000 </r>
       <r>    6.9687    1.0000 </r>
       <r>    7.0418    1.0000 </r>
       <r>    7.2691    1.0000 </r>
       <r>    7.3871    1.0000 </r>
       <r>    7.4943    1.0000 </r>
       <r>    7.6522    1.0000 </r>
       <r>    7.7767    1.0000 </r>
       <r>    7.9259    1.0000 </r>
       <r>    8.1296    1.0000 </r>
       <r>    8.2252    1.0000 </r>
       <r>    8.5186    1.0000 </r>
       <r>    8.6339    1.0000 </r>
       <r>    8.8211    1.0000 </r>
       <r>    8.9759    1.0001 </r>
       <r>    9.1748    1.0089 </r>
       <r>    9.3552    1.0305 </r>
       <r>    9.5226    0.6864 </r>
       <r>    9.5949    0.3869 </r>
       <r>   10.0060   -0.0041 </r>
       <r>   10.0825   -0.0008 </r>
       <r>   10.2116   -0.0000 </r>
       <r>   10.7204   -0.0000 </r>
       <r>   10.8137   -0.0000 </r>
       <r>   11.0271   -0.0000 </r>
       <r>   11.1754   -0.0000 </r>
       <r>   11.2421   -0.0000 </r>
       <r>   11.5331   -0.0000 </r>
       <r>   11.6120   -0.0000 </r>
       <r>   11.8118   -0.0000 </r>
       <r>   11.9264   -0.0000 </r>
       <r>   11.9889   -0.0000 </r>
       <r>   12.1634   -0.0000 </r>
       <r>   12.5436   -0.0000 </r>
       <r>   12.8419   -0.0000 </r>
       <r>   13.1354   -0.0000 </r>
       <r>   13.2299   -0.0000 </r>
       <r>   13.7126   -0.0000 </r>
       <r>   13.8216   -0.0000 </r>
      </set>
      <set comment="kpoint 41">
       <r>   -2.3173    1.0000 </r>
       <r>   -1.0838    1.0000 </r>
       <r>   -0.6623    1.0000 </r>
       <r>   -0.5355    1.0000 </r>
       <r>   -0.0913    1.0000 </r>
       <r>    0.2861    1.0000 </r>
       <r>    1.3403    1.0000 </r>
       <r>    1.4701    1.0000 </r>
       <r>    1.9550    1.0000 </r>
       <r>    2.0368    1.0000 </r>
       <r>    2.4499    1.0000 </r>
       <r>    2.5217    1.0000 </r>
       <r>    2.9448    1.0000 </r>
       <r>    3.0627    1.0000 </r>
       <r>    3.2490    1.0000 </r>
       <r>    3.4414    1.0000 </r>
       <r>    4.0583    1.0000 </r>
       <r>    4.3173    1.0000 </r>
       <r>    4.8484    1.0000 </r>
       <r>    4.9949    1.0000 </r>
       <r>    5.1918    1.0000 </r>
       <r>    5.3331    1.0000 </r>
       <r>    5.6918    1.0000 </r>
       <r>    6.1904    1.0000 </r>
       <r>    6.3055    1.0000 </r>
       <r>    6.4433    1.0000 </r>
       <r>    6.7507    1.0000 </r>
       <r>    6.7993    1.0000 </r>
       <r>    7.1690    1.0000 </r>
       <r>    7.2999    1.0000 </r>
       <r>    7.4091    1.0000 </r>
       <r>    7.5756    1.0000 </r>
       <r>    7.8421    1.0000 </r>
       <r>    7.9875    1.0000 </r>
       <r>    8.1644    1.0000 </r>
       <r>    8.4480    1.0000 </r>
       <r>    8.6473    1.0000 </r>
       <r>    8.9217    1.0000 </r>
       <r>    9.0141    1.0003 </r>
       <r>    9.2406    1.0214 </r>
       <r>    9.4906    0.8016 </r>
       <r>    9.5122    0.7257 </r>
       <r>    9.6558    0.1648 </r>
       <r>    9.8312   -0.0343 </r>
       <r>    9.9253   -0.0149 </r>
       <r>    9.9874   -0.0058 </r>
       <r>   10.1948   -0.0000 </r>
       <r>   10.4579   -0.0000 </r>
       <r>   11.5534   -0.0000 </r>
       <r>   11.6565   -0.0000 </r>
       <r>   11.8584   -0.0000 </r>
       <r>   12.1244   -0.0000 </r>
       <r>   12.2001   -0.0000 </r>
       <r>   12.3810   -0.0000 </r>
       <r>   12.5286   -0.0000 </r>
       <r>   12.6972   -0.0000 </r>
       <r>   12.8091   -0.0000 </r>
       <r>   12.8853   -0.0000 </r>
       <r>   13.0135   -0.0000 </r>
       <r>   13.1714   -0.0000 </r>
       <r>   13.3455   -0.0000 </r>
       <r>   13.4773   -0.0000 </r>
       <r>   13.5690   -0.0000 </r>
       <r>   13.6499   -0.0000 </r>
      </set>
      <set comment="kpoint 42">
       <r>   -2.3238    1.0000 </r>
       <r>   -1.0465    1.0000 </r>
       <r>   -0.7063    1.0000 </r>
       <r>   -0.4410    1.0000 </r>
       <r>   -0.1865    1.0000 </r>
       <r>    0.2752    1.0000 </r>
       <r>    1.3023    1.0000 </r>
       <r>    1.5208    1.0000 </r>
       <r>    1.8735    1.0000 </r>
       <r>    2.0667    1.0000 </r>
       <r>    2.5005    1.0000 </r>
       <r>    2.6510    1.0000 </r>
       <r>    2.8611    1.0000 </r>
       <r>    3.1041    1.0000 </r>
       <r>    3.2009    1.0000 </r>
       <r>    3.3876    1.0000 </r>
       <r>    4.0828    1.0000 </r>
       <r>    4.4472    1.0000 </r>
       <r>    4.8040    1.0000 </r>
       <r>    4.9554    1.0000 </r>
       <r>    5.2284    1.0000 </r>
       <r>    5.3058    1.0000 </r>
       <r>    5.6215    1.0000 </r>
       <r>    6.1765    1.0000 </r>
       <r>    6.3008    1.0000 </r>
       <r>    6.4385    1.0000 </r>
       <r>    6.6654    1.0000 </r>
       <r>    6.9091    1.0000 </r>
       <r>    7.0816    1.0000 </r>
       <r>    7.2229    1.0000 </r>
       <r>    7.4652    1.0000 </r>
       <r>    7.5496    1.0000 </r>
       <r>    7.9149    1.0000 </r>
       <r>    8.0507    1.0000 </r>
       <r>    8.1361    1.0000 </r>
       <r>    8.4060    1.0000 </r>
       <r>    8.7309    1.0000 </r>
       <r>    8.9405    1.0000 </r>
       <r>    9.0984    1.0022 </r>
       <r>    9.3701    1.0240 </r>
       <r>    9.4554    0.9025 </r>
       <r>    9.5737    0.4755 </r>
       <r>    9.6412    0.2116 </r>
       <r>    9.7382   -0.0021 </r>
       <r>    9.8090   -0.0354 </r>
       <r>   10.0271   -0.0027 </r>
       <r>   10.2076   -0.0000 </r>
       <r>   10.3278   -0.0000 </r>
       <r>   11.5617   -0.0000 </r>
       <r>   11.7113   -0.0000 </r>
       <r>   11.8379   -0.0000 </r>
       <r>   12.1173   -0.0000 </r>
       <r>   12.2701   -0.0000 </r>
       <r>   12.3757   -0.0000 </r>
       <r>   12.4697   -0.0000 </r>
       <r>   12.7002   -0.0000 </r>
       <r>   12.7928   -0.0000 </r>
       <r>   12.9099   -0.0000 </r>
       <r>   13.1299   -0.0000 </r>
       <r>   13.2170   -0.0000 </r>
       <r>   13.2822   -0.0000 </r>
       <r>   13.4161   -0.0000 </r>
       <r>   13.4997   -0.0000 </r>
       <r>   13.5143   -0.0000 </r>
      </set>
      <set comment="kpoint 43">
       <r>   -2.3175    1.0000 </r>
       <r>   -1.0905    1.0000 </r>
       <r>   -0.6430    1.0000 </r>
       <r>   -0.4815    1.0000 </r>
       <r>   -0.1780    1.0000 </r>
       <r>    0.2751    1.0000 </r>
       <r>    1.3466    1.0000 </r>
       <r>    1.4780    1.0000 </r>
       <r>    1.7816    1.0000 </r>
       <r>    2.2358    1.0000 </r>
       <r>    2.5123    1.0000 </r>
       <r>    2.6507    1.0000 </r>
       <r>    2.9159    1.0000 </r>
       <r>    3.0235    1.0000 </r>
       <r>    3.2554    1.0000 </r>
       <r>    3.2936    1.0000 </r>
       <r>    4.1323    1.0000 </r>
       <r>    4.2717    1.0000 </r>
       <r>    4.7750    1.0000 </r>
       <r>    4.9570    1.0000 </r>
       <r>    5.2560    1.0000 </r>
       <r>    5.4071    1.0000 </r>
       <r>    5.5653    1.0000 </r>
       <r>    6.1870    1.0000 </r>
       <r>    6.2590    1.0000 </r>
       <r>    6.4094    1.0000 </r>
       <r>    6.8269    1.0000 </r>
       <r>    6.9001    1.0000 </r>
       <r>    7.0612    1.0000 </r>
       <r>    7.2849    1.0000 </r>
       <r>    7.4535    1.0000 </r>
       <r>    7.5284    1.0000 </r>
       <r>    7.9576    1.0000 </r>
       <r>    8.0908    1.0000 </r>
       <r>    8.1896    1.0000 </r>
       <r>    8.3135    1.0000 </r>
       <r>    8.6438    1.0000 </r>
       <r>    8.9185    1.0000 </r>
       <r>    9.1667    1.0078 </r>
       <r>    9.3408    1.0341 </r>
       <r>    9.5049    0.7523 </r>
       <r>    9.5943    0.3891 </r>
       <r>    9.6346    0.2342 </r>
       <r>    9.7775   -0.0294 </r>
       <r>    9.8084   -0.0354 </r>
       <r>    9.9664   -0.0082 </r>
       <r>   10.1781   -0.0001 </r>
       <r>   10.3164   -0.0000 </r>
       <r>   11.5438   -0.0000 </r>
       <r>   11.6456   -0.0000 </r>
       <r>   11.8943   -0.0000 </r>
       <r>   12.1534   -0.0000 </r>
       <r>   12.2270   -0.0000 </r>
       <r>   12.3456   -0.0000 </r>
       <r>   12.5026   -0.0000 </r>
       <r>   12.7410   -0.0000 </r>
       <r>   12.8164   -0.0000 </r>
       <r>   12.8818   -0.0000 </r>
       <r>   13.0157   -0.0000 </r>
       <r>   13.1039   -0.0000 </r>
       <r>   13.3792   -0.0000 </r>
       <r>   13.4660   -0.0000 </r>
       <r>   13.5145   -0.0000 </r>
       <r>   13.5799   -0.0000 </r>
      </set>
      <set comment="kpoint 44">
       <r>   -2.3132    1.0000 </r>
       <r>   -1.1133    1.0000 </r>
       <r>   -0.6506    1.0000 </r>
       <r>   -0.4108    1.0000 </r>
       <r>   -0.2697    1.0000 </r>
       <r>    0.3219    1.0000 </r>
       <r>    1.4017    1.0000 </r>
       <r>    1.5412    1.0000 </r>
       <r>    1.8384    1.0000 </r>
       <r>    2.1492    1.0000 </r>
       <r>    2.3244    1.0000 </r>
       <r>    2.7075    1.0000 </r>
       <r>    2.8445    1.0000 </r>
       <r>    3.0936    1.0000 </r>
       <r>    3.1921    1.0000 </r>
       <r>    3.2698    1.0000 </r>
       <r>    4.2182    1.0000 </r>
       <r>    4.3333    1.0000 </r>
       <r>    4.8051    1.0000 </r>
       <r>    4.9120    1.0000 </r>
       <r>    5.2476    1.0000 </r>
       <r>    5.4187    1.0000 </r>
       <r>    5.5984    1.0000 </r>
       <r>    6.1608    1.0000 </r>
       <r>    6.3970    1.0000 </r>
       <r>    6.4780    1.0000 </r>
       <r>    6.7632    1.0000 </r>
       <r>    6.8446    1.0000 </r>
       <r>    7.0052    1.0000 </r>
       <r>    7.2954    1.0000 </r>
       <r>    7.4104    1.0000 </r>
       <r>    7.5584    1.0000 </r>
       <r>    7.8874    1.0000 </r>
       <r>    8.0264    1.0000 </r>
       <r>    8.2089    1.0000 </r>
       <r>    8.3508    1.0000 </r>
       <r>    8.6798    1.0000 </r>
       <r>    8.9365    1.0000 </r>
       <r>    9.0135    1.0003 </r>
       <r>    9.3724    1.0226 </r>
       <r>    9.4557    0.9018 </r>
       <r>    9.5455    0.5938 </r>
       <r>    9.7384   -0.0023 </r>
       <r>    9.7793   -0.0301 </r>
       <r>    9.8570   -0.0300 </r>
       <r>    9.9782   -0.0067 </r>
       <r>   10.1949   -0.0000 </r>
       <r>   10.3693   -0.0000 </r>
       <r>   11.5627   -0.0000 </r>
       <r>   11.6440   -0.0000 </r>
       <r>   11.9003   -0.0000 </r>
       <r>   12.1334   -0.0000 </r>
       <r>   12.2231   -0.0000 </r>
       <r>   12.2855   -0.0000 </r>
       <r>   12.4916   -0.0000 </r>
       <r>   12.6584   -0.0000 </r>
       <r>   12.8085   -0.0000 </r>
       <r>   12.9300   -0.0000 </r>
       <r>   12.9950   -0.0000 </r>
       <r>   13.1596   -0.0000 </r>
       <r>   13.3875   -0.0000 </r>
       <r>   13.4484   -0.0000 </r>
       <r>   13.5388   -0.0000 </r>
       <r>   13.6544   -0.0000 </r>
      </set>
      <set comment="kpoint 45">
       <r>   -2.3185    1.0000 </r>
       <r>   -1.0452    1.0000 </r>
       <r>   -0.7680    1.0000 </r>
       <r>   -0.4187    1.0000 </r>
       <r>   -0.1451    1.0000 </r>
       <r>    0.2778    1.0000 </r>
       <r>    1.2034    1.0000 </r>
       <r>    1.6791    1.0000 </r>
       <r>    1.8146    1.0000 </r>
       <r>    2.1281    1.0000 </r>
       <r>    2.3803    1.0000 </r>
       <r>    2.7020    1.0000 </r>
       <r>    2.9170    1.0000 </r>
       <r>    3.0519    1.0000 </r>
       <r>    3.1965    1.0000 </r>
       <r>    3.5044    1.0000 </r>
       <r>    3.9834    1.0000 </r>
       <r>    4.3745    1.0000 </r>
       <r>    4.7666    1.0000 </r>
       <r>    5.0436    1.0000 </r>
       <r>    5.1224    1.0000 </r>
       <r>    5.1765    1.0000 </r>
       <r>    5.7866    1.0000 </r>
       <r>    6.1716    1.0000 </r>
       <r>    6.2981    1.0000 </r>
       <r>    6.4874    1.0000 </r>
       <r>    6.6508    1.0000 </r>
       <r>    6.9049    1.0000 </r>
       <r>    7.1545    1.0000 </r>
       <r>    7.2508    1.0000 </r>
       <r>    7.4845    1.0000 </r>
       <r>    7.6975    1.0000 </r>
       <r>    7.7817    1.0000 </r>
       <r>    8.0809    1.0000 </r>
       <r>    8.2230    1.0000 </r>
       <r>    8.4352    1.0000 </r>
       <r>    8.6216    1.0000 </r>
       <r>    8.7792    1.0000 </r>
       <r>    9.1409    1.0050 </r>
       <r>    9.2204    1.0170 </r>
       <r>    9.5283    0.6639 </r>
       <r>    9.6017    0.3591 </r>
       <r>    9.6348    0.2335 </r>
       <r>    9.7867   -0.0323 </r>
       <r>    9.8735   -0.0264 </r>
       <r>   10.0068   -0.0041 </r>
       <r>   10.1780   -0.0001 </r>
       <r>   10.3189   -0.0000 </r>
       <r>   11.5305   -0.0000 </r>
       <r>   11.7106   -0.0000 </r>
       <r>   11.9164   -0.0000 </r>
       <r>   11.9898   -0.0000 </r>
       <r>   12.1504   -0.0000 </r>
       <r>   12.4493   -0.0000 </r>
       <r>   12.5576   -0.0000 </r>
       <r>   12.6824   -0.0000 </r>
       <r>   12.8759   -0.0000 </r>
       <r>   12.9782   -0.0000 </r>
       <r>   12.9958   -0.0000 </r>
       <r>   13.1992   -0.0000 </r>
       <r>   13.3131   -0.0000 </r>
       <r>   13.4364   -0.0000 </r>
       <r>   13.5108   -0.0000 </r>
       <r>   13.5902   -0.0000 </r>
      </set>
      <set comment="kpoint 46">
       <r>   -2.3214    1.0000 </r>
       <r>   -1.0569    1.0000 </r>
       <r>   -0.7142    1.0000 </r>
       <r>   -0.3862    1.0000 </r>
       <r>   -0.2330    1.0000 </r>
       <r>    0.2612    1.0000 </r>
       <r>    1.2917    1.0000 </r>
       <r>    1.5749    1.0000 </r>
       <r>    1.8632    1.0000 </r>
       <r>    2.2059    1.0000 </r>
       <r>    2.4009    1.0000 </r>
       <r>    2.6394    1.0000 </r>
       <r>    2.9033    1.0000 </r>
       <r>    3.0154    1.0000 </r>
       <r>    3.1876    1.0000 </r>
       <r>    3.3503    1.0000 </r>
       <r>    4.1055    1.0000 </r>
       <r>    4.4659    1.0000 </r>
       <r>    4.8060    1.0000 </r>
       <r>    4.8268    1.0000 </r>
       <r>    5.3089    1.0000 </r>
       <r>    5.3695    1.0000 </r>
       <r>    5.6625    1.0000 </r>
       <r>    6.1565    1.0000 </r>
       <r>    6.2798    1.0000 </r>
       <r>    6.4486    1.0000 </r>
       <r>    6.7423    1.0000 </r>
       <r>    6.9415    1.0000 </r>
       <r>    6.9718    1.0000 </r>
       <r>    7.2362    1.0000 </r>
       <r>    7.4952    1.0000 </r>
       <r>    7.5792    1.0000 </r>
       <r>    7.8533    1.0000 </r>
       <r>    8.0355    1.0000 </r>
       <r>    8.1352    1.0000 </r>
       <r>    8.3062    1.0000 </r>
       <r>    8.7062    1.0000 </r>
       <r>    8.9148    1.0000 </r>
       <r>    9.1792    1.0096 </r>
       <r>    9.3522    1.0315 </r>
       <r>    9.4267    0.9620 </r>
       <r>    9.5470    0.5879 </r>
       <r>    9.7700   -0.0262 </r>
       <r>    9.7984   -0.0346 </r>
       <r>    9.9036   -0.0195 </r>
       <r>   10.0102   -0.0038 </r>
       <r>   10.1499   -0.0002 </r>
       <r>   10.3749   -0.0000 </r>
       <r>   11.4873   -0.0000 </r>
       <r>   11.7172   -0.0000 </r>
       <r>   11.8793   -0.0000 </r>
       <r>   12.1049   -0.0000 </r>
       <r>   12.1836   -0.0000 </r>
       <r>   12.3238   -0.0000 </r>
       <r>   12.4904   -0.0000 </r>
       <r>   12.6210   -0.0000 </r>
       <r>   12.7544   -0.0000 </r>
       <r>   12.8840   -0.0000 </r>
       <r>   13.0481   -0.0000 </r>
       <r>   13.1941   -0.0000 </r>
       <r>   13.3398   -0.0000 </r>
       <r>   13.4884   -0.0000 </r>
       <r>   13.5280   -0.0000 </r>
       <r>   13.6354   -0.0000 </r>
      </set>
      <set comment="kpoint 47">
       <r>   -2.3128    1.0000 </r>
       <r>   -1.0816    1.0000 </r>
       <r>   -0.6769    1.0000 </r>
       <r>   -0.5164    1.0000 </r>
       <r>   -0.1407    1.0000 </r>
       <r>    0.2671    1.0000 </r>
       <r>    1.2989    1.0000 </r>
       <r>    1.6185    1.0000 </r>
       <r>    1.9812    1.0000 </r>
       <r>    2.2479    1.0000 </r>
       <r>    2.4179    1.0000 </r>
       <r>    2.4776    1.0000 </r>
       <r>    2.7798    1.0000 </r>
       <r>    3.0622    1.0000 </r>
       <r>    3.1289    1.0000 </r>
       <r>    3.3911    1.0000 </r>
       <r>    4.0890    1.0000 </r>
       <r>    4.4315    1.0000 </r>
       <r>    4.8024    1.0000 </r>
       <r>    4.9113    1.0000 </r>
       <r>    5.1873    1.0000 </r>
       <r>    5.4127    1.0000 </r>
       <r>    5.6695    1.0000 </r>
       <r>    6.1945    1.0000 </r>
       <r>    6.3343    1.0000 </r>
       <r>    6.5078    1.0000 </r>
       <r>    6.6091    1.0000 </r>
       <r>    6.9185    1.0000 </r>
       <r>    7.1076    1.0000 </r>
       <r>    7.2546    1.0000 </r>
       <r>    7.4542    1.0000 </r>
       <r>    7.6078    1.0000 </r>
       <r>    7.8122    1.0000 </r>
       <r>    8.0484    1.0000 </r>
       <r>    8.1490    1.0000 </r>
       <r>    8.5619    1.0000 </r>
       <r>    8.6053    1.0000 </r>
       <r>    8.8680    1.0000 </r>
       <r>    9.0141    1.0003 </r>
       <r>    9.3198    1.0354 </r>
       <r>    9.5015    0.7643 </r>
       <r>    9.5925    0.3967 </r>
       <r>    9.7126    0.0322 </r>
       <r>    9.7563   -0.0181 </r>
       <r>    9.9633   -0.0086 </r>
       <r>   10.0272   -0.0027 </r>
       <r>   10.1808   -0.0001 </r>
       <r>   10.2879   -0.0000 </r>
       <r>   11.5364   -0.0000 </r>
       <r>   11.6312   -0.0000 </r>
       <r>   11.9375   -0.0000 </r>
       <r>   12.0113   -0.0000 </r>
       <r>   12.1258   -0.0000 </r>
       <r>   12.2641   -0.0000 </r>
       <r>   12.4807   -0.0000 </r>
       <r>   12.7592   -0.0000 </r>
       <r>   12.8681   -0.0000 </r>
       <r>   12.9482   -0.0000 </r>
       <r>   13.0686   -0.0000 </r>
       <r>   13.1813   -0.0000 </r>
       <r>   13.2196   -0.0000 </r>
       <r>   13.3689   -0.0000 </r>
       <r>   13.4476   -0.0000 </r>
       <r>   13.6373   -0.0000 </r>
      </set>
      <set comment="kpoint 48">
       <r>   -2.3193    1.0000 </r>
       <r>   -1.0504    1.0000 </r>
       <r>   -0.7179    1.0000 </r>
       <r>   -0.4480    1.0000 </r>
       <r>   -0.1738    1.0000 </r>
       <r>    0.2530    1.0000 </r>
       <r>    1.2023    1.0000 </r>
       <r>    1.7476    1.0000 </r>
       <r>    1.9366    1.0000 </r>
       <r>    2.1080    1.0000 </r>
       <r>    2.3626    1.0000 </r>
       <r>    2.6142    1.0000 </r>
       <r>    2.9236    1.0000 </r>
       <r>    3.0103    1.0000 </r>
       <r>    3.1791    1.0000 </r>
       <r>    3.4114    1.0000 </r>
       <r>    3.9601    1.0000 </r>
       <r>    4.5494    1.0000 </r>
       <r>    4.8092    1.0000 </r>
       <r>    4.9019    1.0000 </r>
       <r>    5.1731    1.0000 </r>
       <r>    5.3079    1.0000 </r>
       <r>    5.7637    1.0000 </r>
       <r>    6.1513    1.0000 </r>
       <r>    6.3127    1.0000 </r>
       <r>    6.4430    1.0000 </r>
       <r>    6.5749    1.0000 </r>
       <r>    6.9564    1.0000 </r>
       <r>    7.1498    1.0000 </r>
       <r>    7.2750    1.0000 </r>
       <r>    7.4190    1.0000 </r>
       <r>    7.5870    1.0000 </r>
       <r>    7.8484    1.0000 </r>
       <r>    7.9219    1.0000 </r>
       <r>    8.2771    1.0000 </r>
       <r>    8.4825    1.0000 </r>
       <r>    8.6528    1.0000 </r>
       <r>    8.9193    1.0000 </r>
       <r>    9.1642    1.0075 </r>
       <r>    9.3006    1.0338 </r>
       <r>    9.4978    0.7774 </r>
       <r>    9.5265    0.6710 </r>
       <r>    9.6347    0.2339 </r>
       <r>    9.7114    0.0341 </r>
       <r>    9.9313   -0.0138 </r>
       <r>   10.0583   -0.0014 </r>
       <r>   10.1495   -0.0002 </r>
       <r>   10.4197   -0.0000 </r>
       <r>   11.4529   -0.0000 </r>
       <r>   11.7429   -0.0000 </r>
       <r>   11.9118   -0.0000 </r>
       <r>   11.9837   -0.0000 </r>
       <r>   12.1503   -0.0000 </r>
       <r>   12.3000   -0.0000 </r>
       <r>   12.5033   -0.0000 </r>
       <r>   12.6451   -0.0000 </r>
       <r>   12.7946   -0.0000 </r>
       <r>   12.8705   -0.0000 </r>
       <r>   13.1564   -0.0000 </r>
       <r>   13.1852   -0.0000 </r>
       <r>   13.2679   -0.0000 </r>
       <r>   13.4529   -0.0000 </r>
       <r>   13.5498   -0.0000 </r>
       <r>   13.6199   -0.0000 </r>
      </set>
      <set comment="kpoint 49">
       <r>   -2.3163    1.0000 </r>
       <r>   -1.0330    1.0000 </r>
       <r>   -0.7796    1.0000 </r>
       <r>   -0.4192    1.0000 </r>
       <r>   -0.1638    1.0000 </r>
       <r>    0.2607    1.0000 </r>
       <r>    1.1656    1.0000 </r>
       <r>    1.7519    1.0000 </r>
       <r>    1.9093    1.0000 </r>
       <r>    2.2029    1.0000 </r>
       <r>    2.3524    1.0000 </r>
       <r>    2.6588    1.0000 </r>
       <r>    2.9044    1.0000 </r>
       <r>    3.0221    1.0000 </r>
       <r>    3.1812    1.0000 </r>
       <r>    3.4225    1.0000 </r>
       <r>    3.9358    1.0000 </r>
       <r>    4.3953    1.0000 </r>
       <r>    4.7822    1.0000 </r>
       <r>    4.9241    1.0000 </r>
       <r>    5.1948    1.0000 </r>
       <r>    5.2720    1.0000 </r>
       <r>    5.7824    1.0000 </r>
       <r>    6.1811    1.0000 </r>
       <r>    6.3535    1.0000 </r>
       <r>    6.4670    1.0000 </r>
       <r>    6.5647    1.0000 </r>
       <r>    6.9328    1.0000 </r>
       <r>    7.1026    1.0000 </r>
       <r>    7.3404    1.0000 </r>
       <r>    7.4335    1.0000 </r>
       <r>    7.7211    1.0000 </r>
       <r>    7.8733    1.0000 </r>
       <r>    7.9130    1.0000 </r>
       <r>    8.2005    1.0000 </r>
       <r>    8.4417    1.0000 </r>
       <r>    8.6581    1.0000 </r>
       <r>    8.9233    1.0000 </r>
       <r>    9.1279    1.0040 </r>
       <r>    9.3312    1.0352 </r>
       <r>    9.5487    0.5806 </r>
       <r>    9.6110    0.3221 </r>
       <r>    9.6503    0.1819 </r>
       <r>    9.6980    0.0586 </r>
       <r>    9.8688   -0.0274 </r>
       <r>   10.0272   -0.0027 </r>
       <r>   10.1334   -0.0002 </r>
       <r>   10.3140   -0.0000 </r>
       <r>   11.4954   -0.0000 </r>
       <r>   11.6689   -0.0000 </r>
       <r>   11.8955   -0.0000 </r>
       <r>   11.9591   -0.0000 </r>
       <r>   12.1872   -0.0000 </r>
       <r>   12.3209   -0.0000 </r>
       <r>   12.5476   -0.0000 </r>
       <r>   12.7075   -0.0000 </r>
       <r>   12.8783   -0.0000 </r>
       <r>   12.9043   -0.0000 </r>
       <r>   13.0343   -0.0000 </r>
       <r>   13.1520   -0.0000 </r>
       <r>   13.3230   -0.0000 </r>
       <r>   13.3927   -0.0000 </r>
       <r>   13.5318   -0.0000 </r>
       <r>   13.6332   -0.0000 </r>
      </set>
      <set comment="kpoint 50">
       <r>   -2.3185    1.0000 </r>
       <r>   -1.0493    1.0000 </r>
       <r>   -0.7413    1.0000 </r>
       <r>   -0.4152    1.0000 </r>
       <r>   -0.2252    1.0000 </r>
       <r>    0.3235    1.0000 </r>
       <r>    1.3432    1.0000 </r>
       <r>    1.5018    1.0000 </r>
       <r>    1.8757    1.0000 </r>
       <r>    2.1940    1.0000 </r>
       <r>    2.3929    1.0000 </r>
       <r>    2.6508    1.0000 </r>
       <r>    2.7923    1.0000 </r>
       <r>    3.1068    1.0000 </r>
       <r>    3.2534    1.0000 </r>
       <r>    3.3265    1.0000 </r>
       <r>    4.0945    1.0000 </r>
       <r>    4.3378    1.0000 </r>
       <r>    4.7992    1.0000 </r>
       <r>    4.8965    1.0000 </r>
       <r>    5.3216    1.0000 </r>
       <r>    5.4346    1.0000 </r>
       <r>    5.5605    1.0000 </r>
       <r>    6.2200    1.0000 </r>
       <r>    6.4106    1.0000 </r>
       <r>    6.4778    1.0000 </r>
       <r>    6.7518    1.0000 </r>
       <r>    6.7703    1.0000 </r>
       <r>    7.0859    1.0000 </r>
       <r>    7.2144    1.0000 </r>
       <r>    7.4139    1.0000 </r>
       <r>    7.5597    1.0000 </r>
       <r>    7.9107    1.0000 </r>
       <r>    7.9313    1.0000 </r>
       <r>    8.1993    1.0000 </r>
       <r>    8.3492    1.0000 </r>
       <r>    8.7967    1.0000 </r>
       <r>    8.8831    1.0000 </r>
       <r>    8.9294    1.0000 </r>
       <r>    9.4217    0.9701 </r>
       <r>    9.4832    0.8252 </r>
       <r>    9.6163    0.3016 </r>
       <r>    9.6572    0.1607 </r>
       <r>    9.8365   -0.0336 </r>
       <r>    9.9672   -0.0081 </r>
       <r>   10.0454   -0.0019 </r>
       <r>   10.1316   -0.0002 </r>
       <r>   10.2762   -0.0000 </r>
       <r>   11.5565   -0.0000 </r>
       <r>   11.6626   -0.0000 </r>
       <r>   11.8956   -0.0000 </r>
       <r>   12.1452   -0.0000 </r>
       <r>   12.2198   -0.0000 </r>
       <r>   12.3188   -0.0000 </r>
       <r>   12.3869   -0.0000 </r>
       <r>   12.6927   -0.0000 </r>
       <r>   12.7549   -0.0000 </r>
       <r>   12.8872   -0.0000 </r>
       <r>   12.9828   -0.0000 </r>
       <r>   13.1751   -0.0000 </r>
       <r>   13.4134   -0.0000 </r>
       <r>   13.4777   -0.0000 </r>
       <r>   13.5046   -0.0000 </r>
       <r>   13.6335   -0.0000 </r>
      </set>
      <set comment="kpoint 51">
       <r>   -2.3204    1.0000 </r>
       <r>   -1.0345    1.0000 </r>
       <r>   -0.7249    1.0000 </r>
       <r>   -0.4699    1.0000 </r>
       <r>   -0.1649    1.0000 </r>
       <r>    0.2611    1.0000 </r>
       <r>    1.2790    1.0000 </r>
       <r>    1.5830    1.0000 </r>
       <r>    1.8095    1.0000 </r>
       <r>    2.2958    1.0000 </r>
       <r>    2.4231    1.0000 </r>
       <r>    2.6919    1.0000 </r>
       <r>    2.8172    1.0000 </r>
       <r>    3.0743    1.0000 </r>
       <r>    3.1705    1.0000 </r>
       <r>    3.3518    1.0000 </r>
       <r>    4.1158    1.0000 </r>
       <r>    4.3496    1.0000 </r>
       <r>    4.7595    1.0000 </r>
       <r>    4.8881    1.0000 </r>
       <r>    5.2829    1.0000 </r>
       <r>    5.4427    1.0000 </r>
       <r>    5.5194    1.0000 </r>
       <r>    6.2159    1.0000 </r>
       <r>    6.2521    1.0000 </r>
       <r>    6.4215    1.0000 </r>
       <r>    6.7526    1.0000 </r>
       <r>    6.8735    1.0000 </r>
       <r>    7.0422    1.0000 </r>
       <r>    7.3975    1.0000 </r>
       <r>    7.5064    1.0000 </r>
       <r>    7.5815    1.0000 </r>
       <r>    7.8976    1.0000 </r>
       <r>    8.0573    1.0000 </r>
       <r>    8.1457    1.0000 </r>
       <r>    8.2921    1.0000 </r>
       <r>    8.7480    1.0000 </r>
       <r>    8.8558    1.0000 </r>
       <r>    9.0318    1.0005 </r>
       <r>    9.3813    1.0167 </r>
       <r>    9.5509    0.5714 </r>
       <r>    9.6575    0.1596 </r>
       <r>    9.7302    0.0070 </r>
       <r>    9.8049   -0.0352 </r>
       <r>    9.8856   -0.0236 </r>
       <r>    9.9694   -0.0078 </r>
       <r>   10.0719   -0.0011 </r>
       <r>   10.2261   -0.0000 </r>
       <r>   11.5302   -0.0000 </r>
       <r>   11.6720   -0.0000 </r>
       <r>   11.8591   -0.0000 </r>
       <r>   12.1036   -0.0000 </r>
       <r>   12.1932   -0.0000 </r>
       <r>   12.3864   -0.0000 </r>
       <r>   12.5375   -0.0000 </r>
       <r>   12.7335   -0.0000 </r>
       <r>   12.8077   -0.0000 </r>
       <r>   12.9225   -0.0000 </r>
       <r>   13.0173   -0.0000 </r>
       <r>   13.0952   -0.0000 </r>
       <r>   13.3411   -0.0000 </r>
       <r>   13.3791   -0.0000 </r>
       <r>   13.5058   -0.0000 </r>
       <r>   13.6074   -0.0000 </r>
      </set>
      <set comment="kpoint 52">
       <r>   -2.3266    1.0000 </r>
       <r>   -0.9822    1.0000 </r>
       <r>   -0.7789    1.0000 </r>
       <r>   -0.4912    1.0000 </r>
       <r>   -0.1081    1.0000 </r>
       <r>    0.2739    1.0000 </r>
       <r>    1.2050    1.0000 </r>
       <r>    1.6430    1.0000 </r>
       <r>    1.8807    1.0000 </r>
       <r>    2.0399    1.0000 </r>
       <r>    2.3455    1.0000 </r>
       <r>    2.7696    1.0000 </r>
       <r>    2.9029    1.0000 </r>
       <r>    3.0422    1.0000 </r>
       <r>    3.1723    1.0000 </r>
       <r>    3.5619    1.0000 </r>
       <r>    3.9810    1.0000 </r>
       <r>    4.4459    1.0000 </r>
       <r>    4.7830    1.0000 </r>
       <r>    4.9977    1.0000 </r>
       <r>    5.1419    1.0000 </r>
       <r>    5.2717    1.0000 </r>
       <r>    5.7359    1.0000 </r>
       <r>    6.1540    1.0000 </r>
       <r>    6.2734    1.0000 </r>
       <r>    6.4529    1.0000 </r>
       <r>    6.5879    1.0000 </r>
       <r>    7.0148    1.0000 </r>
       <r>    7.0710    1.0000 </r>
       <r>    7.2845    1.0000 </r>
       <r>    7.4785    1.0000 </r>
       <r>    7.6439    1.0000 </r>
       <r>    7.8430    1.0000 </r>
       <r>    7.9847    1.0000 </r>
       <r>    8.1598    1.0000 </r>
       <r>    8.4391    1.0000 </r>
       <r>    8.5729    1.0000 </r>
       <r>    8.8741    1.0000 </r>
       <r>    9.1080    1.0027 </r>
       <r>    9.2491    1.0233 </r>
       <r>    9.4646    0.8788 </r>
       <r>    9.6045    0.3477 </r>
       <r>    9.6792    0.1003 </r>
       <r>    9.7658   -0.0240 </r>
       <r>    9.9571   -0.0095 </r>
       <r>   10.0958   -0.0006 </r>
       <r>   10.1646   -0.0001 </r>
       <r>   10.3440   -0.0000 </r>
       <r>   11.5404   -0.0000 </r>
       <r>   11.7319   -0.0000 </r>
       <r>   11.8509   -0.0000 </r>
       <r>   12.0263   -0.0000 </r>
       <r>   12.1361   -0.0000 </r>
       <r>   12.4727   -0.0000 </r>
       <r>   12.5460   -0.0000 </r>
       <r>   12.6201   -0.0000 </r>
       <r>   12.8647   -0.0000 </r>
       <r>   12.9242   -0.0000 </r>
       <r>   13.0794   -0.0000 </r>
       <r>   13.1859   -0.0000 </r>
       <r>   13.2503   -0.0000 </r>
       <r>   13.4960   -0.0000 </r>
       <r>   13.5173   -0.0000 </r>
       <r>   13.6873   -0.0000 </r>
      </set>
      <set comment="kpoint 53">
       <r>   -1.8601    1.0000 </r>
       <r>   -1.5565    1.0000 </r>
       <r>   -1.1025    1.0000 </r>
       <r>   -0.8258    1.0000 </r>
       <r>    0.1400    1.0000 </r>
       <r>    0.7775    1.0000 </r>
       <r>    0.9907    1.0000 </r>
       <r>    1.4910    1.0000 </r>
       <r>    2.0363    1.0000 </r>
       <r>    2.3774    1.0000 </r>
       <r>    2.5552    1.0000 </r>
       <r>    2.8484    1.0000 </r>
       <r>    3.1857    1.0000 </r>
       <r>    3.4604    1.0000 </r>
       <r>    3.6471    1.0000 </r>
       <r>    3.9319    1.0000 </r>
       <r>    4.1004    1.0000 </r>
       <r>    4.3333    1.0000 </r>
       <r>    4.5496    1.0000 </r>
       <r>    4.7075    1.0000 </r>
       <r>    4.7883    1.0000 </r>
       <r>    5.0303    1.0000 </r>
       <r>    5.4182    1.0000 </r>
       <r>    5.5679    1.0000 </r>
       <r>    5.7280    1.0000 </r>
       <r>    5.9272    1.0000 </r>
       <r>    6.1015    1.0000 </r>
       <r>    6.2716    1.0000 </r>
       <r>    6.4766    1.0000 </r>
       <r>    6.6521    1.0000 </r>
       <r>    7.6906    1.0000 </r>
       <r>    7.9396    1.0000 </r>
       <r>    8.1555    1.0000 </r>
       <r>    8.4117    1.0000 </r>
       <r>    8.5099    1.0000 </r>
       <r>    8.6428    1.0000 </r>
       <r>    8.9101    1.0000 </r>
       <r>    9.1805    1.0097 </r>
       <r>    9.3301    1.0352 </r>
       <r>    9.5906    0.4044 </r>
       <r>    9.7123    0.0327 </r>
       <r>    9.8348   -0.0339 </r>
       <r>   10.0071   -0.0040 </r>
       <r>   10.1773   -0.0001 </r>
       <r>   10.3300   -0.0000 </r>
       <r>   10.6151   -0.0000 </r>
       <r>   10.6948   -0.0000 </r>
       <r>   10.9696   -0.0000 </r>
       <r>   11.1401   -0.0000 </r>
       <r>   11.3846   -0.0000 </r>
       <r>   11.6549   -0.0000 </r>
       <r>   11.8799   -0.0000 </r>
       <r>   11.9973   -0.0000 </r>
       <r>   12.0524   -0.0000 </r>
       <r>   12.2498   -0.0000 </r>
       <r>   12.3182   -0.0000 </r>
       <r>   12.5515   -0.0000 </r>
       <r>   13.0088   -0.0000 </r>
       <r>   13.1714   -0.0000 </r>
       <r>   13.2764   -0.0000 </r>
       <r>   13.4130   -0.0000 </r>
       <r>   13.5819   -0.0000 </r>
       <r>   13.7159   -0.0000 </r>
       <r>   13.8233   -0.0000 </r>
      </set>
      <set comment="kpoint 54">
       <r>   -1.9266    1.0000 </r>
       <r>   -1.3814    1.0000 </r>
       <r>   -1.1713    1.0000 </r>
       <r>   -0.8688    1.0000 </r>
       <r>    0.1716    1.0000 </r>
       <r>    0.6121    1.0000 </r>
       <r>    1.0859    1.0000 </r>
       <r>    1.4844    1.0000 </r>
       <r>    2.0807    1.0000 </r>
       <r>    2.4096    1.0000 </r>
       <r>    2.7199    1.0000 </r>
       <r>    2.7945    1.0000 </r>
       <r>    3.0937    1.0000 </r>
       <r>    3.4467    1.0000 </r>
       <r>    3.6178    1.0000 </r>
       <r>    3.9169    1.0000 </r>
       <r>    4.0856    1.0000 </r>
       <r>    4.3360    1.0000 </r>
       <r>    4.5432    1.0000 </r>
       <r>    4.7143    1.0000 </r>
       <r>    4.7661    1.0000 </r>
       <r>    5.0999    1.0000 </r>
       <r>    5.3391    1.0000 </r>
       <r>    5.6490    1.0000 </r>
       <r>    5.7323    1.0000 </r>
       <r>    5.8723    1.0000 </r>
       <r>    6.1389    1.0000 </r>
       <r>    6.2842    1.0000 </r>
       <r>    6.4508    1.0000 </r>
       <r>    6.6189    1.0000 </r>
       <r>    7.7059    1.0000 </r>
       <r>    8.0819    1.0000 </r>
       <r>    8.1346    1.0000 </r>
       <r>    8.3826    1.0000 </r>
       <r>    8.4841    1.0000 </r>
       <r>    8.5497    1.0000 </r>
       <r>    8.8608    1.0000 </r>
       <r>    9.0962    1.0021 </r>
       <r>    9.3517    1.0316 </r>
       <r>    9.5694    0.4935 </r>
       <r>    9.7427   -0.0067 </r>
       <r>    9.8355   -0.0338 </r>
       <r>   10.1202   -0.0003 </r>
       <r>   10.1718   -0.0001 </r>
       <r>   10.4526   -0.0000 </r>
       <r>   10.5716   -0.0000 </r>
       <r>   10.8112   -0.0000 </r>
       <r>   10.9350   -0.0000 </r>
       <r>   11.1521   -0.0000 </r>
       <r>   11.4353   -0.0000 </r>
       <r>   11.5950   -0.0000 </r>
       <r>   11.8976   -0.0000 </r>
       <r>   11.9795   -0.0000 </r>
       <r>   12.0997   -0.0000 </r>
       <r>   12.2082   -0.0000 </r>
       <r>   12.3262   -0.0000 </r>
       <r>   12.5907   -0.0000 </r>
       <r>   12.8846   -0.0000 </r>
       <r>   13.0276   -0.0000 </r>
       <r>   13.1988   -0.0000 </r>
       <r>   13.4355   -0.0000 </r>
       <r>   13.5525   -0.0000 </r>
       <r>   13.7498   -0.0000 </r>
       <r>   13.8721   -0.0000 </r>
      </set>
      <set comment="kpoint 55">
       <r>   -1.8665    1.0000 </r>
       <r>   -1.4876    1.0000 </r>
       <r>   -1.1906    1.0000 </r>
       <r>   -0.8285    1.0000 </r>
       <r>    0.1888    1.0000 </r>
       <r>    0.7194    1.0000 </r>
       <r>    0.9570    1.0000 </r>
       <r>    1.5283    1.0000 </r>
       <r>    2.1009    1.0000 </r>
       <r>    2.4475    1.0000 </r>
       <r>    2.6728    1.0000 </r>
       <r>    2.8649    1.0000 </r>
       <r>    3.0909    1.0000 </r>
       <r>    3.3106    1.0000 </r>
       <r>    3.7513    1.0000 </r>
       <r>    3.8738    1.0000 </r>
       <r>    4.0332    1.0000 </r>
       <r>    4.3348    1.0000 </r>
       <r>    4.4657    1.0000 </r>
       <r>    4.6620    1.0000 </r>
       <r>    4.8220    1.0000 </r>
       <r>    5.1293    1.0000 </r>
       <r>    5.2736    1.0000 </r>
       <r>    5.5741    1.0000 </r>
       <r>    5.7447    1.0000 </r>
       <r>    5.9454    1.0000 </r>
       <r>    6.1117    1.0000 </r>
       <r>    6.2659    1.0000 </r>
       <r>    6.4920    1.0000 </r>
       <r>    6.6939    1.0000 </r>
       <r>    7.8284    1.0000 </r>
       <r>    8.0469    1.0000 </r>
       <r>    8.2572    1.0000 </r>
       <r>    8.3342    1.0000 </r>
       <r>    8.4960    1.0000 </r>
       <r>    8.5878    1.0000 </r>
       <r>    8.8767    1.0000 </r>
       <r>    9.1562    1.0066 </r>
       <r>    9.3619    1.0280 </r>
       <r>    9.5774    0.4596 </r>
       <r>    9.6797    0.0992 </r>
       <r>    9.8277   -0.0347 </r>
       <r>   10.0921   -0.0007 </r>
       <r>   10.2441   -0.0000 </r>
       <r>   10.3433   -0.0000 </r>
       <r>   10.4745   -0.0000 </r>
       <r>   10.6666   -0.0000 </r>
       <r>   10.9350   -0.0000 </r>
       <r>   11.0957   -0.0000 </r>
       <r>   11.3446   -0.0000 </r>
       <r>   11.6865   -0.0000 </r>
       <r>   11.8115   -0.0000 </r>
       <r>   11.9647   -0.0000 </r>
       <r>   12.0336   -0.0000 </r>
       <r>   12.2526   -0.0000 </r>
       <r>   12.4700   -0.0000 </r>
       <r>   12.6182   -0.0000 </r>
       <r>   12.8657   -0.0000 </r>
       <r>   13.1537   -0.0000 </r>
       <r>   13.2741   -0.0000 </r>
       <r>   13.4404   -0.0000 </r>
       <r>   13.5235   -0.0000 </r>
       <r>   13.7698   -0.0000 </r>
       <r>   13.8754   -0.0000 </r>
      </set>
      <set comment="kpoint 56">
       <r>   -1.8424    1.0000 </r>
       <r>   -1.5496    1.0000 </r>
       <r>   -1.1503    1.0000 </r>
       <r>   -0.8308    1.0000 </r>
       <r>    0.1967    1.0000 </r>
       <r>    0.6584    1.0000 </r>
       <r>    1.0782    1.0000 </r>
       <r>    1.4919    1.0000 </r>
       <r>    2.0369    1.0000 </r>
       <r>    2.4261    1.0000 </r>
       <r>    2.7048    1.0000 </r>
       <r>    2.8935    1.0000 </r>
       <r>    3.0661    1.0000 </r>
       <r>    3.3802    1.0000 </r>
       <r>    3.6581    1.0000 </r>
       <r>    3.8441    1.0000 </r>
       <r>    3.9998    1.0000 </r>
       <r>    4.2641    1.0000 </r>
       <r>    4.5658    1.0000 </r>
       <r>    4.7420    1.0000 </r>
       <r>    4.8852    1.0000 </r>
       <r>    5.0375    1.0000 </r>
       <r>    5.3792    1.0000 </r>
       <r>    5.5910    1.0000 </r>
       <r>    5.7271    1.0000 </r>
       <r>    5.9739    1.0000 </r>
       <r>    6.1584    1.0000 </r>
       <r>    6.2830    1.0000 </r>
       <r>    6.4481    1.0000 </r>
       <r>    6.5528    1.0000 </r>
       <r>    7.7875    1.0000 </r>
       <r>    7.9385    1.0000 </r>
       <r>    8.2161    1.0000 </r>
       <r>    8.3095    1.0000 </r>
       <r>    8.6169    1.0000 </r>
       <r>    8.7756    1.0000 </r>
       <r>    8.9057    1.0000 </r>
       <r>    9.0978    1.0022 </r>
       <r>    9.3408    1.0341 </r>
       <r>    9.5856    0.4252 </r>
       <r>    9.7573   -0.0187 </r>
       <r>    9.8097   -0.0354 </r>
       <r>   10.0529   -0.0016 </r>
       <r>   10.1596   -0.0001 </r>
       <r>   10.2666   -0.0000 </r>
       <r>   10.5621   -0.0000 </r>
       <r>   10.7373   -0.0000 </r>
       <r>   10.8318   -0.0000 </r>
       <r>   11.0777   -0.0000 </r>
       <r>   11.4554   -0.0000 </r>
       <r>   11.5513   -0.0000 </r>
       <r>   11.7748   -0.0000 </r>
       <r>   12.0497   -0.0000 </r>
       <r>   12.1045   -0.0000 </r>
       <r>   12.1877   -0.0000 </r>
       <r>   12.5043   -0.0000 </r>
       <r>   12.6103   -0.0000 </r>
       <r>   12.8985   -0.0000 </r>
       <r>   13.0978   -0.0000 </r>
       <r>   13.3156   -0.0000 </r>
       <r>   13.4004   -0.0000 </r>
       <r>   13.4982   -0.0000 </r>
       <r>   13.8002   -0.0000 </r>
       <r>   13.9453   -0.0000 </r>
      </set>
      <set comment="kpoint 57">
       <r>   -1.8996    1.0000 </r>
       <r>   -1.4853    1.0000 </r>
       <r>   -1.1035    1.0000 </r>
       <r>   -0.8385    1.0000 </r>
       <r>    0.1002    1.0000 </r>
       <r>    0.7344    1.0000 </r>
       <r>    0.9690    1.0000 </r>
       <r>    1.6228    1.0000 </r>
       <r>    2.0329    1.0000 </r>
       <r>    2.3106    1.0000 </r>
       <r>    2.6490    1.0000 </r>
       <r>    2.8585    1.0000 </r>
       <r>    3.1959    1.0000 </r>
       <r>    3.2917    1.0000 </r>
       <r>    3.7642    1.0000 </r>
       <r>    3.9117    1.0000 </r>
       <r>    4.0338    1.0000 </r>
       <r>    4.3450    1.0000 </r>
       <r>    4.6307    1.0000 </r>
       <r>    4.6786    1.0000 </r>
       <r>    4.8548    1.0000 </r>
       <r>    4.9780    1.0000 </r>
       <r>    5.4198    1.0000 </r>
       <r>    5.5525    1.0000 </r>
       <r>    5.7525    1.0000 </r>
       <r>    5.8787    1.0000 </r>
       <r>    6.0972    1.0000 </r>
       <r>    6.2166    1.0000 </r>
       <r>    6.5404    1.0000 </r>
       <r>    6.6241    1.0000 </r>
       <r>    7.6275    1.0000 </r>
       <r>    8.0420    1.0000 </r>
       <r>    8.2510    1.0000 </r>
       <r>    8.3292    1.0000 </r>
       <r>    8.4810    1.0000 </r>
       <r>    8.5672    1.0000 </r>
       <r>    8.9886    1.0002 </r>
       <r>    9.1263    1.0039 </r>
       <r>    9.4359    0.9451 </r>
       <r>    9.5758    0.4666 </r>
       <r>    9.6749    0.1111 </r>
       <r>    9.7749   -0.0284 </r>
       <r>   10.0052   -0.0042 </r>
       <r>   10.1285   -0.0003 </r>
       <r>   10.4537   -0.0000 </r>
       <r>   10.5706   -0.0000 </r>
       <r>   10.9131   -0.0000 </r>
       <r>   10.9739   -0.0000 </r>
       <r>   11.1428   -0.0000 </r>
       <r>   11.3773   -0.0000 </r>
       <r>   11.6216   -0.0000 </r>
       <r>   11.7734   -0.0000 </r>
       <r>   11.9183   -0.0000 </r>
       <r>   12.1175   -0.0000 </r>
       <r>   12.2107   -0.0000 </r>
       <r>   12.4036   -0.0000 </r>
       <r>   12.5829   -0.0000 </r>
       <r>   12.8873   -0.0000 </r>
       <r>   13.1131   -0.0000 </r>
       <r>   13.2815   -0.0000 </r>
       <r>   13.4201   -0.0000 </r>
       <r>   13.5121   -0.0000 </r>
       <r>   13.6752   -0.0000 </r>
       <r>   13.9107   -0.0000 </r>
      </set>
      <set comment="kpoint 58">
       <r>   -1.9150    1.0000 </r>
       <r>   -1.3990    1.0000 </r>
       <r>   -1.1898    1.0000 </r>
       <r>   -0.8589    1.0000 </r>
       <r>    0.2055    1.0000 </r>
       <r>    0.7329    1.0000 </r>
       <r>    0.9095    1.0000 </r>
       <r>    1.5411    1.0000 </r>
       <r>    2.0240    1.0000 </r>
       <r>    2.3043    1.0000 </r>
       <r>    2.7962    1.0000 </r>
       <r>    2.8614    1.0000 </r>
       <r>    3.1219    1.0000 </r>
       <r>    3.4385    1.0000 </r>
       <r>    3.6648    1.0000 </r>
       <r>    3.9552    1.0000 </r>
       <r>    4.0744    1.0000 </r>
       <r>    4.2710    1.0000 </r>
       <r>    4.4911    1.0000 </r>
       <r>    4.6850    1.0000 </r>
       <r>    4.8209    1.0000 </r>
       <r>    5.1657    1.0000 </r>
       <r>    5.3058    1.0000 </r>
       <r>    5.4795    1.0000 </r>
       <r>    5.6811    1.0000 </r>
       <r>    5.9213    1.0000 </r>
       <r>    6.2136    1.0000 </r>
       <r>    6.2751    1.0000 </r>
       <r>    6.5084    1.0000 </r>
       <r>    6.6797    1.0000 </r>
       <r>    7.6746    1.0000 </r>
       <r>    8.0310    1.0000 </r>
       <r>    8.1944    1.0000 </r>
       <r>    8.3707    1.0000 </r>
       <r>    8.5191    1.0000 </r>
       <r>    8.6207    1.0000 </r>
       <r>    8.7646    1.0000 </r>
       <r>    9.0840    1.0016 </r>
       <r>    9.3785    1.0187 </r>
       <r>    9.6517    0.1773 </r>
       <r>    9.7202    0.0204 </r>
       <r>    9.8372   -0.0335 </r>
       <r>   10.0726   -0.0010 </r>
       <r>   10.1801   -0.0001 </r>
       <r>   10.2804   -0.0000 </r>
       <r>   10.5718   -0.0000 </r>
       <r>   10.8234   -0.0000 </r>
       <r>   10.9559   -0.0000 </r>
       <r>   11.1941   -0.0000 </r>
       <r>   11.3655   -0.0000 </r>
       <r>   11.5599   -0.0000 </r>
       <r>   11.8423   -0.0000 </r>
       <r>   11.9488   -0.0000 </r>
       <r>   12.1021   -0.0000 </r>
       <r>   12.2979   -0.0000 </r>
       <r>   12.4086   -0.0000 </r>
       <r>   12.6993   -0.0000 </r>
       <r>   12.9128   -0.0000 </r>
       <r>   13.0545   -0.0000 </r>
       <r>   13.2656   -0.0000 </r>
       <r>   13.3928   -0.0000 </r>
       <r>   13.5874   -0.0000 </r>
       <r>   13.6887   -0.0000 </r>
       <r>   13.8247   -0.0000 </r>
      </set>
      <set comment="kpoint 59">
       <r>   -1.8864    1.0000 </r>
       <r>   -1.4777    1.0000 </r>
       <r>   -1.1742    1.0000 </r>
       <r>   -0.8069    1.0000 </r>
       <r>    0.1268    1.0000 </r>
       <r>    0.7951    1.0000 </r>
       <r>    0.9747    1.0000 </r>
       <r>    1.5231    1.0000 </r>
       <r>    1.9363    1.0000 </r>
       <r>    2.3395    1.0000 </r>
       <r>    2.7089    1.0000 </r>
       <r>    2.9624    1.0000 </r>
       <r>    3.2285    1.0000 </r>
       <r>    3.4283    1.0000 </r>
       <r>    3.6279    1.0000 </r>
       <r>    3.8140    1.0000 </r>
       <r>    4.0091    1.0000 </r>
       <r>    4.2277    1.0000 </r>
       <r>    4.4829    1.0000 </r>
       <r>    4.7869    1.0000 </r>
       <r>    4.8694    1.0000 </r>
       <r>    5.1768    1.0000 </r>
       <r>    5.3018    1.0000 </r>
       <r>    5.5743    1.0000 </r>
       <r>    5.7786    1.0000 </r>
       <r>    5.9074    1.0000 </r>
       <r>    6.1698    1.0000 </r>
       <r>    6.2830    1.0000 </r>
       <r>    6.4343    1.0000 </r>
       <r>    6.6476    1.0000 </r>
       <r>    7.6876    1.0000 </r>
       <r>    7.9341    1.0000 </r>
       <r>    8.1253    1.0000 </r>
       <r>    8.4000    1.0000 </r>
       <r>    8.5057    1.0000 </r>
       <r>    8.6766    1.0000 </r>
       <r>    8.8432    1.0000 </r>
       <r>    9.1401    1.0050 </r>
       <r>    9.4311    0.9540 </r>
       <r>    9.5678    0.5001 </r>
       <r>    9.6969    0.0607 </r>
       <r>    9.8155   -0.0354 </r>
       <r>   10.1069   -0.0005 </r>
       <r>   10.2128   -0.0000 </r>
       <r>   10.3476   -0.0000 </r>
       <r>   10.6361   -0.0000 </r>
       <r>   10.7393   -0.0000 </r>
       <r>   10.9024   -0.0000 </r>
       <r>   11.1214   -0.0000 </r>
       <r>   11.3635   -0.0000 </r>
       <r>   11.6213   -0.0000 </r>
       <r>   11.8792   -0.0000 </r>
       <r>   11.9332   -0.0000 </r>
       <r>   12.0061   -0.0000 </r>
       <r>   12.2080   -0.0000 </r>
       <r>   12.4509   -0.0000 </r>
       <r>   12.6180   -0.0000 </r>
       <r>   13.0179   -0.0000 </r>
       <r>   13.1409   -0.0000 </r>
       <r>   13.2394   -0.0000 </r>
       <r>   13.3507   -0.0000 </r>
       <r>   13.5212   -0.0000 </r>
       <r>   13.7537   -0.0000 </r>
       <r>   13.9087   -0.0000 </r>
      </set>
      <set comment="kpoint 60">
       <r>   -1.8944    1.0000 </r>
       <r>   -1.4833    1.0000 </r>
       <r>   -1.1410    1.0000 </r>
       <r>   -0.8070    1.0000 </r>
       <r>    0.1404    1.0000 </r>
       <r>    0.5718    1.0000 </r>
       <r>    1.1426    1.0000 </r>
       <r>    1.5687    1.0000 </r>
       <r>    2.0025    1.0000 </r>
       <r>    2.3885    1.0000 </r>
       <r>    2.6280    1.0000 </r>
       <r>    2.9091    1.0000 </r>
       <r>    3.1950    1.0000 </r>
       <r>    3.3176    1.0000 </r>
       <r>    3.6826    1.0000 </r>
       <r>    3.8014    1.0000 </r>
       <r>    3.9739    1.0000 </r>
       <r>    4.3260    1.0000 </r>
       <r>    4.5493    1.0000 </r>
       <r>    4.7786    1.0000 </r>
       <r>    4.9282    1.0000 </r>
       <r>    5.0975    1.0000 </r>
       <r>    5.4411    1.0000 </r>
       <r>    5.6383    1.0000 </r>
       <r>    5.7167    1.0000 </r>
       <r>    5.8366    1.0000 </r>
       <r>    6.1410    1.0000 </r>
       <r>    6.2636    1.0000 </r>
       <r>    6.4420    1.0000 </r>
       <r>    6.5394    1.0000 </r>
       <r>    7.6485    1.0000 </r>
       <r>    7.9517    1.0000 </r>
       <r>    8.2292    1.0000 </r>
       <r>    8.3913    1.0000 </r>
       <r>    8.4847    1.0000 </r>
       <r>    8.6542    1.0000 </r>
       <r>    8.9450    1.0000 </r>
       <r>    9.1066    1.0026 </r>
       <r>    9.4390    0.9390 </r>
       <r>    9.6243    0.2714 </r>
       <r>    9.7093    0.0377 </r>
       <r>    9.7625   -0.0221 </r>
       <r>   10.0688   -0.0011 </r>
       <r>   10.1151   -0.0004 </r>
       <r>   10.3757   -0.0000 </r>
       <r>   10.5934   -0.0000 </r>
       <r>   10.8441   -0.0000 </r>
       <r>   10.9327   -0.0000 </r>
       <r>   11.1728   -0.0000 </r>
       <r>   11.4255   -0.0000 </r>
       <r>   11.6067   -0.0000 </r>
       <r>   11.7981   -0.0000 </r>
       <r>   11.9427   -0.0000 </r>
       <r>   12.0786   -0.0000 </r>
       <r>   12.2250   -0.0000 </r>
       <r>   12.3208   -0.0000 </r>
       <r>   12.6135   -0.0000 </r>
       <r>   12.9483   -0.0000 </r>
       <r>   13.0859   -0.0000 </r>
       <r>   13.2515   -0.0000 </r>
       <r>   13.3302   -0.0000 </r>
       <r>   13.5042   -0.0000 </r>
       <r>   13.7032   -0.0000 </r>
       <r>   13.9921   -0.0000 </r>
      </set>
      <set comment="kpoint 61">
       <r>   -1.8852    1.0000 </r>
       <r>   -1.4866    1.0000 </r>
       <r>   -1.1369    1.0000 </r>
       <r>   -0.8523    1.0000 </r>
       <r>    0.1800    1.0000 </r>
       <r>    0.6874    1.0000 </r>
       <r>    1.0273    1.0000 </r>
       <r>    1.5473    1.0000 </r>
       <r>    1.9554    1.0000 </r>
       <r>    2.3726    1.0000 </r>
       <r>    2.6641    1.0000 </r>
       <r>    2.8870    1.0000 </r>
       <r>    3.2269    1.0000 </r>
       <r>    3.3694    1.0000 </r>
       <r>    3.7041    1.0000 </r>
       <r>    3.9277    1.0000 </r>
       <r>    3.9872    1.0000 </r>
       <r>    4.2367    1.0000 </r>
       <r>    4.6061    1.0000 </r>
       <r>    4.7859    1.0000 </r>
       <r>    4.8639    1.0000 </r>
       <r>    5.0075    1.0000 </r>
       <r>    5.2971    1.0000 </r>
       <r>    5.6204    1.0000 </r>
       <r>    5.7074    1.0000 </r>
       <r>    5.8397    1.0000 </r>
       <r>    6.1086    1.0000 </r>
       <r>    6.2838    1.0000 </r>
       <r>    6.5056    1.0000 </r>
       <r>    6.6350    1.0000 </r>
       <r>    7.6803    1.0000 </r>
       <r>    8.0303    1.0000 </r>
       <r>    8.2363    1.0000 </r>
       <r>    8.4150    1.0000 </r>
       <r>    8.5797    1.0000 </r>
       <r>    8.6043    1.0000 </r>
       <r>    8.8733    1.0000 </r>
       <r>    9.1732    1.0087 </r>
       <r>    9.3392    1.0343 </r>
       <r>    9.5222    0.6879 </r>
       <r>    9.6467    0.1936 </r>
       <r>    9.8594   -0.0295 </r>
       <r>   10.0381   -0.0022 </r>
       <r>   10.2130   -0.0000 </r>
       <r>   10.4347   -0.0000 </r>
       <r>   10.6203   -0.0000 </r>
       <r>   10.7118   -0.0000 </r>
       <r>   10.8819   -0.0000 </r>
       <r>   11.0859   -0.0000 </r>
       <r>   11.3923   -0.0000 </r>
       <r>   11.6185   -0.0000 </r>
       <r>   11.7926   -0.0000 </r>
       <r>   11.8932   -0.0000 </r>
       <r>   12.0452   -0.0000 </r>
       <r>   12.2868   -0.0000 </r>
       <r>   12.4758   -0.0000 </r>
       <r>   12.5853   -0.0000 </r>
       <r>   12.9596   -0.0000 </r>
       <r>   13.1110   -0.0000 </r>
       <r>   13.2063   -0.0000 </r>
       <r>   13.4454   -0.0000 </r>
       <r>   13.6005   -0.0000 </r>
       <r>   13.7374   -0.0000 </r>
       <r>   13.9054   -0.0000 </r>
      </set>
      <set comment="kpoint 62">
       <r>   -1.8723    1.0000 </r>
       <r>   -1.5094    1.0000 </r>
       <r>   -1.1411    1.0000 </r>
       <r>   -0.8497    1.0000 </r>
       <r>    0.2262    1.0000 </r>
       <r>    0.6949    1.0000 </r>
       <r>    0.9986    1.0000 </r>
       <r>    1.4909    1.0000 </r>
       <r>    2.0170    1.0000 </r>
       <r>    2.3413    1.0000 </r>
       <r>    2.7249    1.0000 </r>
       <r>    2.8686    1.0000 </r>
       <r>    3.1026    1.0000 </r>
       <r>    3.4706    1.0000 </r>
       <r>    3.6254    1.0000 </r>
       <r>    3.9559    1.0000 </r>
       <r>    4.0379    1.0000 </r>
       <r>    4.2726    1.0000 </r>
       <r>    4.5636    1.0000 </r>
       <r>    4.6309    1.0000 </r>
       <r>    4.8850    1.0000 </r>
       <r>    5.1329    1.0000 </r>
       <r>    5.3727    1.0000 </r>
       <r>    5.5622    1.0000 </r>
       <r>    5.7686    1.0000 </r>
       <r>    5.9081    1.0000 </r>
       <r>    6.0340    1.0000 </r>
       <r>    6.3163    1.0000 </r>
       <r>    6.4373    1.0000 </r>
       <r>    6.6137    1.0000 </r>
       <r>    7.7959    1.0000 </r>
       <r>    7.9289    1.0000 </r>
       <r>    8.1377    1.0000 </r>
       <r>    8.4533    1.0000 </r>
       <r>    8.5385    1.0000 </r>
       <r>    8.6643    1.0000 </r>
       <r>    8.8610    1.0000 </r>
       <r>    9.1375    1.0047 </r>
       <r>    9.3347    1.0349 </r>
       <r>    9.5874    0.4179 </r>
       <r>    9.7813   -0.0307 </r>
       <r>    9.7930   -0.0337 </r>
       <r>   10.0408   -0.0021 </r>
       <r>   10.1381   -0.0002 </r>
       <r>   10.3084   -0.0000 </r>
       <r>   10.6283   -0.0000 </r>
       <r>   10.7574   -0.0000 </r>
       <r>   10.9111   -0.0000 </r>
       <r>   11.0578   -0.0000 </r>
       <r>   11.5028   -0.0000 </r>
       <r>   11.5976   -0.0000 </r>
       <r>   11.8334   -0.0000 </r>
       <r>   11.8865   -0.0000 </r>
       <r>   12.0807   -0.0000 </r>
       <r>   12.2947   -0.0000 </r>
       <r>   12.4249   -0.0000 </r>
       <r>   12.5974   -0.0000 </r>
       <r>   12.9358   -0.0000 </r>
       <r>   13.1831   -0.0000 </r>
       <r>   13.2586   -0.0000 </r>
       <r>   13.2988   -0.0000 </r>
       <r>   13.5768   -0.0000 </r>
       <r>   13.6401   -0.0000 </r>
       <r>   13.9028   -0.0000 </r>
      </set>
      <set comment="kpoint 63">
       <r>   -1.8854    1.0000 </r>
       <r>   -1.4706    1.0000 </r>
       <r>   -1.1680    1.0000 </r>
       <r>   -0.8173    1.0000 </r>
       <r>    0.1051    1.0000 </r>
       <r>    0.7350    1.0000 </r>
       <r>    0.9401    1.0000 </r>
       <r>    1.5912    1.0000 </r>
       <r>    2.1860    1.0000 </r>
       <r>    2.3951    1.0000 </r>
       <r>    2.6448    1.0000 </r>
       <r>    2.9488    1.0000 </r>
       <r>    3.0734    1.0000 </r>
       <r>    3.3399    1.0000 </r>
       <r>    3.5559    1.0000 </r>
       <r>    3.8883    1.0000 </r>
       <r>    3.9358    1.0000 </r>
       <r>    4.3864    1.0000 </r>
       <r>    4.5007    1.0000 </r>
       <r>    4.7039    1.0000 </r>
       <r>    4.8347    1.0000 </r>
       <r>    5.1099    1.0000 </r>
       <r>    5.3266    1.0000 </r>
       <r>    5.6602    1.0000 </r>
       <r>    5.7507    1.0000 </r>
       <r>    5.8999    1.0000 </r>
       <r>    6.1443    1.0000 </r>
       <r>    6.2714    1.0000 </r>
       <r>    6.5189    1.0000 </r>
       <r>    6.6441    1.0000 </r>
       <r>    7.7163    1.0000 </r>
       <r>    8.0387    1.0000 </r>
       <r>    8.1563    1.0000 </r>
       <r>    8.3593    1.0000 </r>
       <r>    8.5455    1.0000 </r>
       <r>    8.5736    1.0000 </r>
       <r>    8.8873    1.0000 </r>
       <r>    9.0362    1.0006 </r>
       <r>    9.4533    0.9076 </r>
       <r>    9.5792    0.4522 </r>
       <r>    9.7153    0.0278 </r>
       <r>    9.8463   -0.0321 </r>
       <r>   10.0795   -0.0009 </r>
       <r>   10.1785   -0.0001 </r>
       <r>   10.4095   -0.0000 </r>
       <r>   10.5828   -0.0000 </r>
       <r>   10.7879   -0.0000 </r>
       <r>   10.9225   -0.0000 </r>
       <r>   11.0921   -0.0000 </r>
       <r>   11.4435   -0.0000 </r>
       <r>   11.5824   -0.0000 </r>
       <r>   11.7068   -0.0000 </r>
       <r>   11.9514   -0.0000 </r>
       <r>   12.0856   -0.0000 </r>
       <r>   12.2810   -0.0000 </r>
       <r>   12.4818   -0.0000 </r>
       <r>   12.6785   -0.0000 </r>
       <r>   12.9121   -0.0000 </r>
       <r>   13.0625   -0.0000 </r>
       <r>   13.2176   -0.0000 </r>
       <r>   13.2882   -0.0000 </r>
       <r>   13.5559   -0.0000 </r>
       <r>   13.7423   -0.0000 </r>
       <r>   13.8217   -0.0000 </r>
      </set>
      <set comment="kpoint 64">
       <r>   -1.8951    1.0000 </r>
       <r>   -1.4840    1.0000 </r>
       <r>   -1.1291    1.0000 </r>
       <r>   -0.8403    1.0000 </r>
       <r>    0.1929    1.0000 </r>
       <r>    0.6776    1.0000 </r>
       <r>    0.9777    1.0000 </r>
       <r>    1.5550    1.0000 </r>
       <r>    2.0430    1.0000 </r>
       <r>    2.3609    1.0000 </r>
       <r>    2.6010    1.0000 </r>
       <r>    2.7870    1.0000 </r>
       <r>    3.2008    1.0000 </r>
       <r>    3.4161    1.0000 </r>
       <r>    3.7195    1.0000 </r>
       <r>    4.0056    1.0000 </r>
       <r>    4.0236    1.0000 </r>
       <r>    4.3570    1.0000 </r>
       <r>    4.5640    1.0000 </r>
       <r>    4.6938    1.0000 </r>
       <r>    4.8812    1.0000 </r>
       <r>    4.9919    1.0000 </r>
       <r>    5.3399    1.0000 </r>
       <r>    5.5197    1.0000 </r>
       <r>    5.7135    1.0000 </r>
       <r>    5.9080    1.0000 </r>
       <r>    6.0663    1.0000 </r>
       <r>    6.3195    1.0000 </r>
       <r>    6.5378    1.0000 </r>
       <r>    6.6295    1.0000 </r>
       <r>    7.6731    1.0000 </r>
       <r>    8.0022    1.0000 </r>
       <r>    8.1499    1.0000 </r>
       <r>    8.3640    1.0000 </r>
       <r>    8.5128    1.0000 </r>
       <r>    8.6355    1.0000 </r>
       <r>    8.8729    1.0000 </r>
       <r>    9.1896    1.0112 </r>
       <r>    9.4964    0.7822 </r>
       <r>    9.5811    0.4440 </r>
       <r>    9.6070    0.3380 </r>
       <r>    9.7401   -0.0041 </r>
       <r>   10.1103   -0.0004 </r>
       <r>   10.1640   -0.0001 </r>
       <r>   10.4380   -0.0000 </r>
       <r>   10.6215   -0.0000 </r>
       <r>   10.7358   -0.0000 </r>
       <r>   10.9114   -0.0000 </r>
       <r>   11.0593   -0.0000 </r>
       <r>   11.4081   -0.0000 </r>
       <r>   11.6063   -0.0000 </r>
       <r>   11.7507   -0.0000 </r>
       <r>   11.9208   -0.0000 </r>
       <r>   12.1009   -0.0000 </r>
       <r>   12.3215   -0.0000 </r>
       <r>   12.3747   -0.0000 </r>
       <r>   12.6478   -0.0000 </r>
       <r>   12.9746   -0.0000 </r>
       <r>   13.1962   -0.0000 </r>
       <r>   13.2978   -0.0000 </r>
       <r>   13.3873   -0.0000 </r>
       <r>   13.5251   -0.0000 </r>
       <r>   13.6860   -0.0000 </r>
       <r>   13.9420   -0.0000 </r>
      </set>
      <set comment="kpoint 65">
       <r>   -1.8951    1.0000 </r>
       <r>   -1.4731    1.0000 </r>
       <r>   -1.1158    1.0000 </r>
       <r>   -0.8618    1.0000 </r>
       <r>    0.1474    1.0000 </r>
       <r>    0.6070    1.0000 </r>
       <r>    1.0761    1.0000 </r>
       <r>    1.5413    1.0000 </r>
       <r>    2.1589    1.0000 </r>
       <r>    2.3773    1.0000 </r>
       <r>    2.7098    1.0000 </r>
       <r>    2.8718    1.0000 </r>
       <r>    3.1043    1.0000 </r>
       <r>    3.3703    1.0000 </r>
       <r>    3.5725    1.0000 </r>
       <r>    3.7956    1.0000 </r>
       <r>    4.0046    1.0000 </r>
       <r>    4.3132    1.0000 </r>
       <r>    4.5083    1.0000 </r>
       <r>    4.7344    1.0000 </r>
       <r>    5.0025    1.0000 </r>
       <r>    5.0889    1.0000 </r>
       <r>    5.3737    1.0000 </r>
       <r>    5.5756    1.0000 </r>
       <r>    5.7479    1.0000 </r>
       <r>    5.8755    1.0000 </r>
       <r>    6.1657    1.0000 </r>
       <r>    6.2702    1.0000 </r>
       <r>    6.4884    1.0000 </r>
       <r>    6.5822    1.0000 </r>
       <r>    7.6957    1.0000 </r>
       <r>    8.0132    1.0000 </r>
       <r>    8.2246    1.0000 </r>
       <r>    8.3602    1.0000 </r>
       <r>    8.4893    1.0000 </r>
       <r>    8.5768    1.0000 </r>
       <r>    8.8847    1.0000 </r>
       <r>    9.1156    1.0031 </r>
       <r>    9.4068    0.9914 </r>
       <r>    9.6618    0.1471 </r>
       <r>    9.7258    0.0127 </r>
       <r>    9.8862   -0.0234 </r>
       <r>   10.0019   -0.0044 </r>
       <r>   10.1748   -0.0001 </r>
       <r>   10.3226   -0.0000 </r>
       <r>   10.5148   -0.0000 </r>
       <r>   10.8091   -0.0000 </r>
       <r>   10.9647   -0.0000 </r>
       <r>   11.1191   -0.0000 </r>
       <r>   11.4659   -0.0000 </r>
       <r>   11.6196   -0.0000 </r>
       <r>   11.8495   -0.0000 </r>
       <r>   11.9933   -0.0000 </r>
       <r>   12.0591   -0.0000 </r>
       <r>   12.2374   -0.0000 </r>
       <r>   12.4128   -0.0000 </r>
       <r>   12.5966   -0.0000 </r>
       <r>   12.8150   -0.0000 </r>
       <r>   13.0520   -0.0000 </r>
       <r>   13.2603   -0.0000 </r>
       <r>   13.3514   -0.0000 </r>
       <r>   13.4511   -0.0000 </r>
       <r>   13.7258   -0.0000 </r>
       <r>   14.0507   -0.0000 </r>
      </set>
      <set comment="kpoint 66">
       <r>   -1.9046    1.0000 </r>
       <r>   -1.4155    1.0000 </r>
       <r>   -1.1974    1.0000 </r>
       <r>   -0.8442    1.0000 </r>
       <r>    0.1846    1.0000 </r>
       <r>    0.6445    1.0000 </r>
       <r>    1.0761    1.0000 </r>
       <r>    1.5539    1.0000 </r>
       <r>    1.9747    1.0000 </r>
       <r>    2.3513    1.0000 </r>
       <r>    2.6137    1.0000 </r>
       <r>    2.8797    1.0000 </r>
       <r>    3.2059    1.0000 </r>
       <r>    3.3442    1.0000 </r>
       <r>    3.7197    1.0000 </r>
       <r>    4.0290    1.0000 </r>
       <r>    4.0908    1.0000 </r>
       <r>    4.2522    1.0000 </r>
       <r>    4.5914    1.0000 </r>
       <r>    4.7718    1.0000 </r>
       <r>    4.8075    1.0000 </r>
       <r>    4.8826    1.0000 </r>
       <r>    5.3684    1.0000 </r>
       <r>    5.5885    1.0000 </r>
       <r>    5.6265    1.0000 </r>
       <r>    5.8874    1.0000 </r>
       <r>    6.1727    1.0000 </r>
       <r>    6.2442    1.0000 </r>
       <r>    6.5485    1.0000 </r>
       <r>    6.6554    1.0000 </r>
       <r>    7.6411    1.0000 </r>
       <r>    8.0955    1.0000 </r>
       <r>    8.2156    1.0000 </r>
       <r>    8.4068    1.0000 </r>
       <r>    8.5096    1.0000 </r>
       <r>    8.5904    1.0000 </r>
       <r>    8.8505    1.0000 </r>
       <r>    9.1396    1.0049 </r>
       <r>    9.3955    1.0042 </r>
       <r>    9.5500    0.5751 </r>
       <r>    9.7103    0.0359 </r>
       <r>    9.8426   -0.0327 </r>
       <r>   10.0950   -0.0006 </r>
       <r>   10.2156   -0.0000 </r>
       <r>   10.3667   -0.0000 </r>
       <r>   10.5265   -0.0000 </r>
       <r>   10.8022   -0.0000 </r>
       <r>   10.8768   -0.0000 </r>
       <r>   11.1375   -0.0000 </r>
       <r>   11.4074   -0.0000 </r>
       <r>   11.6493   -0.0000 </r>
       <r>   11.7603   -0.0000 </r>
       <r>   11.8663   -0.0000 </r>
       <r>   11.9391   -0.0000 </r>
       <r>   12.2762   -0.0000 </r>
       <r>   12.4031   -0.0000 </r>
       <r>   12.6538   -0.0000 </r>
       <r>   12.9747   -0.0000 </r>
       <r>   13.1436   -0.0000 </r>
       <r>   13.3330   -0.0000 </r>
       <r>   13.3698   -0.0000 </r>
       <r>   13.7019   -0.0000 </r>
       <r>   13.8355   -0.0000 </r>
       <r>   13.9190   -0.0000 </r>
      </set>
      <set comment="kpoint 67">
       <r>   -1.8637    1.0000 </r>
       <r>   -1.5375    1.0000 </r>
       <r>   -1.1367    1.0000 </r>
       <r>   -0.8180    1.0000 </r>
       <r>    0.1956    1.0000 </r>
       <r>    0.7493    1.0000 </r>
       <r>    0.9562    1.0000 </r>
       <r>    1.4872    1.0000 </r>
       <r>    1.9616    1.0000 </r>
       <r>    2.4494    1.0000 </r>
       <r>    2.6300    1.0000 </r>
       <r>    2.9072    1.0000 </r>
       <r>    3.1554    1.0000 </r>
       <r>    3.3611    1.0000 </r>
       <r>    3.7443    1.0000 </r>
       <r>    3.9012    1.0000 </r>
       <r>    4.0388    1.0000 </r>
       <r>    4.2804    1.0000 </r>
       <r>    4.5394    1.0000 </r>
       <r>    4.7480    1.0000 </r>
       <r>    4.8160    1.0000 </r>
       <r>    5.1420    1.0000 </r>
       <r>    5.2968    1.0000 </r>
       <r>    5.4861    1.0000 </r>
       <r>    5.7536    1.0000 </r>
       <r>    6.0098    1.0000 </r>
       <r>    6.0918    1.0000 </r>
       <r>    6.2773    1.0000 </r>
       <r>    6.5175    1.0000 </r>
       <r>    6.5879    1.0000 </r>
       <r>    7.7674    1.0000 </r>
       <r>    7.9141    1.0000 </r>
       <r>    8.1959    1.0000 </r>
       <r>    8.4117    1.0000 </r>
       <r>    8.4795    1.0000 </r>
       <r>    8.6593    1.0000 </r>
       <r>    8.8527    1.0000 </r>
       <r>    9.1704    1.0083 </r>
       <r>    9.3693    1.0244 </r>
       <r>    9.6035    0.3519 </r>
       <r>    9.7002    0.0543 </r>
       <r>    9.7703   -0.0263 </r>
       <r>   10.0301   -0.0026 </r>
       <r>   10.1822   -0.0001 </r>
       <r>   10.2473   -0.0000 </r>
       <r>   10.7029   -0.0000 </r>
       <r>   10.7777   -0.0000 </r>
       <r>   10.9142   -0.0000 </r>
       <r>   11.0879   -0.0000 </r>
       <r>   11.3658   -0.0000 </r>
       <r>   11.6739   -0.0000 </r>
       <r>   11.8005   -0.0000 </r>
       <r>   11.9932   -0.0000 </r>
       <r>   12.1446   -0.0000 </r>
       <r>   12.1844   -0.0000 </r>
       <r>   12.4301   -0.0000 </r>
       <r>   12.5557   -0.0000 </r>
       <r>   13.0247   -0.0000 </r>
       <r>   13.1763   -0.0000 </r>
       <r>   13.2304   -0.0000 </r>
       <r>   13.4355   -0.0000 </r>
       <r>   13.5617   -0.0000 </r>
       <r>   13.7011   -0.0000 </r>
       <r>   13.8474   -0.0000 </r>
      </set>
      <set comment="kpoint 68">
       <r>   -1.8944    1.0000 </r>
       <r>   -1.4772    1.0000 </r>
       <r>   -1.1551    1.0000 </r>
       <r>   -0.8185    1.0000 </r>
       <r>    0.1815    1.0000 </r>
       <r>    0.7011    1.0000 </r>
       <r>    0.9907    1.0000 </r>
       <r>    1.5135    1.0000 </r>
       <r>    1.9710    1.0000 </r>
       <r>    2.3937    1.0000 </r>
       <r>    2.6272    1.0000 </r>
       <r>    2.8754    1.0000 </r>
       <r>    3.2129    1.0000 </r>
       <r>    3.3937    1.0000 </r>
       <r>    3.7215    1.0000 </r>
       <r>    3.9850    1.0000 </r>
       <r>    4.0905    1.0000 </r>
       <r>    4.1764    1.0000 </r>
       <r>    4.5436    1.0000 </r>
       <r>    4.7199    1.0000 </r>
       <r>    4.8982    1.0000 </r>
       <r>    5.0561    1.0000 </r>
       <r>    5.2965    1.0000 </r>
       <r>    5.5328    1.0000 </r>
       <r>    5.7726    1.0000 </r>
       <r>    5.8922    1.0000 </r>
       <r>    6.1142    1.0000 </r>
       <r>    6.2862    1.0000 </r>
       <r>    6.5170    1.0000 </r>
       <r>    6.5921    1.0000 </r>
       <r>    7.6440    1.0000 </r>
       <r>    7.9336    1.0000 </r>
       <r>    8.2572    1.0000 </r>
       <r>    8.4282    1.0000 </r>
       <r>    8.5495    1.0000 </r>
       <r>    8.6796    1.0000 </r>
       <r>    8.8242    1.0000 </r>
       <r>    9.1566    1.0066 </r>
       <r>    9.4311    0.9542 </r>
       <r>    9.5879    0.4156 </r>
       <r>    9.6478    0.1899 </r>
       <r>    9.7794   -0.0301 </r>
       <r>   10.1058   -0.0005 </r>
       <r>   10.1762   -0.0001 </r>
       <r>   10.3821   -0.0000 </r>
       <r>   10.5575   -0.0000 </r>
       <r>   10.6943   -0.0000 </r>
       <r>   10.9079   -0.0000 </r>
       <r>   11.0480   -0.0000 </r>
       <r>   11.4241   -0.0000 </r>
       <r>   11.5708   -0.0000 </r>
       <r>   11.8048   -0.0000 </r>
       <r>   11.9782   -0.0000 </r>
       <r>   12.0849   -0.0000 </r>
       <r>   12.2066   -0.0000 </r>
       <r>   12.5076   -0.0000 </r>
       <r>   12.6547   -0.0000 </r>
       <r>   13.0656   -0.0000 </r>
       <r>   13.1561   -0.0000 </r>
       <r>   13.2470   -0.0000 </r>
       <r>   13.4179   -0.0000 </r>
       <r>   13.6134   -0.0000 </r>
       <r>   13.6955   -0.0000 </r>
       <r>   13.7970   -0.0000 </r>
      </set>
      <set comment="kpoint 69">
       <r>   -1.8498    1.0000 </r>
       <r>   -1.5565    1.0000 </r>
       <r>   -1.1229    1.0000 </r>
       <r>   -0.8240    1.0000 </r>
       <r>    0.1162    1.0000 </r>
       <r>    0.7851    1.0000 </r>
       <r>    1.0414    1.0000 </r>
       <r>    1.5156    1.0000 </r>
       <r>    1.9929    1.0000 </r>
       <r>    2.2689    1.0000 </r>
       <r>    2.7378    1.0000 </r>
       <r>    2.8608    1.0000 </r>
       <r>    3.2298    1.0000 </r>
       <r>    3.4061    1.0000 </r>
       <r>    3.6582    1.0000 </r>
       <r>    3.8075    1.0000 </r>
       <r>    3.9920    1.0000 </r>
       <r>    4.3198    1.0000 </r>
       <r>    4.4851    1.0000 </r>
       <r>    4.7496    1.0000 </r>
       <r>    4.9038    1.0000 </r>
       <r>    5.1402    1.0000 </r>
       <r>    5.4341    1.0000 </r>
       <r>    5.5905    1.0000 </r>
       <r>    5.6644    1.0000 </r>
       <r>    5.8786    1.0000 </r>
       <r>    6.1362    1.0000 </r>
       <r>    6.2823    1.0000 </r>
       <r>    6.4447    1.0000 </r>
       <r>    6.6013    1.0000 </r>
       <r>    7.7407    1.0000 </r>
       <r>    7.9090    1.0000 </r>
       <r>    8.2059    1.0000 </r>
       <r>    8.4191    1.0000 </r>
       <r>    8.4897    1.0000 </r>
       <r>    8.7464    1.0000 </r>
       <r>    8.9180    1.0000 </r>
       <r>    9.2166    1.0162 </r>
       <r>    9.4056    0.9929 </r>
       <r>    9.5010    0.7660 </r>
       <r>    9.6031    0.3533 </r>
       <r>    9.8181   -0.0354 </r>
       <r>   10.0323   -0.0025 </r>
       <r>   10.1922   -0.0000 </r>
       <r>   10.4211   -0.0000 </r>
       <r>   10.5110   -0.0000 </r>
       <r>   10.6600   -0.0000 </r>
       <r>   10.9485   -0.0000 </r>
       <r>   11.1184   -0.0000 </r>
       <r>   11.4784   -0.0000 </r>
       <r>   11.5447   -0.0000 </r>
       <r>   11.8409   -0.0000 </r>
       <r>   11.9404   -0.0000 </r>
       <r>   12.1376   -0.0000 </r>
       <r>   12.2375   -0.0000 </r>
       <r>   12.4481   -0.0000 </r>
       <r>   12.5487   -0.0000 </r>
       <r>   12.9692   -0.0000 </r>
       <r>   13.1245   -0.0000 </r>
       <r>   13.2849   -0.0000 </r>
       <r>   13.4039   -0.0000 </r>
       <r>   13.5064   -0.0000 </r>
       <r>   13.7118   -0.0000 </r>
       <r>   13.9214   -0.0000 </r>
      </set>
      <set comment="kpoint 70">
       <r>   -1.9136    1.0000 </r>
       <r>   -1.4166    1.0000 </r>
       <r>   -1.1741    1.0000 </r>
       <r>   -0.8257    1.0000 </r>
       <r>    0.0904    1.0000 </r>
       <r>    0.7051    1.0000 </r>
       <r>    1.0182    1.0000 </r>
       <r>    1.5775    1.0000 </r>
       <r>    2.1127    1.0000 </r>
       <r>    2.3091    1.0000 </r>
       <r>    2.5788    1.0000 </r>
       <r>    2.9783    1.0000 </r>
       <r>    3.2219    1.0000 </r>
       <r>    3.3334    1.0000 </r>
       <r>    3.6669    1.0000 </r>
       <r>    3.8569    1.0000 </r>
       <r>    3.9642    1.0000 </r>
       <r>    4.2733    1.0000 </r>
       <r>    4.6199    1.0000 </r>
       <r>    4.6983    1.0000 </r>
       <r>    4.8535    1.0000 </r>
       <r>    5.0674    1.0000 </r>
       <r>    5.4072    1.0000 </r>
       <r>    5.6264    1.0000 </r>
       <r>    5.7011    1.0000 </r>
       <r>    5.8942    1.0000 </r>
       <r>    6.1360    1.0000 </r>
       <r>    6.2848    1.0000 </r>
       <r>    6.4350    1.0000 </r>
       <r>    6.6603    1.0000 </r>
       <r>    7.5800    1.0000 </r>
       <r>    8.0806    1.0000 </r>
       <r>    8.2275    1.0000 </r>
       <r>    8.3858    1.0000 </r>
       <r>    8.4919    1.0000 </r>
       <r>    8.5297    1.0000 </r>
       <r>    8.9210    1.0000 </r>
       <r>    9.0700    1.0012 </r>
       <r>    9.4123    0.9841 </r>
       <r>    9.5428    0.6050 </r>
       <r>    9.7626   -0.0222 </r>
       <r>    9.8621   -0.0289 </r>
       <r>   10.1110   -0.0004 </r>
       <r>   10.2504   -0.0000 </r>
       <r>   10.3980   -0.0000 </r>
       <r>   10.5544   -0.0000 </r>
       <r>   10.8025   -0.0000 </r>
       <r>   10.9663   -0.0000 </r>
       <r>   11.0557   -0.0000 </r>
       <r>   11.4555   -0.0000 </r>
       <r>   11.6096   -0.0000 </r>
       <r>   11.6827   -0.0000 </r>
       <r>   11.9573   -0.0000 </r>
       <r>   12.0818   -0.0000 </r>
       <r>   12.1968   -0.0000 </r>
       <r>   12.4631   -0.0000 </r>
       <r>   12.5633   -0.0000 </r>
       <r>   12.9009   -0.0000 </r>
       <r>   13.0708   -0.0000 </r>
       <r>   13.3078   -0.0000 </r>
       <r>   13.3765   -0.0000 </r>
       <r>   13.5644   -0.0000 </r>
       <r>   13.7525   -0.0000 </r>
       <r>   13.9326   -0.0000 </r>
      </set>
      <set comment="kpoint 71">
       <r>   -1.8774    1.0000 </r>
       <r>   -1.4800    1.0000 </r>
       <r>   -1.1753    1.0000 </r>
       <r>   -0.8353    1.0000 </r>
       <r>    0.1754    1.0000 </r>
       <r>    0.7382    1.0000 </r>
       <r>    0.9814    1.0000 </r>
       <r>    1.5145    1.0000 </r>
       <r>    2.0925    1.0000 </r>
       <r>    2.3016    1.0000 </r>
       <r>    2.7053    1.0000 </r>
       <r>    2.8748    1.0000 </r>
       <r>    3.1053    1.0000 </r>
       <r>    3.4001    1.0000 </r>
       <r>    3.7175    1.0000 </r>
       <r>    3.8967    1.0000 </r>
       <r>    4.0374    1.0000 </r>
       <r>    4.3899    1.0000 </r>
       <r>    4.4938    1.0000 </r>
       <r>    4.6652    1.0000 </r>
       <r>    4.8148    1.0000 </r>
       <r>    5.1206    1.0000 </r>
       <r>    5.3276    1.0000 </r>
       <r>    5.5198    1.0000 </r>
       <r>    5.6410    1.0000 </r>
       <r>    5.9019    1.0000 </r>
       <r>    6.0973    1.0000 </r>
       <r>    6.3127    1.0000 </r>
       <r>    6.5248    1.0000 </r>
       <r>    6.7240    1.0000 </r>
       <r>    7.8241    1.0000 </r>
       <r>    8.0434    1.0000 </r>
       <r>    8.1957    1.0000 </r>
       <r>    8.3782    1.0000 </r>
       <r>    8.5376    1.0000 </r>
       <r>    8.5956    1.0000 </r>
       <r>    8.7965    1.0000 </r>
       <r>    9.1239    1.0037 </r>
       <r>    9.3861    1.0129 </r>
       <r>    9.5659    0.5084 </r>
       <r>    9.6405    0.2138 </r>
       <r>    9.7573   -0.0187 </r>
       <r>   10.0350   -0.0023 </r>
       <r>   10.2154   -0.0000 </r>
       <r>   10.3966   -0.0000 </r>
       <r>   10.6005   -0.0000 </r>
       <r>   10.7462   -0.0000 </r>
       <r>   10.9334   -0.0000 </r>
       <r>   11.1841   -0.0000 </r>
       <r>   11.3587   -0.0000 </r>
       <r>   11.6637   -0.0000 </r>
       <r>   11.8290   -0.0000 </r>
       <r>   11.8677   -0.0000 </r>
       <r>   11.9665   -0.0000 </r>
       <r>   12.3686   -0.0000 </r>
       <r>   12.4362   -0.0000 </r>
       <r>   12.6463   -0.0000 </r>
       <r>   12.9720   -0.0000 </r>
       <r>   13.0490   -0.0000 </r>
       <r>   13.3005   -0.0000 </r>
       <r>   13.3383   -0.0000 </r>
       <r>   13.6694   -0.0000 </r>
       <r>   13.7815   -0.0000 </r>
       <r>   13.8631   -0.0000 </r>
      </set>
      <set comment="kpoint 72">
       <r>   -1.8578    1.0000 </r>
       <r>   -1.5353    1.0000 </r>
       <r>   -1.1343    1.0000 </r>
       <r>   -0.8377    1.0000 </r>
       <r>    0.1853    1.0000 </r>
       <r>    0.7273    1.0000 </r>
       <r>    0.9684    1.0000 </r>
       <r>    1.4899    1.0000 </r>
       <r>    2.1033    1.0000 </r>
       <r>    2.3954    1.0000 </r>
       <r>    2.6970    1.0000 </r>
       <r>    2.8513    1.0000 </r>
       <r>    3.1635    1.0000 </r>
       <r>    3.3817    1.0000 </r>
       <r>    3.6576    1.0000 </r>
       <r>    3.8696    1.0000 </r>
       <r>    3.9634    1.0000 </r>
       <r>    4.2618    1.0000 </r>
       <r>    4.4770    1.0000 </r>
       <r>    4.8282    1.0000 </r>
       <r>    4.8846    1.0000 </r>
       <r>    5.0400    1.0000 </r>
       <r>    5.3769    1.0000 </r>
       <r>    5.4975    1.0000 </r>
       <r>    5.7757    1.0000 </r>
       <r>    5.9441    1.0000 </r>
       <r>    6.1614    1.0000 </r>
       <r>    6.3139    1.0000 </r>
       <r>    6.4304    1.0000 </r>
       <r>    6.6797    1.0000 </r>
       <r>    7.6940    1.0000 </r>
       <r>    7.9925    1.0000 </r>
       <r>    8.1109    1.0000 </r>
       <r>    8.4494    1.0000 </r>
       <r>    8.5279    1.0000 </r>
       <r>    8.6687    1.0000 </r>
       <r>    8.8629    1.0000 </r>
       <r>    9.1189    1.0034 </r>
       <r>    9.3592    1.0291 </r>
       <r>    9.6000    0.3662 </r>
       <r>    9.7138    0.0303 </r>
       <r>    9.8395   -0.0332 </r>
       <r>   10.1266   -0.0003 </r>
       <r>   10.1567   -0.0001 </r>
       <r>   10.2682   -0.0000 </r>
       <r>   10.6188   -0.0000 </r>
       <r>   10.7482   -0.0000 </r>
       <r>   10.9118   -0.0000 </r>
       <r>   11.0460   -0.0000 </r>
       <r>   11.4759   -0.0000 </r>
       <r>   11.6267   -0.0000 </r>
       <r>   11.8517   -0.0000 </r>
       <r>   11.9073   -0.0000 </r>
       <r>   11.9901   -0.0000 </r>
       <r>   12.1366   -0.0000 </r>
       <r>   12.4733   -0.0000 </r>
       <r>   12.5987   -0.0000 </r>
       <r>   13.0223   -0.0000 </r>
       <r>   13.1078   -0.0000 </r>
       <r>   13.2832   -0.0000 </r>
       <r>   13.4443   -0.0000 </r>
       <r>   13.5817   -0.0000 </r>
       <r>   13.7403   -0.0000 </r>
       <r>   13.9030   -0.0000 </r>
      </set>
      <set comment="kpoint 73">
       <r>   -1.9139    1.0000 </r>
       <r>   -1.4510    1.0000 </r>
       <r>   -1.1234    1.0000 </r>
       <r>   -0.8430    1.0000 </r>
       <r>    0.1592    1.0000 </r>
       <r>    0.5906    1.0000 </r>
       <r>    1.1159    1.0000 </r>
       <r>    1.5365    1.0000 </r>
       <r>    2.0261    1.0000 </r>
       <r>    2.3446    1.0000 </r>
       <r>    2.6492    1.0000 </r>
       <r>    2.8238    1.0000 </r>
       <r>    3.1239    1.0000 </r>
       <r>    3.3872    1.0000 </r>
       <r>    3.7446    1.0000 </r>
       <r>    3.9520    1.0000 </r>
       <r>    4.0772    1.0000 </r>
       <r>    4.3231    1.0000 </r>
       <r>    4.6010    1.0000 </r>
       <r>    4.6612    1.0000 </r>
       <r>    4.8650    1.0000 </r>
       <r>    5.0432    1.0000 </r>
       <r>    5.4075    1.0000 </r>
       <r>    5.6094    1.0000 </r>
       <r>    5.7425    1.0000 </r>
       <r>    5.8472    1.0000 </r>
       <r>    6.0155    1.0000 </r>
       <r>    6.2958    1.0000 </r>
       <r>    6.4627    1.0000 </r>
       <r>    6.6272    1.0000 </r>
       <r>    7.6431    1.0000 </r>
       <r>    7.9854    1.0000 </r>
       <r>    8.1771    1.0000 </r>
       <r>    8.3711    1.0000 </r>
       <r>    8.5352    1.0000 </r>
       <r>    8.6680    1.0000 </r>
       <r>    8.8846    1.0000 </r>
       <r>    9.1257    1.0038 </r>
       <r>    9.4170    0.9775 </r>
       <r>    9.5802    0.4479 </r>
       <r>    9.7162    0.0264 </r>
       <r>    9.7939   -0.0339 </r>
       <r>   10.0498   -0.0017 </r>
       <r>   10.1882   -0.0001 </r>
       <r>   10.3659   -0.0000 </r>
       <r>   10.5290   -0.0000 </r>
       <r>   10.7745   -0.0000 </r>
       <r>   11.0159   -0.0000 </r>
       <r>   11.1755   -0.0000 </r>
       <r>   11.4374   -0.0000 </r>
       <r>   11.6076   -0.0000 </r>
       <r>   11.8575   -0.0000 </r>
       <r>   11.9358   -0.0000 </r>
       <r>   12.0920   -0.0000 </r>
       <r>   12.1359   -0.0000 </r>
       <r>   12.4289   -0.0000 </r>
       <r>   12.5747   -0.0000 </r>
       <r>   12.9852   -0.0000 </r>
       <r>   13.0683   -0.0000 </r>
       <r>   13.2044   -0.0000 </r>
       <r>   13.4045   -0.0000 </r>
       <r>   13.5932   -0.0000 </r>
       <r>   13.8296   -0.0000 </r>
       <r>   13.9657   -0.0000 </r>
      </set>
      <set comment="kpoint 74">
       <r>   -1.8851    1.0000 </r>
       <r>   -1.4860    1.0000 </r>
       <r>   -1.1602    1.0000 </r>
       <r>   -0.8042    1.0000 </r>
       <r>    0.1211    1.0000 </r>
       <r>    0.7330    1.0000 </r>
       <r>    0.9346    1.0000 </r>
       <r>    1.6145    1.0000 </r>
       <r>    2.1066    1.0000 </r>
       <r>    2.3350    1.0000 </r>
       <r>    2.6742    1.0000 </r>
       <r>    2.8700    1.0000 </r>
       <r>    3.0769    1.0000 </r>
       <r>    3.4135    1.0000 </r>
       <r>    3.6318    1.0000 </r>
       <r>    3.9500    1.0000 </r>
       <r>    3.9766    1.0000 </r>
       <r>    4.3871    1.0000 </r>
       <r>    4.4943    1.0000 </r>
       <r>    4.6900    1.0000 </r>
       <r>    4.7979    1.0000 </r>
       <r>    5.0746    1.0000 </r>
       <r>    5.3932    1.0000 </r>
       <r>    5.6654    1.0000 </r>
       <r>    5.7043    1.0000 </r>
       <r>    5.9241    1.0000 </r>
       <r>    6.1421    1.0000 </r>
       <r>    6.2300    1.0000 </r>
       <r>    6.4875    1.0000 </r>
       <r>    6.6264    1.0000 </r>
       <r>    7.7285    1.0000 </r>
       <r>    7.9882    1.0000 </r>
       <r>    8.2508    1.0000 </r>
       <r>    8.3647    1.0000 </r>
       <r>    8.5642    1.0000 </r>
       <r>    8.6003    1.0000 </r>
       <r>    8.8178    1.0000 </r>
       <r>    9.0211    1.0004 </r>
       <r>    9.3978    1.0018 </r>
       <r>    9.5789    0.4535 </r>
       <r>    9.7758   -0.0288 </r>
       <r>    9.8584   -0.0297 </r>
       <r>    9.9717   -0.0075 </r>
       <r>   10.1200   -0.0003 </r>
       <r>   10.3652   -0.0000 </r>
       <r>   10.5884   -0.0000 </r>
       <r>   10.8319   -0.0000 </r>
       <r>   11.0317   -0.0000 </r>
       <r>   11.1502   -0.0000 </r>
       <r>   11.4285   -0.0000 </r>
       <r>   11.6197   -0.0000 </r>
       <r>   11.7969   -0.0000 </r>
       <r>   11.9691   -0.0000 </r>
       <r>   12.0505   -0.0000 </r>
       <r>   12.2868   -0.0000 </r>
       <r>   12.4917   -0.0000 </r>
       <r>   12.5713   -0.0000 </r>
       <r>   12.8128   -0.0000 </r>
       <r>   13.0419   -0.0000 </r>
       <r>   13.1953   -0.0000 </r>
       <r>   13.4030   -0.0000 </r>
       <r>   13.5660   -0.0000 </r>
       <r>   13.7208   -0.0000 </r>
       <r>   13.8756   -0.0000 </r>
      </set>
      <set comment="kpoint 75">
       <r>   -1.8902    1.0000 </r>
       <r>   -1.4617    1.0000 </r>
       <r>   -1.1795    1.0000 </r>
       <r>   -0.8270    1.0000 </r>
       <r>    0.1529    1.0000 </r>
       <r>    0.7669    1.0000 </r>
       <r>    1.0085    1.0000 </r>
       <r>    1.4924    1.0000 </r>
       <r>    2.0123    1.0000 </r>
       <r>    2.3341    1.0000 </r>
       <r>    2.6220    1.0000 </r>
       <r>    2.8985    1.0000 </r>
       <r>    3.1610    1.0000 </r>
       <r>    3.4274    1.0000 </r>
       <r>    3.6409    1.0000 </r>
       <r>    3.9409    1.0000 </r>
       <r>    4.1320    1.0000 </r>
       <r>    4.3346    1.0000 </r>
       <r>    4.5126    1.0000 </r>
       <r>    4.6655    1.0000 </r>
       <r>    4.8383    1.0000 </r>
       <r>    5.0073    1.0000 </r>
       <r>    5.3485    1.0000 </r>
       <r>    5.6325    1.0000 </r>
       <r>    5.7957    1.0000 </r>
       <r>    5.9215    1.0000 </r>
       <r>    6.1099    1.0000 </r>
       <r>    6.2869    1.0000 </r>
       <r>    6.4494    1.0000 </r>
       <r>    6.5657    1.0000 </r>
       <r>    7.7113    1.0000 </r>
       <r>    8.0020    1.0000 </r>
       <r>    8.1748    1.0000 </r>
       <r>    8.2527    1.0000 </r>
       <r>    8.5294    1.0000 </r>
       <r>    8.6037    1.0000 </r>
       <r>    9.0564    1.0009 </r>
       <r>    9.1738    1.0088 </r>
       <r>    9.3901    1.0095 </r>
       <r>    9.6189    0.2918 </r>
       <r>    9.7244    0.0146 </r>
       <r>    9.8449   -0.0323 </r>
       <r>   10.0219   -0.0030 </r>
       <r>   10.1230   -0.0003 </r>
       <r>   10.3115   -0.0000 </r>
       <r>   10.5667   -0.0000 </r>
       <r>   10.7219   -0.0000 </r>
       <r>   10.9161   -0.0000 </r>
       <r>   11.1244   -0.0000 </r>
       <r>   11.4987   -0.0000 </r>
       <r>   11.6509   -0.0000 </r>
       <r>   11.8261   -0.0000 </r>
       <r>   11.9158   -0.0000 </r>
       <r>   12.0172   -0.0000 </r>
       <r>   12.1729   -0.0000 </r>
       <r>   12.3833   -0.0000 </r>
       <r>   12.6788   -0.0000 </r>
       <r>   12.9127   -0.0000 </r>
       <r>   13.1593   -0.0000 </r>
       <r>   13.2393   -0.0000 </r>
       <r>   13.4668   -0.0000 </r>
       <r>   13.5580   -0.0000 </r>
       <r>   13.6708   -0.0000 </r>
       <r>   13.8479   -0.0000 </r>
      </set>
      <set comment="kpoint 76">
       <r>   -1.8894    1.0000 </r>
       <r>   -1.4796    1.0000 </r>
       <r>   -1.1198    1.0000 </r>
       <r>   -0.8790    1.0000 </r>
       <r>    0.2042    1.0000 </r>
       <r>    0.7055    1.0000 </r>
       <r>    0.9494    1.0000 </r>
       <r>    1.4867    1.0000 </r>
       <r>    2.1069    1.0000 </r>
       <r>    2.4677    1.0000 </r>
       <r>    2.6683    1.0000 </r>
       <r>    2.8268    1.0000 </r>
       <r>    3.1209    1.0000 </r>
       <r>    3.3888    1.0000 </r>
       <r>    3.6385    1.0000 </r>
       <r>    3.9129    1.0000 </r>
       <r>    4.0566    1.0000 </r>
       <r>    4.3049    1.0000 </r>
       <r>    4.5161    1.0000 </r>
       <r>    4.6996    1.0000 </r>
       <r>    4.9041    1.0000 </r>
       <r>    5.0636    1.0000 </r>
       <r>    5.3372    1.0000 </r>
       <r>    5.4097    1.0000 </r>
       <r>    5.7246    1.0000 </r>
       <r>    5.9632    1.0000 </r>
       <r>    6.1648    1.0000 </r>
       <r>    6.2962    1.0000 </r>
       <r>    6.5540    1.0000 </r>
       <r>    6.6447    1.0000 </r>
       <r>    7.7324    1.0000 </r>
       <r>    7.9646    1.0000 </r>
       <r>    8.1994    1.0000 </r>
       <r>    8.3063    1.0000 </r>
       <r>    8.5554    1.0000 </r>
       <r>    8.6672    1.0000 </r>
       <r>    8.8837    1.0000 </r>
       <r>    9.1013    1.0024 </r>
       <r>    9.4228    0.9684 </r>
       <r>    9.5703    0.4896 </r>
       <r>    9.6949    0.0648 </r>
       <r>    9.8417   -0.0328 </r>
       <r>   10.0553   -0.0015 </r>
       <r>   10.2292   -0.0000 </r>
       <r>   10.3120   -0.0000 </r>
       <r>   10.6196   -0.0000 </r>
       <r>   10.7422   -0.0000 </r>
       <r>   10.8651   -0.0000 </r>
       <r>   11.0664   -0.0000 </r>
       <r>   11.3547   -0.0000 </r>
       <r>   11.5221   -0.0000 </r>
       <r>   11.8505   -0.0000 </r>
       <r>   11.9869   -0.0000 </r>
       <r>   12.1363   -0.0000 </r>
       <r>   12.2922   -0.0000 </r>
       <r>   12.5079   -0.0000 </r>
       <r>   12.6625   -0.0000 </r>
       <r>   12.8299   -0.0000 </r>
       <r>   13.0572   -0.0000 </r>
       <r>   13.2608   -0.0000 </r>
       <r>   13.4611   -0.0000 </r>
       <r>   13.6448   -0.0000 </r>
       <r>   13.6975   -0.0000 </r>
       <r>   13.9021   -0.0000 </r>
      </set>
      <set comment="kpoint 77">
       <r>   -2.2107    1.0000 </r>
       <r>   -1.3119    1.0000 </r>
       <r>   -0.9067    1.0000 </r>
       <r>   -0.4390    1.0000 </r>
       <r>    0.2976    1.0000 </r>
       <r>    0.5656    1.0000 </r>
       <r>    0.8837    1.0000 </r>
       <r>    1.3383    1.0000 </r>
       <r>    1.7203    1.0000 </r>
       <r>    2.0167    1.0000 </r>
       <r>    2.1997    1.0000 </r>
       <r>    2.7249    1.0000 </r>
       <r>    3.2134    1.0000 </r>
       <r>    3.4094    1.0000 </r>
       <r>    3.6558    1.0000 </r>
       <r>    3.9721    1.0000 </r>
       <r>    4.2323    1.0000 </r>
       <r>    4.3026    1.0000 </r>
       <r>    4.6580    1.0000 </r>
       <r>    4.8774    1.0000 </r>
       <r>    4.9745    1.0000 </r>
       <r>    5.3038    1.0000 </r>
       <r>    5.5001    1.0000 </r>
       <r>    5.6571    1.0000 </r>
       <r>    6.0252    1.0000 </r>
       <r>    6.2460    1.0000 </r>
       <r>    6.4271    1.0000 </r>
       <r>    6.6795    1.0000 </r>
       <r>    6.7716    1.0000 </r>
       <r>    7.1365    1.0000 </r>
       <r>    7.2916    1.0000 </r>
       <r>    7.5037    1.0000 </r>
       <r>    8.0647    1.0000 </r>
       <r>    8.2266    1.0000 </r>
       <r>    8.3576    1.0000 </r>
       <r>    8.5630    1.0000 </r>
       <r>    8.7159    1.0000 </r>
       <r>    8.8317    1.0000 </r>
       <r>    9.1467    1.0056 </r>
       <r>    9.2858    1.0314 </r>
       <r>    9.3833    1.0152 </r>
       <r>    9.6970    0.0605 </r>
       <r>   10.0120   -0.0037 </r>
       <r>   10.2479   -0.0000 </r>
       <r>   10.5246   -0.0000 </r>
       <r>   10.7046   -0.0000 </r>
       <r>   10.9022   -0.0000 </r>
       <r>   11.0562   -0.0000 </r>
       <r>   11.1211   -0.0000 </r>
       <r>   11.2082   -0.0000 </r>
       <r>   11.3499   -0.0000 </r>
       <r>   11.6560   -0.0000 </r>
       <r>   11.8258   -0.0000 </r>
       <r>   12.0672   -0.0000 </r>
       <r>   12.3249   -0.0000 </r>
       <r>   12.5979   -0.0000 </r>
       <r>   12.7013   -0.0000 </r>
       <r>   12.8705   -0.0000 </r>
       <r>   13.0411   -0.0000 </r>
       <r>   13.1556   -0.0000 </r>
       <r>   13.2656   -0.0000 </r>
       <r>   13.4587   -0.0000 </r>
       <r>   13.5288   -0.0000 </r>
       <r>   13.8058   -0.0000 </r>
      </set>
      <set comment="kpoint 78">
       <r>   -2.1955    1.0000 </r>
       <r>   -1.3653    1.0000 </r>
       <r>   -0.8203    1.0000 </r>
       <r>   -0.4869    1.0000 </r>
       <r>    0.1625    1.0000 </r>
       <r>    0.6093    1.0000 </r>
       <r>    0.8575    1.0000 </r>
       <r>    1.5475    1.0000 </r>
       <r>    1.7312    1.0000 </r>
       <r>    2.0885    1.0000 </r>
       <r>    2.2891    1.0000 </r>
       <r>    2.7063    1.0000 </r>
       <r>    3.0775    1.0000 </r>
       <r>    3.2611    1.0000 </r>
       <r>    3.5952    1.0000 </r>
       <r>    3.9065    1.0000 </r>
       <r>    4.1976    1.0000 </r>
       <r>    4.3950    1.0000 </r>
       <r>    4.4891    1.0000 </r>
       <r>    4.9394    1.0000 </r>
       <r>    5.0177    1.0000 </r>
       <r>    5.4278    1.0000 </r>
       <r>    5.5203    1.0000 </r>
       <r>    5.7008    1.0000 </r>
       <r>    5.9363    1.0000 </r>
       <r>    6.3076    1.0000 </r>
       <r>    6.3927    1.0000 </r>
       <r>    6.6022    1.0000 </r>
       <r>    6.8727    1.0000 </r>
       <r>    7.1648    1.0000 </r>
       <r>    7.3177    1.0000 </r>
       <r>    7.5317    1.0000 </r>
       <r>    8.0576    1.0000 </r>
       <r>    8.2057    1.0000 </r>
       <r>    8.3096    1.0000 </r>
       <r>    8.5672    1.0000 </r>
       <r>    8.7241    1.0000 </r>
       <r>    8.8369    1.0000 </r>
       <r>    9.1941    1.0119 </r>
       <r>    9.3457    1.0331 </r>
       <r>    9.6132    0.3136 </r>
       <r>    9.7496   -0.0129 </r>
       <r>    9.9404   -0.0122 </r>
       <r>   10.2075   -0.0000 </r>
       <r>   10.5017   -0.0000 </r>
       <r>   10.5811   -0.0000 </r>
       <r>   10.7017   -0.0000 </r>
       <r>   11.0161   -0.0000 </r>
       <r>   11.1410   -0.0000 </r>
       <r>   11.2766   -0.0000 </r>
       <r>   11.3547   -0.0000 </r>
       <r>   11.6804   -0.0000 </r>
       <r>   11.8314   -0.0000 </r>
       <r>   12.0854   -0.0000 </r>
       <r>   12.2790   -0.0000 </r>
       <r>   12.5864   -0.0000 </r>
       <r>   12.7155   -0.0000 </r>
       <r>   12.7839   -0.0000 </r>
       <r>   12.9622   -0.0000 </r>
       <r>   13.1175   -0.0000 </r>
       <r>   13.2624   -0.0000 </r>
       <r>   13.4502   -0.0000 </r>
       <r>   13.5291   -0.0000 </r>
       <r>   13.6780   -0.0000 </r>
      </set>
      <set comment="kpoint 79">
       <r>   -2.1891    1.0000 </r>
       <r>   -1.3956    1.0000 </r>
       <r>   -0.8139    1.0000 </r>
       <r>   -0.4771    1.0000 </r>
       <r>    0.1671    1.0000 </r>
       <r>    0.7178    1.0000 </r>
       <r>    0.8682    1.0000 </r>
       <r>    1.4829    1.0000 </r>
       <r>    1.6867    1.0000 </r>
       <r>    1.9163    1.0000 </r>
       <r>    2.3714    1.0000 </r>
       <r>    2.8496    1.0000 </r>
       <r>    2.8986    1.0000 </r>
       <r>    3.2740    1.0000 </r>
       <r>    3.6347    1.0000 </r>
       <r>    3.8497    1.0000 </r>
       <r>    4.2504    1.0000 </r>
       <r>    4.3855    1.0000 </r>
       <r>    4.6314    1.0000 </r>
       <r>    4.9712    1.0000 </r>
       <r>    5.0971    1.0000 </r>
       <r>    5.3981    1.0000 </r>
       <r>    5.5467    1.0000 </r>
       <r>    5.7786    1.0000 </r>
       <r>    5.9689    1.0000 </r>
       <r>    6.1273    1.0000 </r>
       <r>    6.2996    1.0000 </r>
       <r>    6.5818    1.0000 </r>
       <r>    6.7104    1.0000 </r>
       <r>    7.2181    1.0000 </r>
       <r>    7.4784    1.0000 </r>
       <r>    7.5137    1.0000 </r>
       <r>    8.0116    1.0000 </r>
       <r>    8.2383    1.0000 </r>
       <r>    8.4407    1.0000 </r>
       <r>    8.5658    1.0000 </r>
       <r>    8.6255    1.0000 </r>
       <r>    8.8483    1.0000 </r>
       <r>    9.0946    1.0021 </r>
       <r>    9.2367    1.0205 </r>
       <r>    9.5712    0.4860 </r>
       <r>    9.7147    0.0288 </r>
       <r>   10.0801   -0.0009 </r>
       <r>   10.1544   -0.0001 </r>
       <r>   10.4410   -0.0000 </r>
       <r>   10.6053   -0.0000 </r>
       <r>   10.9200   -0.0000 </r>
       <r>   11.0765   -0.0000 </r>
       <r>   11.1397   -0.0000 </r>
       <r>   11.2491   -0.0000 </r>
       <r>   11.3832   -0.0000 </r>
       <r>   11.5284   -0.0000 </r>
       <r>   11.9481   -0.0000 </r>
       <r>   12.0544   -0.0000 </r>
       <r>   12.2218   -0.0000 </r>
       <r>   12.5410   -0.0000 </r>
       <r>   12.7208   -0.0000 </r>
       <r>   12.8296   -0.0000 </r>
       <r>   13.0211   -0.0000 </r>
       <r>   13.1510   -0.0000 </r>
       <r>   13.2890   -0.0000 </r>
       <r>   13.4134   -0.0000 </r>
       <r>   13.6369   -0.0000 </r>
       <r>   13.6996   -0.0000 </r>
      </set>
      <set comment="kpoint 80">
       <r>   -2.1964    1.0000 </r>
       <r>   -1.3777    1.0000 </r>
       <r>   -0.8363    1.0000 </r>
       <r>   -0.4658    1.0000 </r>
       <r>    0.2937    1.0000 </r>
       <r>    0.6016    1.0000 </r>
       <r>    0.8572    1.0000 </r>
       <r>    1.3439    1.0000 </r>
       <r>    1.6526    1.0000 </r>
       <r>    2.0844    1.0000 </r>
       <r>    2.2866    1.0000 </r>
       <r>    2.7932    1.0000 </r>
       <r>    3.1271    1.0000 </r>
       <r>    3.2778    1.0000 </r>
       <r>    3.6697    1.0000 </r>
       <r>    3.9032    1.0000 </r>
       <r>    4.1662    1.0000 </r>
       <r>    4.4189    1.0000 </r>
       <r>    4.6428    1.0000 </r>
       <r>    4.9289    1.0000 </r>
       <r>    5.0351    1.0000 </r>
       <r>    5.2978    1.0000 </r>
       <r>    5.4595    1.0000 </r>
       <r>    5.7594    1.0000 </r>
       <r>    5.9235    1.0000 </r>
       <r>    6.2015    1.0000 </r>
       <r>    6.3991    1.0000 </r>
       <r>    6.6763    1.0000 </r>
       <r>    6.8164    1.0000 </r>
       <r>    7.0981    1.0000 </r>
       <r>    7.3642    1.0000 </r>
       <r>    7.5575    1.0000 </r>
       <r>    8.1024    1.0000 </r>
       <r>    8.1973    1.0000 </r>
       <r>    8.3278    1.0000 </r>
       <r>    8.5690    1.0000 </r>
       <r>    8.6640    1.0000 </r>
       <r>    8.8584    1.0000 </r>
       <r>    9.1306    1.0042 </r>
       <r>    9.2738    1.0290 </r>
       <r>    9.5354    0.6354 </r>
       <r>    9.7279    0.0100 </r>
       <r>   10.0131   -0.0036 </r>
       <r>   10.2464   -0.0000 </r>
       <r>   10.3969   -0.0000 </r>
       <r>   10.6761   -0.0000 </r>
       <r>   10.9401   -0.0000 </r>
       <r>   11.0368   -0.0000 </r>
       <r>   11.1181   -0.0000 </r>
       <r>   11.2091   -0.0000 </r>
       <r>   11.4580   -0.0000 </r>
       <r>   11.6324   -0.0000 </r>
       <r>   11.7473   -0.0000 </r>
       <r>   12.0193   -0.0000 </r>
       <r>   12.2673   -0.0000 </r>
       <r>   12.5928   -0.0000 </r>
       <r>   12.7059   -0.0000 </r>
       <r>   12.8491   -0.0000 </r>
       <r>   12.9623   -0.0000 </r>
       <r>   13.1238   -0.0000 </r>
       <r>   13.2214   -0.0000 </r>
       <r>   13.5011   -0.0000 </r>
       <r>   13.6009   -0.0000 </r>
       <r>   13.6730   -0.0000 </r>
      </set>
      <set comment="kpoint 81">
       <r>   -2.2145    1.0000 </r>
       <r>   -1.3139    1.0000 </r>
       <r>   -0.8612    1.0000 </r>
       <r>   -0.4729    1.0000 </r>
       <r>    0.2573    1.0000 </r>
       <r>    0.5294    1.0000 </r>
       <r>    0.9722    1.0000 </r>
       <r>    1.3553    1.0000 </r>
       <r>    1.7275    1.0000 </r>
       <r>    1.9311    1.0000 </r>
       <r>    2.2568    1.0000 </r>
       <r>    2.7373    1.0000 </r>
       <r>    3.1708    1.0000 </r>
       <r>    3.3939    1.0000 </r>
       <r>    3.5852    1.0000 </r>
       <r>    4.0288    1.0000 </r>
       <r>    4.2397    1.0000 </r>
       <r>    4.3427    1.0000 </r>
       <r>    4.6158    1.0000 </r>
       <r>    4.9822    1.0000 </r>
       <r>    5.0273    1.0000 </r>
       <r>    5.2988    1.0000 </r>
       <r>    5.4814    1.0000 </r>
       <r>    5.6636    1.0000 </r>
       <r>    6.0274    1.0000 </r>
       <r>    6.1508    1.0000 </r>
       <r>    6.4480    1.0000 </r>
       <r>    6.5748    1.0000 </r>
       <r>    6.7218    1.0000 </r>
       <r>    7.1912    1.0000 </r>
       <r>    7.3818    1.0000 </r>
       <r>    7.5740    1.0000 </r>
       <r>    7.9822    1.0000 </r>
       <r>    8.1258    1.0000 </r>
       <r>    8.3312    1.0000 </r>
       <r>    8.5688    1.0000 </r>
       <r>    8.7185    1.0000 </r>
       <r>    8.8283    1.0000 </r>
       <r>    9.1185    1.0033 </r>
       <r>    9.3140    1.0352 </r>
       <r>    9.6015    0.3598 </r>
       <r>    9.7313    0.0057 </r>
       <r>    9.9713   -0.0076 </r>
       <r>   10.2320   -0.0000 </r>
       <r>   10.4107   -0.0000 </r>
       <r>   10.6503   -0.0000 </r>
       <r>   10.9474   -0.0000 </r>
       <r>   11.0667   -0.0000 </r>
       <r>   11.1253   -0.0000 </r>
       <r>   11.2637   -0.0000 </r>
       <r>   11.3478   -0.0000 </r>
       <r>   11.7097   -0.0000 </r>
       <r>   11.8017   -0.0000 </r>
       <r>   12.0506   -0.0000 </r>
       <r>   12.3692   -0.0000 </r>
       <r>   12.5442   -0.0000 </r>
       <r>   12.7474   -0.0000 </r>
       <r>   12.8143   -0.0000 </r>
       <r>   13.0615   -0.0000 </r>
       <r>   13.1009   -0.0000 </r>
       <r>   13.2197   -0.0000 </r>
       <r>   13.4162   -0.0000 </r>
       <r>   13.6437   -0.0000 </r>
       <r>   13.8311   -0.0000 </r>
      </set>
      <set comment="kpoint 82">
       <r>   -2.1924    1.0000 </r>
       <r>   -1.3768    1.0000 </r>
       <r>   -0.7875    1.0000 </r>
       <r>   -0.5556    1.0000 </r>
       <r>    0.2744    1.0000 </r>
       <r>    0.5853    1.0000 </r>
       <r>    0.8496    1.0000 </r>
       <r>    1.4359    1.0000 </r>
       <r>    1.8126    1.0000 </r>
       <r>    2.0702    1.0000 </r>
       <r>    2.3048    1.0000 </r>
       <r>    2.7665    1.0000 </r>
       <r>    2.9892    1.0000 </r>
       <r>    3.2260    1.0000 </r>
       <r>    3.5750    1.0000 </r>
       <r>    3.8613    1.0000 </r>
       <r>    4.2607    1.0000 </r>
       <r>    4.3633    1.0000 </r>
       <r>    4.7021    1.0000 </r>
       <r>    4.9397    1.0000 </r>
       <r>    5.0533    1.0000 </r>
       <r>    5.3784    1.0000 </r>
       <r>    5.4651    1.0000 </r>
       <r>    5.6497    1.0000 </r>
       <r>    5.9615    1.0000 </r>
       <r>    6.2055    1.0000 </r>
       <r>    6.4600    1.0000 </r>
       <r>    6.6099    1.0000 </r>
       <r>    6.8341    1.0000 </r>
       <r>    7.1083    1.0000 </r>
       <r>    7.3766    1.0000 </r>
       <r>    7.5853    1.0000 </r>
       <r>    8.0246    1.0000 </r>
       <r>    8.2453    1.0000 </r>
       <r>    8.4416    1.0000 </r>
       <r>    8.5739    1.0000 </r>
       <r>    8.6896    1.0000 </r>
       <r>    8.8488    1.0000 </r>
       <r>    9.0358    1.0005 </r>
       <r>    9.3254    1.0354 </r>
       <r>    9.5001    0.7692 </r>
       <r>    9.7812   -0.0307 </r>
       <r>    9.9664   -0.0082 </r>
       <r>   10.1934   -0.0000 </r>
       <r>   10.4485   -0.0000 </r>
       <r>   10.7042   -0.0000 </r>
       <r>   10.8922   -0.0000 </r>
       <r>   10.9791   -0.0000 </r>
       <r>   11.0937   -0.0000 </r>
       <r>   11.2137   -0.0000 </r>
       <r>   11.3505   -0.0000 </r>
       <r>   11.7052   -0.0000 </r>
       <r>   11.8939   -0.0000 </r>
       <r>   12.0651   -0.0000 </r>
       <r>   12.1608   -0.0000 </r>
       <r>   12.5601   -0.0000 </r>
       <r>   12.7048   -0.0000 </r>
       <r>   12.8203   -0.0000 </r>
       <r>   12.9363   -0.0000 </r>
       <r>   13.0736   -0.0000 </r>
       <r>   13.2297   -0.0000 </r>
       <r>   13.5009   -0.0000 </r>
       <r>   13.5552   -0.0000 </r>
       <r>   13.7067   -0.0000 </r>
      </set>
      <set comment="kpoint 83">
       <r>   -2.2019    1.0000 </r>
       <r>   -1.3626    1.0000 </r>
       <r>   -0.8453    1.0000 </r>
       <r>   -0.4590    1.0000 </r>
       <r>    0.3194    1.0000 </r>
       <r>    0.5155    1.0000 </r>
       <r>    0.8882    1.0000 </r>
       <r>    1.4155    1.0000 </r>
       <r>    1.7129    1.0000 </r>
       <r>    1.9671    1.0000 </r>
       <r>    2.2618    1.0000 </r>
       <r>    2.7356    1.0000 </r>
       <r>    3.0837    1.0000 </r>
       <r>    3.3735    1.0000 </r>
       <r>    3.6974    1.0000 </r>
       <r>    3.8882    1.0000 </r>
       <r>    4.1724    1.0000 </r>
       <r>    4.4362    1.0000 </r>
       <r>    4.7532    1.0000 </r>
       <r>    4.9128    1.0000 </r>
       <r>    5.0406    1.0000 </r>
       <r>    5.2446    1.0000 </r>
       <r>    5.4701    1.0000 </r>
       <r>    5.7322    1.0000 </r>
       <r>    5.9587    1.0000 </r>
       <r>    6.1062    1.0000 </r>
       <r>    6.4484    1.0000 </r>
       <r>    6.6873    1.0000 </r>
       <r>    6.8792    1.0000 </r>
       <r>    7.0872    1.0000 </r>
       <r>    7.3025    1.0000 </r>
       <r>    7.4998    1.0000 </r>
       <r>    8.1496    1.0000 </r>
       <r>    8.2171    1.0000 </r>
       <r>    8.3163    1.0000 </r>
       <r>    8.5076    1.0000 </r>
       <r>    8.6494    1.0000 </r>
       <r>    8.8560    1.0000 </r>
       <r>    9.0670    1.0011 </r>
       <r>    9.2622    1.0264 </r>
       <r>    9.4721    0.8584 </r>
       <r>    9.8233   -0.0351 </r>
       <r>   10.0528   -0.0016 </r>
       <r>   10.3133   -0.0000 </r>
       <r>   10.5590   -0.0000 </r>
       <r>   10.7028   -0.0000 </r>
       <r>   10.8407   -0.0000 </r>
       <r>   10.9769   -0.0000 </r>
       <r>   11.1086   -0.0000 </r>
       <r>   11.2477   -0.0000 </r>
       <r>   11.2940   -0.0000 </r>
       <r>   11.5453   -0.0000 </r>
       <r>   11.8599   -0.0000 </r>
       <r>   12.0435   -0.0000 </r>
       <r>   12.2975   -0.0000 </r>
       <r>   12.5801   -0.0000 </r>
       <r>   12.7876   -0.0000 </r>
       <r>   12.8949   -0.0000 </r>
       <r>   13.0950   -0.0000 </r>
       <r>   13.2401   -0.0000 </r>
       <r>   13.2789   -0.0000 </r>
       <r>   13.3371   -0.0000 </r>
       <r>   13.5021   -0.0000 </r>
       <r>   13.6391   -0.0000 </r>
      </set>
      <set comment="kpoint 84">
       <r>   -2.1993    1.0000 </r>
       <r>   -1.3957    1.0000 </r>
       <r>   -0.7659    1.0000 </r>
       <r>   -0.4786    1.0000 </r>
       <r>    0.2028    1.0000 </r>
       <r>    0.6160    1.0000 </r>
       <r>    0.8721    1.0000 </r>
       <r>    1.4298    1.0000 </r>
       <r>    1.6573    1.0000 </r>
       <r>    2.0249    1.0000 </r>
       <r>    2.2691    1.0000 </r>
       <r>    2.7440    1.0000 </r>
       <r>    3.0485    1.0000 </r>
       <r>    3.3079    1.0000 </r>
       <r>    3.6994    1.0000 </r>
       <r>    3.9999    1.0000 </r>
       <r>    4.1825    1.0000 </r>
       <r>    4.4682    1.0000 </r>
       <r>    4.6444    1.0000 </r>
       <r>    4.8973    1.0000 </r>
       <r>    5.0582    1.0000 </r>
       <r>    5.2351    1.0000 </r>
       <r>    5.4908    1.0000 </r>
       <r>    5.7846    1.0000 </r>
       <r>    6.0457    1.0000 </r>
       <r>    6.1627    1.0000 </r>
       <r>    6.2645    1.0000 </r>
       <r>    6.6446    1.0000 </r>
       <r>    6.8018    1.0000 </r>
       <r>    7.1846    1.0000 </r>
       <r>    7.3060    1.0000 </r>
       <r>    7.5282    1.0000 </r>
       <r>    8.0263    1.0000 </r>
       <r>    8.1858    1.0000 </r>
       <r>    8.3839    1.0000 </r>
       <r>    8.5860    1.0000 </r>
       <r>    8.6589    1.0000 </r>
       <r>    8.8600    1.0000 </r>
       <r>    9.1615    1.0072 </r>
       <r>    9.2135    1.0155 </r>
       <r>    9.5571    0.5456 </r>
       <r>    9.7445   -0.0084 </r>
       <r>   10.1063   -0.0005 </r>
       <r>   10.2140   -0.0000 </r>
       <r>   10.4051   -0.0000 </r>
       <r>   10.5838   -0.0000 </r>
       <r>   10.7919   -0.0000 </r>
       <r>   11.0397   -0.0000 </r>
       <r>   11.1254   -0.0000 </r>
       <r>   11.3008   -0.0000 </r>
       <r>   11.4830   -0.0000 </r>
       <r>   11.6136   -0.0000 </r>
       <r>   11.8650   -0.0000 </r>
       <r>   12.1078   -0.0000 </r>
       <r>   12.2958   -0.0000 </r>
       <r>   12.4896   -0.0000 </r>
       <r>   12.7406   -0.0000 </r>
       <r>   12.8211   -0.0000 </r>
       <r>   12.9828   -0.0000 </r>
       <r>   13.2515   -0.0000 </r>
       <r>   13.3253   -0.0000 </r>
       <r>   13.4244   -0.0000 </r>
       <r>   13.5830   -0.0000 </r>
       <r>   13.7324   -0.0000 </r>
      </set>
      <set comment="kpoint 85">
       <r>   -2.2081    1.0000 </r>
       <r>   -1.3318    1.0000 </r>
       <r>   -0.8533    1.0000 </r>
       <r>   -0.4986    1.0000 </r>
       <r>    0.2989    1.0000 </r>
       <r>    0.5702    1.0000 </r>
       <r>    0.9449    1.0000 </r>
       <r>    1.3179    1.0000 </r>
       <r>    1.7565    1.0000 </r>
       <r>    1.8730    1.0000 </r>
       <r>    2.3621    1.0000 </r>
       <r>    2.7575    1.0000 </r>
       <r>    3.0542    1.0000 </r>
       <r>    3.3804    1.0000 </r>
       <r>    3.5822    1.0000 </r>
       <r>    3.9695    1.0000 </r>
       <r>    4.2310    1.0000 </r>
       <r>    4.3666    1.0000 </r>
       <r>    4.7279    1.0000 </r>
       <r>    4.9309    1.0000 </r>
       <r>    5.0774    1.0000 </r>
       <r>    5.3007    1.0000 </r>
       <r>    5.5832    1.0000 </r>
       <r>    5.6251    1.0000 </r>
       <r>    6.0130    1.0000 </r>
       <r>    6.1090    1.0000 </r>
       <r>    6.4048    1.0000 </r>
       <r>    6.4940    1.0000 </r>
       <r>    6.8803    1.0000 </r>
       <r>    7.0915    1.0000 </r>
       <r>    7.3992    1.0000 </r>
       <r>    7.5178    1.0000 </r>
       <r>    8.0198    1.0000 </r>
       <r>    8.2195    1.0000 </r>
       <r>    8.2541    1.0000 </r>
       <r>    8.5660    1.0000 </r>
       <r>    8.8076    1.0000 </r>
       <r>    8.9212    1.0000 </r>
       <r>    9.1207    1.0035 </r>
       <r>    9.1881    1.0109 </r>
       <r>    9.5352    0.6363 </r>
       <r>    9.7129    0.0317 </r>
       <r>   10.0527   -0.0016 </r>
       <r>   10.2178   -0.0000 </r>
       <r>   10.5057   -0.0000 </r>
       <r>   10.6719   -0.0000 </r>
       <r>   10.9223   -0.0000 </r>
       <r>   11.0445   -0.0000 </r>
       <r>   11.1038   -0.0000 </r>
       <r>   11.1938   -0.0000 </r>
       <r>   11.3522   -0.0000 </r>
       <r>   11.5408   -0.0000 </r>
       <r>   11.8848   -0.0000 </r>
       <r>   12.0993   -0.0000 </r>
       <r>   12.2335   -0.0000 </r>
       <r>   12.5869   -0.0000 </r>
       <r>   12.7171   -0.0000 </r>
       <r>   12.8990   -0.0000 </r>
       <r>   13.0519   -0.0000 </r>
       <r>   13.1833   -0.0000 </r>
       <r>   13.2911   -0.0000 </r>
       <r>   13.4306   -0.0000 </r>
       <r>   13.5721   -0.0000 </r>
       <r>   13.7100   -0.0000 </r>
      </set>
      <set comment="kpoint 86">
       <r>   -2.1918    1.0000 </r>
       <r>   -1.3536    1.0000 </r>
       <r>   -0.9069    1.0000 </r>
       <r>   -0.4389    1.0000 </r>
       <r>    0.2915    1.0000 </r>
       <r>    0.5680    1.0000 </r>
       <r>    0.8561    1.0000 </r>
       <r>    1.3827    1.0000 </r>
       <r>    1.7895    1.0000 </r>
       <r>    2.1176    1.0000 </r>
       <r>    2.2234    1.0000 </r>
       <r>    2.6771    1.0000 </r>
       <r>    3.1838    1.0000 </r>
       <r>    3.3338    1.0000 </r>
       <r>    3.6258    1.0000 </r>
       <r>    3.8621    1.0000 </r>
       <r>    4.1706    1.0000 </r>
       <r>    4.3674    1.0000 </r>
       <r>    4.6318    1.0000 </r>
       <r>    4.8707    1.0000 </r>
       <r>    4.9792    1.0000 </r>
       <r>    5.3341    1.0000 </r>
       <r>    5.5149    1.0000 </r>
       <r>    5.6401    1.0000 </r>
       <r>    6.0050    1.0000 </r>
       <r>    6.1971    1.0000 </r>
       <r>    6.4680    1.0000 </r>
       <r>    6.6955    1.0000 </r>
       <r>    6.8394    1.0000 </r>
       <r>    7.1299    1.0000 </r>
       <r>    7.3956    1.0000 </r>
       <r>    7.5938    1.0000 </r>
       <r>    7.9760    1.0000 </r>
       <r>    8.2423    1.0000 </r>
       <r>    8.3614    1.0000 </r>
       <r>    8.5908    1.0000 </r>
       <r>    8.7122    1.0000 </r>
       <r>    8.8913    1.0000 </r>
       <r>    9.0572    1.0009 </r>
       <r>    9.3829    1.0155 </r>
       <r>    9.5234    0.6832 </r>
       <r>    9.7223    0.0174 </r>
       <r>    9.9677   -0.0080 </r>
       <r>   10.1986   -0.0000 </r>
       <r>   10.4370   -0.0000 </r>
       <r>   10.6743   -0.0000 </r>
       <r>   10.8363   -0.0000 </r>
       <r>   11.0508   -0.0000 </r>
       <r>   11.0952   -0.0000 </r>
       <r>   11.1806   -0.0000 </r>
       <r>   11.2911   -0.0000 </r>
       <r>   11.6401   -0.0000 </r>
       <r>   11.8969   -0.0000 </r>
       <r>   12.0452   -0.0000 </r>
       <r>   12.2009   -0.0000 </r>
       <r>   12.5852   -0.0000 </r>
       <r>   12.7150   -0.0000 </r>
       <r>   12.8840   -0.0000 </r>
       <r>   13.0004   -0.0000 </r>
       <r>   13.1004   -0.0000 </r>
       <r>   13.1749   -0.0000 </r>
       <r>   13.4571   -0.0000 </r>
       <r>   13.6377   -0.0000 </r>
       <r>   13.7530   -0.0000 </r>
      </set>
      <set comment="kpoint 87">
       <r>   -2.1957    1.0000 </r>
       <r>   -1.3796    1.0000 </r>
       <r>   -0.8356    1.0000 </r>
       <r>   -0.4245    1.0000 </r>
       <r>    0.2115    1.0000 </r>
       <r>    0.4515    1.0000 </r>
       <r>    1.0280    1.0000 </r>
       <r>    1.4721    1.0000 </r>
       <r>    1.7019    1.0000 </r>
       <r>    2.0016    1.0000 </r>
       <r>    2.3138    1.0000 </r>
       <r>    2.8058    1.0000 </r>
       <r>    2.9376    1.0000 </r>
       <r>    3.2497    1.0000 </r>
       <r>    3.6337    1.0000 </r>
       <r>    3.9492    1.0000 </r>
       <r>    4.2127    1.0000 </r>
       <r>    4.3365    1.0000 </r>
       <r>    4.6640    1.0000 </r>
       <r>    4.9341    1.0000 </r>
       <r>    5.0343    1.0000 </r>
       <r>    5.3908    1.0000 </r>
       <r>    5.6612    1.0000 </r>
       <r>    5.6854    1.0000 </r>
       <r>    5.9779    1.0000 </r>
       <r>    6.2012    1.0000 </r>
       <r>    6.4612    1.0000 </r>
       <r>    6.5352    1.0000 </r>
       <r>    6.8188    1.0000 </r>
       <r>    7.0215    1.0000 </r>
       <r>    7.3372    1.0000 </r>
       <r>    7.5279    1.0000 </r>
       <r>    7.9847    1.0000 </r>
       <r>    8.1382    1.0000 </r>
       <r>    8.3975    1.0000 </r>
       <r>    8.5646    1.0000 </r>
       <r>    8.7492    1.0000 </r>
       <r>    8.8605    1.0000 </r>
       <r>    9.0830    1.0016 </r>
       <r>    9.3894    1.0100 </r>
       <r>    9.5401    0.6161 </r>
       <r>    9.7832   -0.0314 </r>
       <r>   10.0031   -0.0043 </r>
       <r>   10.3722   -0.0000 </r>
       <r>   10.4470   -0.0000 </r>
       <r>   10.6015   -0.0000 </r>
       <r>   10.7193   -0.0000 </r>
       <r>   10.9881   -0.0000 </r>
       <r>   11.1209   -0.0000 </r>
       <r>   11.3019   -0.0000 </r>
       <r>   11.5065   -0.0000 </r>
       <r>   11.6248   -0.0000 </r>
       <r>   11.7741   -0.0000 </r>
       <r>   12.0603   -0.0000 </r>
       <r>   12.3368   -0.0000 </r>
       <r>   12.5522   -0.0000 </r>
       <r>   12.6130   -0.0000 </r>
       <r>   12.8821   -0.0000 </r>
       <r>   12.9538   -0.0000 </r>
       <r>   13.1294   -0.0000 </r>
       <r>   13.2685   -0.0000 </r>
       <r>   13.3221   -0.0000 </r>
       <r>   13.5824   -0.0000 </r>
       <r>   13.6914   -0.0000 </r>
      </set>
      <set comment="kpoint 88">
       <r>   -2.1972    1.0000 </r>
       <r>   -1.3926    1.0000 </r>
       <r>   -0.8041    1.0000 </r>
       <r>   -0.4795    1.0000 </r>
       <r>    0.3195    1.0000 </r>
       <r>    0.5851    1.0000 </r>
       <r>    0.8871    1.0000 </r>
       <r>    1.2859    1.0000 </r>
       <r>    1.7675    1.0000 </r>
       <r>    1.9041    1.0000 </r>
       <r>    2.3818    1.0000 </r>
       <r>    2.6986    1.0000 </r>
       <r>    3.0048    1.0000 </r>
       <r>    3.4571    1.0000 </r>
       <r>    3.6184    1.0000 </r>
       <r>    3.9569    1.0000 </r>
       <r>    4.2222    1.0000 </r>
       <r>    4.3326    1.0000 </r>
       <r>    4.7911    1.0000 </r>
       <r>    4.9736    1.0000 </r>
       <r>    5.0569    1.0000 </r>
       <r>    5.2895    1.0000 </r>
       <r>    5.4165    1.0000 </r>
       <r>    5.6585    1.0000 </r>
       <r>    6.0179    1.0000 </r>
       <r>    6.1916    1.0000 </r>
       <r>    6.3361    1.0000 </r>
       <r>    6.6382    1.0000 </r>
       <r>    6.8483    1.0000 </r>
       <r>    7.0666    1.0000 </r>
       <r>    7.4416    1.0000 </r>
       <r>    7.5416    1.0000 </r>
       <r>    7.9536    1.0000 </r>
       <r>    8.1415    1.0000 </r>
       <r>    8.4279    1.0000 </r>
       <r>    8.5743    1.0000 </r>
       <r>    8.7672    1.0000 </r>
       <r>    8.8467    1.0000 </r>
       <r>    9.0135    1.0003 </r>
       <r>    9.2739    1.0290 </r>
       <r>    9.5138    0.7198 </r>
       <r>    9.7403   -0.0043 </r>
       <r>   10.0079   -0.0040 </r>
       <r>   10.2610   -0.0000 </r>
       <r>   10.3769   -0.0000 </r>
       <r>   10.6595   -0.0000 </r>
       <r>   10.9124   -0.0000 </r>
       <r>   11.0029   -0.0000 </r>
       <r>   11.0793   -0.0000 </r>
       <r>   11.2254   -0.0000 </r>
       <r>   11.4418   -0.0000 </r>
       <r>   11.6889   -0.0000 </r>
       <r>   11.8214   -0.0000 </r>
       <r>   12.1145   -0.0000 </r>
       <r>   12.3212   -0.0000 </r>
       <r>   12.5910   -0.0000 </r>
       <r>   12.7381   -0.0000 </r>
       <r>   12.8955   -0.0000 </r>
       <r>   13.0475   -0.0000 </r>
       <r>   13.1345   -0.0000 </r>
       <r>   13.2811   -0.0000 </r>
       <r>   13.4107   -0.0000 </r>
       <r>   13.5686   -0.0000 </r>
       <r>   13.7370   -0.0000 </r>
      </set>
      <set comment="kpoint 89">
       <r>   -2.2055    1.0000 </r>
       <r>   -1.3493    1.0000 </r>
       <r>   -0.7948    1.0000 </r>
       <r>   -0.5110    1.0000 </r>
       <r>    0.1731    1.0000 </r>
       <r>    0.6160    1.0000 </r>
       <r>    0.8730    1.0000 </r>
       <r>    1.4273    1.0000 </r>
       <r>    1.7212    1.0000 </r>
       <r>    2.1098    1.0000 </r>
       <r>    2.3005    1.0000 </r>
       <r>    2.8045    1.0000 </r>
       <r>    3.0217    1.0000 </r>
       <r>    3.1914    1.0000 </r>
       <r>    3.5982    1.0000 </r>
       <r>    3.9849    1.0000 </r>
       <r>    4.2644    1.0000 </r>
       <r>    4.3741    1.0000 </r>
       <r>    4.5676    1.0000 </r>
       <r>    4.9327    1.0000 </r>
       <r>    5.0473    1.0000 </r>
       <r>    5.3341    1.0000 </r>
       <r>    5.5032    1.0000 </r>
       <r>    5.7079    1.0000 </r>
       <r>    5.9955    1.0000 </r>
       <r>    6.2858    1.0000 </r>
       <r>    6.4382    1.0000 </r>
       <r>    6.5401    1.0000 </r>
       <r>    6.8066    1.0000 </r>
       <r>    7.1725    1.0000 </r>
       <r>    7.3418    1.0000 </r>
       <r>    7.4008    1.0000 </r>
       <r>    8.0976    1.0000 </r>
       <r>    8.1550    1.0000 </r>
       <r>    8.3233    1.0000 </r>
       <r>    8.6045    1.0000 </r>
       <r>    8.7155    1.0000 </r>
       <r>    8.8831    1.0000 </r>
       <r>    9.1503    1.0060 </r>
       <r>    9.3139    1.0352 </r>
       <r>    9.5650    0.5122 </r>
       <r>    9.7069    0.0418 </r>
       <r>   10.0087   -0.0039 </r>
       <r>   10.3448   -0.0000 </r>
       <r>   10.4339   -0.0000 </r>
       <r>   10.6006   -0.0000 </r>
       <r>   10.7537   -0.0000 </r>
       <r>   11.0546   -0.0000 </r>
       <r>   11.1035   -0.0000 </r>
       <r>   11.2852   -0.0000 </r>
       <r>   11.4532   -0.0000 </r>
       <r>   11.5824   -0.0000 </r>
       <r>   11.8699   -0.0000 </r>
       <r>   12.1579   -0.0000 </r>
       <r>   12.1737   -0.0000 </r>
       <r>   12.5528   -0.0000 </r>
       <r>   12.6207   -0.0000 </r>
       <r>   12.9104   -0.0000 </r>
       <r>   13.0269   -0.0000 </r>
       <r>   13.1159   -0.0000 </r>
       <r>   13.1987   -0.0000 </r>
       <r>   13.4512   -0.0000 </r>
       <r>   13.5570   -0.0000 </r>
       <r>   13.7055   -0.0000 </r>
      </set>
      <set comment="kpoint 90">
       <r>   -2.2032    1.0000 </r>
       <r>   -1.3642    1.0000 </r>
       <r>   -0.8094    1.0000 </r>
       <r>   -0.5213    1.0000 </r>
       <r>    0.3641    1.0000 </r>
       <r>    0.5566    1.0000 </r>
       <r>    0.9014    1.0000 </r>
       <r>    1.3249    1.0000 </r>
       <r>    1.6740    1.0000 </r>
       <r>    1.9042    1.0000 </r>
       <r>    2.4481    1.0000 </r>
       <r>    2.6990    1.0000 </r>
       <r>    3.0200    1.0000 </r>
       <r>    3.4085    1.0000 </r>
       <r>    3.6055    1.0000 </r>
       <r>    3.9537    1.0000 </r>
       <r>    4.2917    1.0000 </r>
       <r>    4.3948    1.0000 </r>
       <r>    4.6754    1.0000 </r>
       <r>    4.9154    1.0000 </r>
       <r>    5.0204    1.0000 </r>
       <r>    5.3862    1.0000 </r>
       <r>    5.5062    1.0000 </r>
       <r>    5.6741    1.0000 </r>
       <r>    6.0065    1.0000 </r>
       <r>    6.1417    1.0000 </r>
       <r>    6.3653    1.0000 </r>
       <r>    6.5506    1.0000 </r>
       <r>    6.7512    1.0000 </r>
       <r>    7.1307    1.0000 </r>
       <r>    7.3834    1.0000 </r>
       <r>    7.6128    1.0000 </r>
       <r>    8.0160    1.0000 </r>
       <r>    8.2115    1.0000 </r>
       <r>    8.4221    1.0000 </r>
       <r>    8.5152    1.0000 </r>
       <r>    8.7719    1.0000 </r>
       <r>    8.8420    1.0000 </r>
       <r>    9.0456    1.0007 </r>
       <r>    9.1628    1.0074 </r>
       <r>    9.4113    0.9855 </r>
       <r>    9.8148   -0.0354 </r>
       <r>   10.1229   -0.0003 </r>
       <r>   10.2457   -0.0000 </r>
       <r>   10.4797   -0.0000 </r>
       <r>   10.6092   -0.0000 </r>
       <r>   10.8455   -0.0000 </r>
       <r>   11.0524   -0.0000 </r>
       <r>   11.1098   -0.0000 </r>
       <r>   11.3124   -0.0000 </r>
       <r>   11.4148   -0.0000 </r>
       <r>   11.5497   -0.0000 </r>
       <r>   11.9507   -0.0000 </r>
       <r>   12.0280   -0.0000 </r>
       <r>   12.2585   -0.0000 </r>
       <r>   12.5769   -0.0000 </r>
       <r>   12.7455   -0.0000 </r>
       <r>   12.8482   -0.0000 </r>
       <r>   12.9643   -0.0000 </r>
       <r>   13.1776   -0.0000 </r>
       <r>   13.3160   -0.0000 </r>
       <r>   13.4936   -0.0000 </r>
       <r>   13.6065   -0.0000 </r>
       <r>   13.7428   -0.0000 </r>
      </set>
      <set comment="kpoint 91">
       <r>   -2.1949    1.0000 </r>
       <r>   -1.3576    1.0000 </r>
       <r>   -0.8782    1.0000 </r>
       <r>   -0.4577    1.0000 </r>
       <r>    0.3044    1.0000 </r>
       <r>    0.5376    1.0000 </r>
       <r>    0.8734    1.0000 </r>
       <r>    1.3923    1.0000 </r>
       <r>    1.7820    1.0000 </r>
       <r>    2.0671    1.0000 </r>
       <r>    2.2465    1.0000 </r>
       <r>    2.6857    1.0000 </r>
       <r>    3.1773    1.0000 </r>
       <r>    3.3436    1.0000 </r>
       <r>    3.6064    1.0000 </r>
       <r>    3.8197    1.0000 </r>
       <r>    4.2419    1.0000 </r>
       <r>    4.3932    1.0000 </r>
       <r>    4.6256    1.0000 </r>
       <r>    4.9299    1.0000 </r>
       <r>    5.0231    1.0000 </r>
       <r>    5.2867    1.0000 </r>
       <r>    5.4446    1.0000 </r>
       <r>    5.7079    1.0000 </r>
       <r>    5.9518    1.0000 </r>
       <r>    6.1822    1.0000 </r>
       <r>    6.4444    1.0000 </r>
       <r>    6.7155    1.0000 </r>
       <r>    6.8853    1.0000 </r>
       <r>    7.0947    1.0000 </r>
       <r>    7.3634    1.0000 </r>
       <r>    7.6055    1.0000 </r>
       <r>    7.9734    1.0000 </r>
       <r>    8.2472    1.0000 </r>
       <r>    8.3279    1.0000 </r>
       <r>    8.5834    1.0000 </r>
       <r>    8.6498    1.0000 </r>
       <r>    8.9097    1.0000 </r>
       <r>    9.1509    1.0060 </r>
       <r>    9.3745    1.0213 </r>
       <r>    9.5069    0.7453 </r>
       <r>    9.7320    0.0049 </r>
       <r>    9.9920   -0.0053 </r>
       <r>   10.1386   -0.0002 </r>
       <r>   10.4677   -0.0000 </r>
       <r>   10.6030   -0.0000 </r>
       <r>   10.9517   -0.0000 </r>
       <r>   11.0420   -0.0000 </r>
       <r>   11.1639   -0.0000 </r>
       <r>   11.2415   -0.0000 </r>
       <r>   11.2891   -0.0000 </r>
       <r>   11.6033   -0.0000 </r>
       <r>   11.7290   -0.0000 </r>
       <r>   11.9711   -0.0000 </r>
       <r>   12.2708   -0.0000 </r>
       <r>   12.6175   -0.0000 </r>
       <r>   12.6415   -0.0000 </r>
       <r>   12.8212   -0.0000 </r>
       <r>   13.0912   -0.0000 </r>
       <r>   13.1670   -0.0000 </r>
       <r>   13.2893   -0.0000 </r>
       <r>   13.5096   -0.0000 </r>
       <r>   13.5717   -0.0000 </r>
       <r>   13.7541   -0.0000 </r>
      </set>
      <set comment="kpoint 92">
       <r>   -2.1933    1.0000 </r>
       <r>   -1.4035    1.0000 </r>
       <r>   -0.7846    1.0000 </r>
       <r>   -0.4907    1.0000 </r>
       <r>    0.2682    1.0000 </r>
       <r>    0.5817    1.0000 </r>
       <r>    0.9211    1.0000 </r>
       <r>    1.3616    1.0000 </r>
       <r>    1.7653    1.0000 </r>
       <r>    1.9371    1.0000 </r>
       <r>    2.3168    1.0000 </r>
       <r>    2.6376    1.0000 </r>
       <r>    3.1237    1.0000 </r>
       <r>    3.3131    1.0000 </r>
       <r>    3.6207    1.0000 </r>
       <r>    3.9174    1.0000 </r>
       <r>    4.2735    1.0000 </r>
       <r>    4.4293    1.0000 </r>
       <r>    4.6721    1.0000 </r>
       <r>    4.9902    1.0000 </r>
       <r>    5.0840    1.0000 </r>
       <r>    5.3012    1.0000 </r>
       <r>    5.4633    1.0000 </r>
       <r>    5.7105    1.0000 </r>
       <r>    5.9626    1.0000 </r>
       <r>    6.1838    1.0000 </r>
       <r>    6.2646    1.0000 </r>
       <r>    6.6470    1.0000 </r>
       <r>    6.8892    1.0000 </r>
       <r>    7.0934    1.0000 </r>
       <r>    7.3729    1.0000 </r>
       <r>    7.5481    1.0000 </r>
       <r>    8.0053    1.0000 </r>
       <r>    8.2602    1.0000 </r>
       <r>    8.3281    1.0000 </r>
       <r>    8.5964    1.0000 </r>
       <r>    8.6673    1.0000 </r>
       <r>    8.8622    1.0000 </r>
       <r>    9.1143    1.0031 </r>
       <r>    9.2005    1.0131 </r>
       <r>    9.4879    0.8103 </r>
       <r>    9.7814   -0.0308 </r>
       <r>    9.9480   -0.0109 </r>
       <r>   10.3304   -0.0000 </r>
       <r>   10.4239   -0.0000 </r>
       <r>   10.6265   -0.0000 </r>
       <r>   10.9875   -0.0000 </r>
       <r>   11.0272   -0.0000 </r>
       <r>   11.1258   -0.0000 </r>
       <r>   11.2250   -0.0000 </r>
       <r>   11.3743   -0.0000 </r>
       <r>   11.6459   -0.0000 </r>
       <r>   11.8295   -0.0000 </r>
       <r>   12.0230   -0.0000 </r>
       <r>   12.2441   -0.0000 </r>
       <r>   12.6040   -0.0000 </r>
       <r>   12.7703   -0.0000 </r>
       <r>   12.8621   -0.0000 </r>
       <r>   12.9099   -0.0000 </r>
       <r>   13.0898   -0.0000 </r>
       <r>   13.2374   -0.0000 </r>
       <r>   13.5272   -0.0000 </r>
       <r>   13.6754   -0.0000 </r>
       <r>   13.8184   -0.0000 </r>
      </set>
      <set comment="kpoint 93">
       <r>   -2.2069    1.0000 </r>
       <r>   -1.3268    1.0000 </r>
       <r>   -0.8841    1.0000 </r>
       <r>   -0.4590    1.0000 </r>
       <r>    0.3020    1.0000 </r>
       <r>    0.5250    1.0000 </r>
       <r>    0.9193    1.0000 </r>
       <r>    1.3914    1.0000 </r>
       <r>    1.6799    1.0000 </r>
       <r>    2.0365    1.0000 </r>
       <r>    2.2186    1.0000 </r>
       <r>    2.7578    1.0000 </r>
       <r>    3.1875    1.0000 </r>
       <r>    3.2879    1.0000 </r>
       <r>    3.6176    1.0000 </r>
       <r>    3.9933    1.0000 </r>
       <r>    4.2134    1.0000 </r>
       <r>    4.3920    1.0000 </r>
       <r>    4.7111    1.0000 </r>
       <r>    4.9530    1.0000 </r>
       <r>    5.0907    1.0000 </r>
       <r>    5.2204    1.0000 </r>
       <r>    5.3981    1.0000 </r>
       <r>    5.6613    1.0000 </r>
       <r>    5.8771    1.0000 </r>
       <r>    6.0495    1.0000 </r>
       <r>    6.5462    1.0000 </r>
       <r>    6.7642    1.0000 </r>
       <r>    6.8846    1.0000 </r>
       <r>    7.1270    1.0000 </r>
       <r>    7.3533    1.0000 </r>
       <r>    7.4747    1.0000 </r>
       <r>    8.0561    1.0000 </r>
       <r>    8.2601    1.0000 </r>
       <r>    8.3188    1.0000 </r>
       <r>    8.5496    1.0000 </r>
       <r>    8.7375    1.0000 </r>
       <r>    8.8595    1.0000 </r>
       <r>    9.0542    1.0008 </r>
       <r>    9.3000    1.0337 </r>
       <r>    9.4614    0.8873 </r>
       <r>    9.6794    0.0999 </r>
       <r>   10.0596   -0.0014 </r>
       <r>   10.2603   -0.0000 </r>
       <r>   10.5062   -0.0000 </r>
       <r>   10.6762   -0.0000 </r>
       <r>   10.9079   -0.0000 </r>
       <r>   11.0250   -0.0000 </r>
       <r>   11.1210   -0.0000 </r>
       <r>   11.1996   -0.0000 </r>
       <r>   11.3493   -0.0000 </r>
       <r>   11.5902   -0.0000 </r>
       <r>   11.7242   -0.0000 </r>
       <r>   12.1182   -0.0000 </r>
       <r>   12.3389   -0.0000 </r>
       <r>   12.6184   -0.0000 </r>
       <r>   12.7709   -0.0000 </r>
       <r>   12.8856   -0.0000 </r>
       <r>   13.0120   -0.0000 </r>
       <r>   13.1535   -0.0000 </r>
       <r>   13.2478   -0.0000 </r>
       <r>   13.4003   -0.0000 </r>
       <r>   13.5857   -0.0000 </r>
       <r>   13.7820   -0.0000 </r>
      </set>
      <set comment="kpoint 94">
       <r>   -2.2091    1.0000 </r>
       <r>   -1.3577    1.0000 </r>
       <r>   -0.7945    1.0000 </r>
       <r>   -0.4912    1.0000 </r>
       <r>    0.2630    1.0000 </r>
       <r>    0.5012    1.0000 </r>
       <r>    0.9958    1.0000 </r>
       <r>    1.3956    1.0000 </r>
       <r>    1.6710    1.0000 </r>
       <r>    1.8594    1.0000 </r>
       <r>    2.4126    1.0000 </r>
       <r>    2.7202    1.0000 </r>
       <r>    2.9899    1.0000 </r>
       <r>    3.3800    1.0000 </r>
       <r>    3.7031    1.0000 </r>
       <r>    3.9485    1.0000 </r>
       <r>    4.3255    1.0000 </r>
       <r>    4.4091    1.0000 </r>
       <r>    4.6398    1.0000 </r>
       <r>    4.9113    1.0000 </r>
       <r>    5.0547    1.0000 </r>
       <r>    5.3240    1.0000 </r>
       <r>    5.5223    1.0000 </r>
       <r>    5.6621    1.0000 </r>
       <r>    5.9340    1.0000 </r>
       <r>    6.1351    1.0000 </r>
       <r>    6.3766    1.0000 </r>
       <r>    6.5831    1.0000 </r>
       <r>    6.8074    1.0000 </r>
       <r>    7.1890    1.0000 </r>
       <r>    7.3156    1.0000 </r>
       <r>    7.5616    1.0000 </r>
       <r>    8.0174    1.0000 </r>
       <r>    8.1635    1.0000 </r>
       <r>    8.4158    1.0000 </r>
       <r>    8.5049    1.0000 </r>
       <r>    8.6811    1.0000 </r>
       <r>    8.9045    1.0000 </r>
       <r>    9.0847    1.0017 </r>
       <r>    9.2257    1.0181 </r>
       <r>    9.5785    0.4552 </r>
       <r>    9.7855   -0.0320 </r>
       <r>    9.9982   -0.0048 </r>
       <r>   10.2527   -0.0000 </r>
       <r>   10.4738   -0.0000 </r>
       <r>   10.6101   -0.0000 </r>
       <r>   10.8523   -0.0000 </r>
       <r>   11.0128   -0.0000 </r>
       <r>   11.1261   -0.0000 </r>
       <r>   11.2775   -0.0000 </r>
       <r>   11.4183   -0.0000 </r>
       <r>   11.6693   -0.0000 </r>
       <r>   11.8740   -0.0000 </r>
       <r>   12.0698   -0.0000 </r>
       <r>   12.3380   -0.0000 </r>
       <r>   12.5487   -0.0000 </r>
       <r>   12.7346   -0.0000 </r>
       <r>   12.8644   -0.0000 </r>
       <r>   12.9624   -0.0000 </r>
       <r>   13.0790   -0.0000 </r>
       <r>   13.2857   -0.0000 </r>
       <r>   13.4899   -0.0000 </r>
       <r>   13.5975   -0.0000 </r>
       <r>   13.7998   -0.0000 </r>
      </set>
      <set comment="kpoint 95">
       <r>   -2.1874    1.0000 </r>
       <r>   -1.3772    1.0000 </r>
       <r>   -0.8549    1.0000 </r>
       <r>   -0.4830    1.0000 </r>
       <r>    0.2483    1.0000 </r>
       <r>    0.5560    1.0000 </r>
       <r>    0.9416    1.0000 </r>
       <r>    1.4325    1.0000 </r>
       <r>    1.8197    1.0000 </r>
       <r>    2.0158    1.0000 </r>
       <r>    2.3249    1.0000 </r>
       <r>    2.6955    1.0000 </r>
       <r>    2.9955    1.0000 </r>
       <r>    3.2423    1.0000 </r>
       <r>    3.5849    1.0000 </r>
       <r>    3.8785    1.0000 </r>
       <r>    4.2860    1.0000 </r>
       <r>    4.3368    1.0000 </r>
       <r>    4.6950    1.0000 </r>
       <r>    4.9702    1.0000 </r>
       <r>    5.0758    1.0000 </r>
       <r>    5.3622    1.0000 </r>
       <r>    5.5256    1.0000 </r>
       <r>    5.6155    1.0000 </r>
       <r>    5.8357    1.0000 </r>
       <r>    6.2364    1.0000 </r>
       <r>    6.5052    1.0000 </r>
       <r>    6.5768    1.0000 </r>
       <r>    6.8459    1.0000 </r>
       <r>    7.0795    1.0000 </r>
       <r>    7.4396    1.0000 </r>
       <r>    7.5962    1.0000 </r>
       <r>    8.0130    1.0000 </r>
       <r>    8.2872    1.0000 </r>
       <r>    8.3749    1.0000 </r>
       <r>    8.6059    1.0000 </r>
       <r>    8.6946    1.0000 </r>
       <r>    8.8606    1.0000 </r>
       <r>    9.1339    1.0044 </r>
       <r>    9.2432    1.0220 </r>
       <r>    9.5067    0.7457 </r>
       <r>    9.7097    0.0370 </r>
       <r>   10.0532   -0.0016 </r>
       <r>   10.1958   -0.0000 </r>
       <r>   10.4273   -0.0000 </r>
       <r>   10.6302   -0.0000 </r>
       <r>   10.7708   -0.0000 </r>
       <r>   11.0278   -0.0000 </r>
       <r>   11.1166   -0.0000 </r>
       <r>   11.2828   -0.0000 </r>
       <r>   11.3576   -0.0000 </r>
       <r>   11.6262   -0.0000 </r>
       <r>   11.7438   -0.0000 </r>
       <r>   12.0833   -0.0000 </r>
       <r>   12.2333   -0.0000 </r>
       <r>   12.6187   -0.0000 </r>
       <r>   12.8015   -0.0000 </r>
       <r>   12.8889   -0.0000 </r>
       <r>   13.0261   -0.0000 </r>
       <r>   13.1058   -0.0000 </r>
       <r>   13.1809   -0.0000 </r>
       <r>   13.4628   -0.0000 </r>
       <r>   13.6351   -0.0000 </r>
       <r>   13.7458   -0.0000 </r>
      </set>
      <set comment="kpoint 96">
       <r>   -2.2003    1.0000 </r>
       <r>   -1.3662    1.0000 </r>
       <r>   -0.8592    1.0000 </r>
       <r>   -0.4324    1.0000 </r>
       <r>    0.2837    1.0000 </r>
       <r>    0.5859    1.0000 </r>
       <r>    0.8768    1.0000 </r>
       <r>    1.2958    1.0000 </r>
       <r>    1.7717    1.0000 </r>
       <r>    1.9246    1.0000 </r>
       <r>    2.3628    1.0000 </r>
       <r>    2.7436    1.0000 </r>
       <r>    3.0596    1.0000 </r>
       <r>    3.4142    1.0000 </r>
       <r>    3.6806    1.0000 </r>
       <r>    3.8944    1.0000 </r>
       <r>    4.1975    1.0000 </r>
       <r>    4.3583    1.0000 </r>
       <r>    4.6748    1.0000 </r>
       <r>    4.9463    1.0000 </r>
       <r>    5.0294    1.0000 </r>
       <r>    5.3066    1.0000 </r>
       <r>    5.4648    1.0000 </r>
       <r>    5.6404    1.0000 </r>
       <r>    6.0161    1.0000 </r>
       <r>    6.2652    1.0000 </r>
       <r>    6.3941    1.0000 </r>
       <r>    6.6491    1.0000 </r>
       <r>    6.8053    1.0000 </r>
       <r>    7.0934    1.0000 </r>
       <r>    7.3397    1.0000 </r>
       <r>    7.4519    1.0000 </r>
       <r>    8.0683    1.0000 </r>
       <r>    8.2130    1.0000 </r>
       <r>    8.4561    1.0000 </r>
       <r>    8.5847    1.0000 </r>
       <r>    8.6867    1.0000 </r>
       <r>    8.8054    1.0000 </r>
       <r>    9.0604    1.0010 </r>
       <r>    9.3540    1.0309 </r>
       <r>    9.5140    0.7191 </r>
       <r>    9.7606   -0.0210 </r>
       <r>    9.9548   -0.0098 </r>
       <r>   10.2605   -0.0000 </r>
       <r>   10.4527   -0.0000 </r>
       <r>   10.7555   -0.0000 </r>
       <r>   10.8589   -0.0000 </r>
       <r>   10.9530   -0.0000 </r>
       <r>   11.1232   -0.0000 </r>
       <r>   11.2107   -0.0000 </r>
       <r>   11.3342   -0.0000 </r>
       <r>   11.6694   -0.0000 </r>
       <r>   11.7737   -0.0000 </r>
       <r>   12.0275   -0.0000 </r>
       <r>   12.2448   -0.0000 </r>
       <r>   12.6410   -0.0000 </r>
       <r>   12.7286   -0.0000 </r>
       <r>   12.9429   -0.0000 </r>
       <r>   13.0543   -0.0000 </r>
       <r>   13.1911   -0.0000 </r>
       <r>   13.2545   -0.0000 </r>
       <r>   13.5075   -0.0000 </r>
       <r>   13.5453   -0.0000 </r>
       <r>   13.7523   -0.0000 </r>
      </set>
      <set comment="kpoint 97">
       <r>   -2.1971    1.0000 </r>
       <r>   -1.3835    1.0000 </r>
       <r>   -0.8350    1.0000 </r>
       <r>   -0.4216    1.0000 </r>
       <r>    0.2127    1.0000 </r>
       <r>    0.5691    1.0000 </r>
       <r>    0.9132    1.0000 </r>
       <r>    1.3926    1.0000 </r>
       <r>    1.7633    1.0000 </r>
       <r>    2.0064    1.0000 </r>
       <r>    2.2354    1.0000 </r>
       <r>    2.6306    1.0000 </r>
       <r>    3.1852    1.0000 </r>
       <r>    3.3490    1.0000 </r>
       <r>    3.6464    1.0000 </r>
       <r>    3.9850    1.0000 </r>
       <r>    4.2863    1.0000 </r>
       <r>    4.3637    1.0000 </r>
       <r>    4.5079    1.0000 </r>
       <r>    4.8814    1.0000 </r>
       <r>    5.0120    1.0000 </r>
       <r>    5.3701    1.0000 </r>
       <r>    5.5260    1.0000 </r>
       <r>    5.7029    1.0000 </r>
       <r>    6.0338    1.0000 </r>
       <r>    6.2702    1.0000 </r>
       <r>    6.4194    1.0000 </r>
       <r>    6.5586    1.0000 </r>
       <r>    6.7996    1.0000 </r>
       <r>    7.0954    1.0000 </r>
       <r>    7.3145    1.0000 </r>
       <r>    7.5633    1.0000 </r>
       <r>    8.0840    1.0000 </r>
       <r>    8.0983    1.0000 </r>
       <r>    8.3777    1.0000 </r>
       <r>    8.5424    1.0000 </r>
       <r>    8.7166    1.0000 </r>
       <r>    8.8998    1.0000 </r>
       <r>    9.1867    1.0107 </r>
       <r>    9.2444    1.0223 </r>
       <r>    9.5195    0.6981 </r>
       <r>    9.7449   -0.0087 </r>
       <r>    9.9473   -0.0110 </r>
       <r>   10.2025   -0.0000 </r>
       <r>   10.4816   -0.0000 </r>
       <r>   10.6165   -0.0000 </r>
       <r>   10.7279   -0.0000 </r>
       <r>   11.0826   -0.0000 </r>
       <r>   11.2230   -0.0000 </r>
       <r>   11.2973   -0.0000 </r>
       <r>   11.4096   -0.0000 </r>
       <r>   11.7080   -0.0000 </r>
       <r>   11.8321   -0.0000 </r>
       <r>   11.9983   -0.0000 </r>
       <r>   12.2214   -0.0000 </r>
       <r>   12.6820   -0.0000 </r>
       <r>   12.7819   -0.0000 </r>
       <r>   12.8173   -0.0000 </r>
       <r>   12.9143   -0.0000 </r>
       <r>   13.1047   -0.0000 </r>
       <r>   13.2589   -0.0000 </r>
       <r>   13.5422   -0.0000 </r>
       <r>   13.6083   -0.0000 </r>
       <r>   13.7134   -0.0000 </r>
      </set>
      <set comment="kpoint 98">
       <r>   -2.1937    1.0000 </r>
       <r>   -1.3677    1.0000 </r>
       <r>   -0.8517    1.0000 </r>
       <r>   -0.4426    1.0000 </r>
       <r>    0.1906    1.0000 </r>
       <r>    0.4921    1.0000 </r>
       <r>    0.9629    1.0000 </r>
       <r>    1.5616    1.0000 </r>
       <r>    1.7711    1.0000 </r>
       <r>    2.0314    1.0000 </r>
       <r>    2.2303    1.0000 </r>
       <r>    2.6885    1.0000 </r>
       <r>    3.0319    1.0000 </r>
       <r>    3.3264    1.0000 </r>
       <r>    3.5749    1.0000 </r>
       <r>    3.9398    1.0000 </r>
       <r>    4.2517    1.0000 </r>
       <r>    4.3501    1.0000 </r>
       <r>    4.5460    1.0000 </r>
       <r>    4.8550    1.0000 </r>
       <r>    5.0124    1.0000 </r>
       <r>    5.4610    1.0000 </r>
       <r>    5.6129    1.0000 </r>
       <r>    5.7622    1.0000 </r>
       <r>    5.9590    1.0000 </r>
       <r>    6.1729    1.0000 </r>
       <r>    6.4034    1.0000 </r>
       <r>    6.5989    1.0000 </r>
       <r>    6.7782    1.0000 </r>
       <r>    7.1482    1.0000 </r>
       <r>    7.2968    1.0000 </r>
       <r>    7.6405    1.0000 </r>
       <r>    7.9449    1.0000 </r>
       <r>    8.2504    1.0000 </r>
       <r>    8.3087    1.0000 </r>
       <r>    8.6265    1.0000 </r>
       <r>    8.7530    1.0000 </r>
       <r>    8.8982    1.0000 </r>
       <r>    9.1945    1.0120 </r>
       <r>    9.2826    1.0308 </r>
       <r>    9.4670    0.8725 </r>
       <r>    9.7396   -0.0036 </r>
       <r>   10.0145   -0.0035 </r>
       <r>   10.2340   -0.0000 </r>
       <r>   10.3956   -0.0000 </r>
       <r>   10.6528   -0.0000 </r>
       <r>   10.8123   -0.0000 </r>
       <r>   10.9474   -0.0000 </r>
       <r>   11.1350   -0.0000 </r>
       <r>   11.2779   -0.0000 </r>
       <r>   11.3898   -0.0000 </r>
       <r>   11.8165   -0.0000 </r>
       <r>   11.8677   -0.0000 </r>
       <r>   12.0812   -0.0000 </r>
       <r>   12.1578   -0.0000 </r>
       <r>   12.4715   -0.0000 </r>
       <r>   12.6800   -0.0000 </r>
       <r>   12.8405   -0.0000 </r>
       <r>   12.8985   -0.0000 </r>
       <r>   13.1247   -0.0000 </r>
       <r>   13.1913   -0.0000 </r>
       <r>   13.4506   -0.0000 </r>
       <r>   13.5715   -0.0000 </r>
       <r>   13.7048   -0.0000 </r>
      </set>
      <set comment="kpoint 99">
       <r>   -2.1992    1.0000 </r>
       <r>   -1.3557    1.0000 </r>
       <r>   -0.8783    1.0000 </r>
       <r>   -0.4375    1.0000 </r>
       <r>    0.2329    1.0000 </r>
       <r>    0.6629    1.0000 </r>
       <r>    0.8866    1.0000 </r>
       <r>    1.3727    1.0000 </r>
       <r>    1.6166    1.0000 </r>
       <r>    2.0709    1.0000 </r>
       <r>    2.2351    1.0000 </r>
       <r>    2.7135    1.0000 </r>
       <r>    3.1635    1.0000 </r>
       <r>    3.3711    1.0000 </r>
       <r>    3.6749    1.0000 </r>
       <r>    3.9550    1.0000 </r>
       <r>    4.2263    1.0000 </r>
       <r>    4.3181    1.0000 </r>
       <r>    4.6676    1.0000 </r>
       <r>    4.8715    1.0000 </r>
       <r>    4.9903    1.0000 </r>
       <r>    5.4022    1.0000 </r>
       <r>    5.4235    1.0000 </r>
       <r>    5.6549    1.0000 </r>
       <r>    5.9309    1.0000 </r>
       <r>    6.2628    1.0000 </r>
       <r>    6.4282    1.0000 </r>
       <r>    6.6554    1.0000 </r>
       <r>    6.7292    1.0000 </r>
       <r>    7.2381    1.0000 </r>
       <r>    7.4160    1.0000 </r>
       <r>    7.5616    1.0000 </r>
       <r>    8.0905    1.0000 </r>
       <r>    8.1286    1.0000 </r>
       <r>    8.3910    1.0000 </r>
       <r>    8.5263    1.0000 </r>
       <r>    8.6903    1.0000 </r>
       <r>    8.8280    1.0000 </r>
       <r>    9.0935    1.0020 </r>
       <r>    9.2859    1.0314 </r>
       <r>    9.4350    0.9469 </r>
       <r>    9.7437   -0.0076 </r>
       <r>    9.9722   -0.0074 </r>
       <r>   10.2356   -0.0000 </r>
       <r>   10.4275   -0.0000 </r>
       <r>   10.6893   -0.0000 </r>
       <r>   10.9052   -0.0000 </r>
       <r>   11.0707   -0.0000 </r>
       <r>   11.1316   -0.0000 </r>
       <r>   11.2747   -0.0000 </r>
       <r>   11.3085   -0.0000 </r>
       <r>   11.6834   -0.0000 </r>
       <r>   11.8727   -0.0000 </r>
       <r>   12.0381   -0.0000 </r>
       <r>   12.2925   -0.0000 </r>
       <r>   12.6210   -0.0000 </r>
       <r>   12.7476   -0.0000 </r>
       <r>   12.8477   -0.0000 </r>
       <r>   13.0245   -0.0000 </r>
       <r>   13.0859   -0.0000 </r>
       <r>   13.2378   -0.0000 </r>
       <r>   13.5015   -0.0000 </r>
       <r>   13.6328   -0.0000 </r>
       <r>   13.6773   -0.0000 </r>
      </set>
      <set comment="kpoint 100">
       <r>   -2.2030    1.0000 </r>
       <r>   -1.3524    1.0000 </r>
       <r>   -0.8147    1.0000 </r>
       <r>   -0.5135    1.0000 </r>
       <r>    0.2226    1.0000 </r>
       <r>    0.6399    1.0000 </r>
       <r>    0.8825    1.0000 </r>
       <r>    1.3760    1.0000 </r>
       <r>    1.6610    1.0000 </r>
       <r>    2.0693    1.0000 </r>
       <r>    2.4038    1.0000 </r>
       <r>    2.7704    1.0000 </r>
       <r>    2.9923    1.0000 </r>
       <r>    3.2971    1.0000 </r>
       <r>    3.5992    1.0000 </r>
       <r>    3.8928    1.0000 </r>
       <r>    4.1885    1.0000 </r>
       <r>    4.3390    1.0000 </r>
       <r>    4.6633    1.0000 </r>
       <r>    4.9763    1.0000 </r>
       <r>    5.1231    1.0000 </r>
       <r>    5.3670    1.0000 </r>
       <r>    5.5355    1.0000 </r>
       <r>    5.6482    1.0000 </r>
       <r>    5.9869    1.0000 </r>
       <r>    6.2288    1.0000 </r>
       <r>    6.3330    1.0000 </r>
       <r>    6.6539    1.0000 </r>
       <r>    6.8090    1.0000 </r>
       <r>    7.0800    1.0000 </r>
       <r>    7.3832    1.0000 </r>
       <r>    7.5285    1.0000 </r>
       <r>    7.9614    1.0000 </r>
       <r>    8.2415    1.0000 </r>
       <r>    8.4162    1.0000 </r>
       <r>    8.4637    1.0000 </r>
       <r>    8.6799    1.0000 </r>
       <r>    8.9151    1.0000 </r>
       <r>    9.0636    1.0011 </r>
       <r>    9.3049    1.0343 </r>
       <r>    9.5498    0.5761 </r>
       <r>    9.7985   -0.0346 </r>
       <r>   10.0540   -0.0016 </r>
       <r>   10.2226   -0.0000 </r>
       <r>   10.5125   -0.0000 </r>
       <r>   10.5998   -0.0000 </r>
       <r>   10.8789   -0.0000 </r>
       <r>   11.0434   -0.0000 </r>
       <r>   11.1223   -0.0000 </r>
       <r>   11.2156   -0.0000 </r>
       <r>   11.3869   -0.0000 </r>
       <r>   11.5625   -0.0000 </r>
       <r>   11.8199   -0.0000 </r>
       <r>   12.1091   -0.0000 </r>
       <r>   12.3252   -0.0000 </r>
       <r>   12.5529   -0.0000 </r>
       <r>   12.6641   -0.0000 </r>
       <r>   12.8676   -0.0000 </r>
       <r>   12.9545   -0.0000 </r>
       <r>   13.1321   -0.0000 </r>
       <r>   13.2975   -0.0000 </r>
       <r>   13.4066   -0.0000 </r>
       <r>   13.5425   -0.0000 </r>
       <r>   13.7097   -0.0000 </r>
      </set>
      <set comment="kpoint 101">
       <r>   -1.9361    1.0000 </r>
       <r>   -1.4804    1.0000 </r>
       <r>   -0.9688    1.0000 </r>
       <r>   -0.6567    1.0000 </r>
       <r>   -0.2799    1.0000 </r>
       <r>    0.1535    1.0000 </r>
       <r>    1.6472    1.0000 </r>
       <r>    2.0563    1.0000 </r>
       <r>    2.3147    1.0000 </r>
       <r>    2.5031    1.0000 </r>
       <r>    2.7283    1.0000 </r>
       <r>    2.8237    1.0000 </r>
       <r>    3.0961    1.0000 </r>
       <r>    3.1940    1.0000 </r>
       <r>    3.3826    1.0000 </r>
       <r>    3.5955    1.0000 </r>
       <r>    3.7826    1.0000 </r>
       <r>    3.9978    1.0000 </r>
       <r>    4.0459    1.0000 </r>
       <r>    4.2298    1.0000 </r>
       <r>    4.6827    1.0000 </r>
       <r>    5.0222    1.0000 </r>
       <r>    5.7977    1.0000 </r>
       <r>    6.1054    1.0000 </r>
       <r>    6.2222    1.0000 </r>
       <r>    6.4171    1.0000 </r>
       <r>    6.6723    1.0000 </r>
       <r>    6.9124    1.0000 </r>
       <r>    6.9277    1.0000 </r>
       <r>    7.1141    1.0000 </r>
       <r>    7.3494    1.0000 </r>
       <r>    7.4046    1.0000 </r>
       <r>    7.5299    1.0000 </r>
       <r>    7.8467    1.0000 </r>
       <r>    8.1317    1.0000 </r>
       <r>    8.3530    1.0000 </r>
       <r>    8.7055    1.0000 </r>
       <r>    8.8604    1.0000 </r>
       <r>    9.1079    1.0027 </r>
       <r>    9.4734    0.8546 </r>
       <r>    9.6185    0.2932 </r>
       <r>    9.9735   -0.0073 </r>
       <r>   10.1367   -0.0002 </r>
       <r>   10.4086   -0.0000 </r>
       <r>   10.5795   -0.0000 </r>
       <r>   10.7621   -0.0000 </r>
       <r>   10.9191   -0.0000 </r>
       <r>   11.0105   -0.0000 </r>
       <r>   11.1487   -0.0000 </r>
       <r>   11.4479   -0.0000 </r>
       <r>   11.7660   -0.0000 </r>
       <r>   11.9072   -0.0000 </r>
       <r>   12.0945   -0.0000 </r>
       <r>   12.2041   -0.0000 </r>
       <r>   12.4587   -0.0000 </r>
       <r>   12.6231   -0.0000 </r>
       <r>   12.8450   -0.0000 </r>
       <r>   12.9492   -0.0000 </r>
       <r>   13.0668   -0.0000 </r>
       <r>   13.1884   -0.0000 </r>
       <r>   13.2179   -0.0000 </r>
       <r>   13.3605   -0.0000 </r>
       <r>   13.4516   -0.0000 </r>
       <r>   13.8884   -0.0000 </r>
      </set>
      <set comment="kpoint 102">
       <r>   -1.9834    1.0000 </r>
       <r>   -1.3694    1.0000 </r>
       <r>   -1.0218    1.0000 </r>
       <r>   -0.5944    1.0000 </r>
       <r>   -0.3606    1.0000 </r>
       <r>    0.1540    1.0000 </r>
       <r>    1.6466    1.0000 </r>
       <r>    1.9577    1.0000 </r>
       <r>    2.3269    1.0000 </r>
       <r>    2.5314    1.0000 </r>
       <r>    2.6624    1.0000 </r>
       <r>    2.8889    1.0000 </r>
       <r>    3.1130    1.0000 </r>
       <r>    3.1711    1.0000 </r>
       <r>    3.4610    1.0000 </r>
       <r>    3.6845    1.0000 </r>
       <r>    3.7684    1.0000 </r>
       <r>    3.9658    1.0000 </r>
       <r>    4.0949    1.0000 </r>
       <r>    4.3519    1.0000 </r>
       <r>    4.5424    1.0000 </r>
       <r>    5.0713    1.0000 </r>
       <r>    5.6855    1.0000 </r>
       <r>    5.9944    1.0000 </r>
       <r>    6.2749    1.0000 </r>
       <r>    6.4497    1.0000 </r>
       <r>    6.6203    1.0000 </r>
       <r>    6.7791    1.0000 </r>
       <r>    6.9549    1.0000 </r>
       <r>    7.0827    1.0000 </r>
       <r>    7.3558    1.0000 </r>
       <r>    7.4698    1.0000 </r>
       <r>    7.6507    1.0000 </r>
       <r>    7.7802    1.0000 </r>
       <r>    8.1721    1.0000 </r>
       <r>    8.3942    1.0000 </r>
       <r>    8.7292    1.0000 </r>
       <r>    8.9723    1.0001 </r>
       <r>    9.1120    1.0029 </r>
       <r>    9.3471    1.0328 </r>
       <r>    9.5807    0.4457 </r>
       <r>    9.8598   -0.0294 </r>
       <r>   10.2427   -0.0000 </r>
       <r>   10.2833   -0.0000 </r>
       <r>   10.4887   -0.0000 </r>
       <r>   10.7715   -0.0000 </r>
       <r>   10.9843   -0.0000 </r>
       <r>   11.1905   -0.0000 </r>
       <r>   11.2642   -0.0000 </r>
       <r>   11.3871   -0.0000 </r>
       <r>   11.6418   -0.0000 </r>
       <r>   12.0039   -0.0000 </r>
       <r>   12.1016   -0.0000 </r>
       <r>   12.2301   -0.0000 </r>
       <r>   12.4289   -0.0000 </r>
       <r>   12.6216   -0.0000 </r>
       <r>   12.8716   -0.0000 </r>
       <r>   12.9218   -0.0000 </r>
       <r>   13.0982   -0.0000 </r>
       <r>   13.1628   -0.0000 </r>
       <r>   13.2521   -0.0000 </r>
       <r>   13.4118   -0.0000 </r>
       <r>   13.5908   -0.0000 </r>
       <r>   13.9115   -0.0000 </r>
      </set>
      <set comment="kpoint 103">
       <r>   -1.9728    1.0000 </r>
       <r>   -1.3746    1.0000 </r>
       <r>   -1.0339    1.0000 </r>
       <r>   -0.6211    1.0000 </r>
       <r>   -0.3375    1.0000 </r>
       <r>    0.1529    1.0000 </r>
       <r>    1.6859    1.0000 </r>
       <r>    1.9303    1.0000 </r>
       <r>    2.3510    1.0000 </r>
       <r>    2.5231    1.0000 </r>
       <r>    2.6297    1.0000 </r>
       <r>    2.9933    1.0000 </r>
       <r>    3.1280    1.0000 </r>
       <r>    3.3243    1.0000 </r>
       <r>    3.4407    1.0000 </r>
       <r>    3.4900    1.0000 </r>
       <r>    3.7503    1.0000 </r>
       <r>    3.9313    1.0000 </r>
       <r>    4.0843    1.0000 </r>
       <r>    4.3311    1.0000 </r>
       <r>    4.4825    1.0000 </r>
       <r>    5.0665    1.0000 </r>
       <r>    5.7109    1.0000 </r>
       <r>    6.0371    1.0000 </r>
       <r>    6.2547    1.0000 </r>
       <r>    6.4422    1.0000 </r>
       <r>    6.6092    1.0000 </r>
       <r>    6.7604    1.0000 </r>
       <r>    6.8797    1.0000 </r>
       <r>    7.2422    1.0000 </r>
       <r>    7.4555    1.0000 </r>
       <r>    7.5084    1.0000 </r>
       <r>    7.6410    1.0000 </r>
       <r>    7.8344    1.0000 </r>
       <r>    8.0916    1.0000 </r>
       <r>    8.3779    1.0000 </r>
       <r>    8.6818    1.0000 </r>
       <r>    9.0109    1.0003 </r>
       <r>    9.0856    1.0017 </r>
       <r>    9.4177    0.9764 </r>
       <r>    9.5661    0.5075 </r>
       <r>    9.7760   -0.0288 </r>
       <r>   10.1663   -0.0001 </r>
       <r>   10.4300   -0.0000 </r>
       <r>   10.6070   -0.0000 </r>
       <r>   10.6808   -0.0000 </r>
       <r>   10.8475   -0.0000 </r>
       <r>   11.0567   -0.0000 </r>
       <r>   11.2226   -0.0000 </r>
       <r>   11.5190   -0.0000 </r>
       <r>   11.7796   -0.0000 </r>
       <r>   11.8456   -0.0000 </r>
       <r>   12.1166   -0.0000 </r>
       <r>   12.3004   -0.0000 </r>
       <r>   12.4629   -0.0000 </r>
       <r>   12.6836   -0.0000 </r>
       <r>   12.8206   -0.0000 </r>
       <r>   12.9565   -0.0000 </r>
       <r>   13.1145   -0.0000 </r>
       <r>   13.1821   -0.0000 </r>
       <r>   13.2891   -0.0000 </r>
       <r>   13.3831   -0.0000 </r>
       <r>   13.4361   -0.0000 </r>
       <r>   13.9223   -0.0000 </r>
      </set>
      <set comment="kpoint 104">
       <r>   -1.9487    1.0000 </r>
       <r>   -1.4542    1.0000 </r>
       <r>   -1.0024    1.0000 </r>
       <r>   -0.5385    1.0000 </r>
       <r>   -0.4166    1.0000 </r>
       <r>    0.2031    1.0000 </r>
       <r>    1.7801    1.0000 </r>
       <r>    1.8340    1.0000 </r>
       <r>    2.2859    1.0000 </r>
       <r>    2.4554    1.0000 </r>
       <r>    2.7658    1.0000 </r>
       <r>    2.9727    1.0000 </r>
       <r>    3.0609    1.0000 </r>
       <r>    3.2628    1.0000 </r>
       <r>    3.3621    1.0000 </r>
       <r>    3.6195    1.0000 </r>
       <r>    3.7525    1.0000 </r>
       <r>    3.8776    1.0000 </r>
       <r>    4.0862    1.0000 </r>
       <r>    4.3957    1.0000 </r>
       <r>    4.5741    1.0000 </r>
       <r>    5.0116    1.0000 </r>
       <r>    5.7592    1.0000 </r>
       <r>    6.1404    1.0000 </r>
       <r>    6.2121    1.0000 </r>
       <r>    6.5964    1.0000 </r>
       <r>    6.6520    1.0000 </r>
       <r>    6.7997    1.0000 </r>
       <r>    6.9452    1.0000 </r>
       <r>    7.0939    1.0000 </r>
       <r>    7.3216    1.0000 </r>
       <r>    7.4361    1.0000 </r>
       <r>    7.4896    1.0000 </r>
       <r>    7.7881    1.0000 </r>
       <r>    8.0312    1.0000 </r>
       <r>    8.4243    1.0000 </r>
       <r>    8.7079    1.0000 </r>
       <r>    8.9354    1.0000 </r>
       <r>    9.1959    1.0122 </r>
       <r>    9.3387    1.0344 </r>
       <r>    9.7337    0.0029 </r>
       <r>    9.7941   -0.0339 </r>
       <r>   10.1926   -0.0000 </r>
       <r>   10.4102   -0.0000 </r>
       <r>   10.6434   -0.0000 </r>
       <r>   10.7847   -0.0000 </r>
       <r>   10.8879   -0.0000 </r>
       <r>   11.0586   -0.0000 </r>
       <r>   11.1812   -0.0000 </r>
       <r>   11.3930   -0.0000 </r>
       <r>   11.8066   -0.0000 </r>
       <r>   11.8907   -0.0000 </r>
       <r>   12.1625   -0.0000 </r>
       <r>   12.2084   -0.0000 </r>
       <r>   12.4122   -0.0000 </r>
       <r>   12.5588   -0.0000 </r>
       <r>   12.7911   -0.0000 </r>
       <r>   12.9241   -0.0000 </r>
       <r>   13.0640   -0.0000 </r>
       <r>   13.1674   -0.0000 </r>
       <r>   13.2899   -0.0000 </r>
       <r>   13.3904   -0.0000 </r>
       <r>   13.5913   -0.0000 </r>
       <r>   13.8552   -0.0000 </r>
      </set>
      <set comment="kpoint 105">
       <r>   -1.9635    1.0000 </r>
       <r>   -1.3888    1.0000 </r>
       <r>   -1.0380    1.0000 </r>
       <r>   -0.6482    1.0000 </r>
       <r>   -0.2862    1.0000 </r>
       <r>    0.1427    1.0000 </r>
       <r>    1.5446    1.0000 </r>
       <r>    2.1359    1.0000 </r>
       <r>    2.3630    1.0000 </r>
       <r>    2.5635    1.0000 </r>
       <r>    2.6970    1.0000 </r>
       <r>    2.8748    1.0000 </r>
       <r>    3.0733    1.0000 </r>
       <r>    3.2610    1.0000 </r>
       <r>    3.3951    1.0000 </r>
       <r>    3.5833    1.0000 </r>
       <r>    3.7455    1.0000 </r>
       <r>    3.9135    1.0000 </r>
       <r>    4.0539    1.0000 </r>
       <r>    4.2340    1.0000 </r>
       <r>    4.6892    1.0000 </r>
       <r>    4.9873    1.0000 </r>
       <r>    5.6939    1.0000 </r>
       <r>    5.9700    1.0000 </r>
       <r>    6.1791    1.0000 </r>
       <r>    6.5236    1.0000 </r>
       <r>    6.7140    1.0000 </r>
       <r>    6.7936    1.0000 </r>
       <r>    7.0553    1.0000 </r>
       <r>    7.1845    1.0000 </r>
       <r>    7.3271    1.0000 </r>
       <r>    7.4682    1.0000 </r>
       <r>    7.7069    1.0000 </r>
       <r>    7.7435    1.0000 </r>
       <r>    8.1936    1.0000 </r>
       <r>    8.3744    1.0000 </r>
       <r>    8.7156    1.0000 </r>
       <r>    8.8549    1.0000 </r>
       <r>    9.1546    1.0064 </r>
       <r>    9.4101    0.9871 </r>
       <r>    9.5517    0.5682 </r>
       <r>    9.9277   -0.0145 </r>
       <r>   10.0887   -0.0007 </r>
       <r>   10.3563   -0.0000 </r>
       <r>   10.4937   -0.0000 </r>
       <r>   10.7087   -0.0000 </r>
       <r>   10.8741   -0.0000 </r>
       <r>   11.1209   -0.0000 </r>
       <r>   11.1876   -0.0000 </r>
       <r>   11.4844   -0.0000 </r>
       <r>   11.8434   -0.0000 </r>
       <r>   11.9697   -0.0000 </r>
       <r>   12.1126   -0.0000 </r>
       <r>   12.2864   -0.0000 </r>
       <r>   12.5078   -0.0000 </r>
       <r>   12.6518   -0.0000 </r>
       <r>   12.8016   -0.0000 </r>
       <r>   12.9747   -0.0000 </r>
       <r>   12.9987   -0.0000 </r>
       <r>   13.1438   -0.0000 </r>
       <r>   13.2785   -0.0000 </r>
       <r>   13.3783   -0.0000 </r>
       <r>   13.5034   -0.0000 </r>
       <r>   13.7982   -0.0000 </r>
      </set>
      <set comment="kpoint 106">
       <r>   -1.9872    1.0000 </r>
       <r>   -1.3557    1.0000 </r>
       <r>   -1.0313    1.0000 </r>
       <r>   -0.6038    1.0000 </r>
       <r>   -0.3498    1.0000 </r>
       <r>    0.1578    1.0000 </r>
       <r>    1.6779    1.0000 </r>
       <r>    1.9175    1.0000 </r>
       <r>    2.2540    1.0000 </r>
       <r>    2.5346    1.0000 </r>
       <r>    2.6605    1.0000 </r>
       <r>    2.8708    1.0000 </r>
       <r>    3.1566    1.0000 </r>
       <r>    3.3633    1.0000 </r>
       <r>    3.4124    1.0000 </r>
       <r>    3.6027    1.0000 </r>
       <r>    3.7604    1.0000 </r>
       <r>    4.0047    1.0000 </r>
       <r>    4.0856    1.0000 </r>
       <r>    4.3339    1.0000 </r>
       <r>    4.5768    1.0000 </r>
       <r>    5.0019    1.0000 </r>
       <r>    5.6920    1.0000 </r>
       <r>    6.0031    1.0000 </r>
       <r>    6.2869    1.0000 </r>
       <r>    6.4272    1.0000 </r>
       <r>    6.6000    1.0000 </r>
       <r>    6.7854    1.0000 </r>
       <r>    6.9910    1.0000 </r>
       <r>    7.0531    1.0000 </r>
       <r>    7.3378    1.0000 </r>
       <r>    7.5336    1.0000 </r>
       <r>    7.6435    1.0000 </r>
       <r>    7.7884    1.0000 </r>
       <r>    8.1316    1.0000 </r>
       <r>    8.3339    1.0000 </r>
       <r>    8.8193    1.0000 </r>
       <r>    8.9943    1.0002 </r>
       <r>    9.1746    1.0089 </r>
       <r>    9.4381    0.9407 </r>
       <r>    9.5104    0.7325 </r>
       <r>    9.7139    0.0300 </r>
       <r>   10.1928   -0.0000 </r>
       <r>   10.3416   -0.0000 </r>
       <r>   10.4954   -0.0000 </r>
       <r>   10.7010   -0.0000 </r>
       <r>   10.9498   -0.0000 </r>
       <r>   11.1250   -0.0000 </r>
       <r>   11.2867   -0.0000 </r>
       <r>   11.4156   -0.0000 </r>
       <r>   11.6819   -0.0000 </r>
       <r>   12.0532   -0.0000 </r>
       <r>   12.1871   -0.0000 </r>
       <r>   12.2299   -0.0000 </r>
       <r>   12.5585   -0.0000 </r>
       <r>   12.6493   -0.0000 </r>
       <r>   12.7508   -0.0000 </r>
       <r>   12.9649   -0.0000 </r>
       <r>   13.0648   -0.0000 </r>
       <r>   13.1582   -0.0000 </r>
       <r>   13.3088   -0.0000 </r>
       <r>   13.3879   -0.0000 </r>
       <r>   13.4996   -0.0000 </r>
       <r>   13.8894   -0.0000 </r>
      </set>
      <set comment="kpoint 107">
       <r>   -1.9438    1.0000 </r>
       <r>   -1.4681    1.0000 </r>
       <r>   -0.9749    1.0000 </r>
       <r>   -0.6604    1.0000 </r>
       <r>   -0.2650    1.0000 </r>
       <r>    0.1595    1.0000 </r>
       <r>    1.6888    1.0000 </r>
       <r>    1.9367    1.0000 </r>
       <r>    2.2195    1.0000 </r>
       <r>    2.5440    1.0000 </r>
       <r>    2.7404    1.0000 </r>
       <r>    2.9459    1.0000 </r>
       <r>    3.0821    1.0000 </r>
       <r>    3.2092    1.0000 </r>
       <r>    3.3758    1.0000 </r>
       <r>    3.5372    1.0000 </r>
       <r>    3.8001    1.0000 </r>
       <r>    4.0323    1.0000 </r>
       <r>    4.1463    1.0000 </r>
       <r>    4.2335    1.0000 </r>
       <r>    4.6412    1.0000 </r>
       <r>    4.9632    1.0000 </r>
       <r>    5.7891    1.0000 </r>
       <r>    6.0879    1.0000 </r>
       <r>    6.2699    1.0000 </r>
       <r>    6.3861    1.0000 </r>
       <r>    6.6162    1.0000 </r>
       <r>    6.8660    1.0000 </r>
       <r>    7.0375    1.0000 </r>
       <r>    7.1889    1.0000 </r>
       <r>    7.2951    1.0000 </r>
       <r>    7.4180    1.0000 </r>
       <r>    7.5193    1.0000 </r>
       <r>    7.8296    1.0000 </r>
       <r>    8.0851    1.0000 </r>
       <r>    8.3806    1.0000 </r>
       <r>    8.6771    1.0000 </r>
       <r>    8.9033    1.0000 </r>
       <r>    9.0841    1.0017 </r>
       <r>    9.4868    0.8138 </r>
       <r>    9.5968    0.3789 </r>
       <r>    9.9349   -0.0131 </r>
       <r>   10.1057   -0.0005 </r>
       <r>   10.3927   -0.0000 </r>
       <r>   10.4740   -0.0000 </r>
       <r>   10.7834   -0.0000 </r>
       <r>   10.9144   -0.0000 </r>
       <r>   11.1182   -0.0000 </r>
       <r>   11.2761   -0.0000 </r>
       <r>   11.5000   -0.0000 </r>
       <r>   11.7580   -0.0000 </r>
       <r>   11.9257   -0.0000 </r>
       <r>   12.1239   -0.0000 </r>
       <r>   12.1915   -0.0000 </r>
       <r>   12.4282   -0.0000 </r>
       <r>   12.6110   -0.0000 </r>
       <r>   12.8177   -0.0000 </r>
       <r>   12.8997   -0.0000 </r>
       <r>   13.0259   -0.0000 </r>
       <r>   13.2113   -0.0000 </r>
       <r>   13.2771   -0.0000 </r>
       <r>   13.3834   -0.0000 </r>
       <r>   13.5550   -0.0000 </r>
       <r>   13.9442   -0.0000 </r>
      </set>
      <set comment="kpoint 108">
       <r>   -1.9925    1.0000 </r>
       <r>   -1.3326    1.0000 </r>
       <r>   -1.0116    1.0000 </r>
       <r>   -0.7148    1.0000 </r>
       <r>   -0.2588    1.0000 </r>
       <r>    0.1466    1.0000 </r>
       <r>    1.5703    1.0000 </r>
       <r>    2.0622    1.0000 </r>
       <r>    2.2227    1.0000 </r>
       <r>    2.5170    1.0000 </r>
       <r>    2.7432    1.0000 </r>
       <r>    2.9278    1.0000 </r>
       <r>    3.0046    1.0000 </r>
       <r>    3.2839    1.0000 </r>
       <r>    3.4884    1.0000 </r>
       <r>    3.6693    1.0000 </r>
       <r>    3.7556    1.0000 </r>
       <r>    3.9712    1.0000 </r>
       <r>    4.1154    1.0000 </r>
       <r>    4.2282    1.0000 </r>
       <r>    4.6847    1.0000 </r>
       <r>    4.9718    1.0000 </r>
       <r>    5.6135    1.0000 </r>
       <r>    6.0559    1.0000 </r>
       <r>    6.2025    1.0000 </r>
       <r>    6.3757    1.0000 </r>
       <r>    6.6516    1.0000 </r>
       <r>    6.8574    1.0000 </r>
       <r>    7.0682    1.0000 </r>
       <r>    7.1574    1.0000 </r>
       <r>    7.2966    1.0000 </r>
       <r>    7.5234    1.0000 </r>
       <r>    7.7167    1.0000 </r>
       <r>    7.7644    1.0000 </r>
       <r>    8.0591    1.0000 </r>
       <r>    8.2867    1.0000 </r>
       <r>    8.7206    1.0000 </r>
       <r>    8.9516    1.0001 </r>
       <r>    9.1186    1.0033 </r>
       <r>    9.4114    0.9854 </r>
       <r>    9.5432    0.6034 </r>
       <r>    9.9667   -0.0081 </r>
       <r>   10.0785   -0.0009 </r>
       <r>   10.2599   -0.0000 </r>
       <r>   10.5914   -0.0000 </r>
       <r>   10.7353   -0.0000 </r>
       <r>   10.9953   -0.0000 </r>
       <r>   11.0676   -0.0000 </r>
       <r>   11.2381   -0.0000 </r>
       <r>   11.5922   -0.0000 </r>
       <r>   11.6939   -0.0000 </r>
       <r>   11.9666   -0.0000 </r>
       <r>   12.1822   -0.0000 </r>
       <r>   12.3092   -0.0000 </r>
       <r>   12.5207   -0.0000 </r>
       <r>   12.5464   -0.0000 </r>
       <r>   12.6992   -0.0000 </r>
       <r>   12.9263   -0.0000 </r>
       <r>   13.1199   -0.0000 </r>
       <r>   13.1977   -0.0000 </r>
       <r>   13.3080   -0.0000 </r>
       <r>   13.3941   -0.0000 </r>
       <r>   13.6172   -0.0000 </r>
       <r>   13.7610   -0.0000 </r>
      </set>
      <set comment="kpoint 109">
       <r>   -1.9664    1.0000 </r>
       <r>   -1.3864    1.0000 </r>
       <r>   -1.0377    1.0000 </r>
       <r>   -0.6488    1.0000 </r>
       <r>   -0.2818    1.0000 </r>
       <r>    0.1477    1.0000 </r>
       <r>    1.5683    1.0000 </r>
       <r>    2.1049    1.0000 </r>
       <r>    2.2893    1.0000 </r>
       <r>    2.5369    1.0000 </r>
       <r>    2.7519    1.0000 </r>
       <r>    2.8324    1.0000 </r>
       <r>    3.0401    1.0000 </r>
       <r>    3.3380    1.0000 </r>
       <r>    3.4057    1.0000 </r>
       <r>    3.6173    1.0000 </r>
       <r>    3.7805    1.0000 </r>
       <r>    4.0059    1.0000 </r>
       <r>    4.0458    1.0000 </r>
       <r>    4.1780    1.0000 </r>
       <r>    4.6751    1.0000 </r>
       <r>    4.9585    1.0000 </r>
       <r>    5.6333    1.0000 </r>
       <r>    5.9539    1.0000 </r>
       <r>    6.2335    1.0000 </r>
       <r>    6.5222    1.0000 </r>
       <r>    6.7041    1.0000 </r>
       <r>    6.8624    1.0000 </r>
       <r>    6.9751    1.0000 </r>
       <r>    7.2241    1.0000 </r>
       <r>    7.3006    1.0000 </r>
       <r>    7.4444    1.0000 </r>
       <r>    7.7371    1.0000 </r>
       <r>    7.7995    1.0000 </r>
       <r>    8.1893    1.0000 </r>
       <r>    8.3178    1.0000 </r>
       <r>    8.7348    1.0000 </r>
       <r>    8.8634    1.0000 </r>
       <r>    9.1621    1.0073 </r>
       <r>    9.3904    1.0091 </r>
       <r>    9.4848    0.8201 </r>
       <r>    9.8990   -0.0205 </r>
       <r>   10.1481   -0.0002 </r>
       <r>   10.2213   -0.0000 </r>
       <r>   10.5399   -0.0000 </r>
       <r>   10.7593   -0.0000 </r>
       <r>   10.8781   -0.0000 </r>
       <r>   11.1310   -0.0000 </r>
       <r>   11.2336   -0.0000 </r>
       <r>   11.5162   -0.0000 </r>
       <r>   11.8271   -0.0000 </r>
       <r>   11.9595   -0.0000 </r>
       <r>   12.1909   -0.0000 </r>
       <r>   12.3837   -0.0000 </r>
       <r>   12.4414   -0.0000 </r>
       <r>   12.5634   -0.0000 </r>
       <r>   12.7639   -0.0000 </r>
       <r>   12.8977   -0.0000 </r>
       <r>   13.0803   -0.0000 </r>
       <r>   13.1390   -0.0000 </r>
       <r>   13.2857   -0.0000 </r>
       <r>   13.4744   -0.0000 </r>
       <r>   13.5774   -0.0000 </r>
       <r>   13.7925   -0.0000 </r>
      </set>
      <set comment="kpoint 110">
       <r>   -1.9367    1.0000 </r>
       <r>   -1.4898    1.0000 </r>
       <r>   -0.9687    1.0000 </r>
       <r>   -0.5371    1.0000 </r>
       <r>   -0.4308    1.0000 </r>
       <r>    0.2028    1.0000 </r>
       <r>    1.7556    1.0000 </r>
       <r>    1.9329    1.0000 </r>
       <r>    2.2968    1.0000 </r>
       <r>    2.3852    1.0000 </r>
       <r>    2.7281    1.0000 </r>
       <r>    2.9298    1.0000 </r>
       <r>    3.0041    1.0000 </r>
       <r>    3.2995    1.0000 </r>
       <r>    3.4758    1.0000 </r>
       <r>    3.6045    1.0000 </r>
       <r>    3.7468    1.0000 </r>
       <r>    3.8773    1.0000 </r>
       <r>    4.0738    1.0000 </r>
       <r>    4.4604    1.0000 </r>
       <r>    4.5364    1.0000 </r>
       <r>    4.9965    1.0000 </r>
       <r>    5.7561    1.0000 </r>
       <r>    6.0947    1.0000 </r>
       <r>    6.2650    1.0000 </r>
       <r>    6.5826    1.0000 </r>
       <r>    6.6427    1.0000 </r>
       <r>    6.8139    1.0000 </r>
       <r>    6.8918    1.0000 </r>
       <r>    7.1574    1.0000 </r>
       <r>    7.2475    1.0000 </r>
       <r>    7.4012    1.0000 </r>
       <r>    7.5839    1.0000 </r>
       <r>    7.8212    1.0000 </r>
       <r>    8.1327    1.0000 </r>
       <r>    8.2718    1.0000 </r>
       <r>    8.7072    1.0000 </r>
       <r>    8.9767    1.0001 </r>
       <r>    9.2132    1.0155 </r>
       <r>    9.4148    0.9806 </r>
       <r>    9.7044    0.0463 </r>
       <r>    9.7706   -0.0265 </r>
       <r>   10.2279   -0.0000 </r>
       <r>   10.2709   -0.0000 </r>
       <r>   10.5483   -0.0000 </r>
       <r>   10.7358   -0.0000 </r>
       <r>   10.9552   -0.0000 </r>
       <r>   11.1085   -0.0000 </r>
       <r>   11.2684   -0.0000 </r>
       <r>   11.3518   -0.0000 </r>
       <r>   11.7903   -0.0000 </r>
       <r>   11.9267   -0.0000 </r>
       <r>   12.1041   -0.0000 </r>
       <r>   12.1506   -0.0000 </r>
       <r>   12.4686   -0.0000 </r>
       <r>   12.6414   -0.0000 </r>
       <r>   12.8911   -0.0000 </r>
       <r>   12.9932   -0.0000 </r>
       <r>   13.0685   -0.0000 </r>
       <r>   13.1922   -0.0000 </r>
       <r>   13.2831   -0.0000 </r>
       <r>   13.3478   -0.0000 </r>
       <r>   13.4664   -0.0000 </r>
       <r>   13.8275   -0.0000 </r>
      </set>
      <set comment="kpoint 111">
       <r>   -1.9670    1.0000 </r>
       <r>   -1.4040    1.0000 </r>
       <r>   -1.0041    1.0000 </r>
       <r>   -0.6237    1.0000 </r>
       <r>   -0.3406    1.0000 </r>
       <r>    0.1580    1.0000 </r>
       <r>    1.7209    1.0000 </r>
       <r>    1.8738    1.0000 </r>
       <r>    2.2798    1.0000 </r>
       <r>    2.5907    1.0000 </r>
       <r>    2.6832    1.0000 </r>
       <r>    2.9459    1.0000 </r>
       <r>    3.1404    1.0000 </r>
       <r>    3.3579    1.0000 </r>
       <r>    3.4130    1.0000 </r>
       <r>    3.5327    1.0000 </r>
       <r>    3.6293    1.0000 </r>
       <r>    3.9876    1.0000 </r>
       <r>    4.1266    1.0000 </r>
       <r>    4.2858    1.0000 </r>
       <r>    4.5294    1.0000 </r>
       <r>    5.0343    1.0000 </r>
       <r>    5.7802    1.0000 </r>
       <r>    5.9978    1.0000 </r>
       <r>    6.2334    1.0000 </r>
       <r>    6.3805    1.0000 </r>
       <r>    6.6227    1.0000 </r>
       <r>    6.8153    1.0000 </r>
       <r>    6.9108    1.0000 </r>
       <r>    7.2579    1.0000 </r>
       <r>    7.3189    1.0000 </r>
       <r>    7.4956    1.0000 </r>
       <r>    7.6729    1.0000 </r>
       <r>    7.8837    1.0000 </r>
       <r>    8.1578    1.0000 </r>
       <r>    8.3152    1.0000 </r>
       <r>    8.6832    1.0000 </r>
       <r>    9.0535    1.0008 </r>
       <r>    9.1381    1.0048 </r>
       <r>    9.3988    1.0008 </r>
       <r>    9.5304    0.6555 </r>
       <r>    9.7614   -0.0215 </r>
       <r>   10.1798   -0.0001 </r>
       <r>   10.3323   -0.0000 </r>
       <r>   10.4686   -0.0000 </r>
       <r>   10.6805   -0.0000 </r>
       <r>   10.9640   -0.0000 </r>
       <r>   11.1055   -0.0000 </r>
       <r>   11.2455   -0.0000 </r>
       <r>   11.5201   -0.0000 </r>
       <r>   11.8411   -0.0000 </r>
       <r>   11.9131   -0.0000 </r>
       <r>   12.1597   -0.0000 </r>
       <r>   12.2538   -0.0000 </r>
       <r>   12.4309   -0.0000 </r>
       <r>   12.5563   -0.0000 </r>
       <r>   12.8003   -0.0000 </r>
       <r>   12.9993   -0.0000 </r>
       <r>   13.0593   -0.0000 </r>
       <r>   13.1362   -0.0000 </r>
       <r>   13.3571   -0.0000 </r>
       <r>   13.4953   -0.0000 </r>
       <r>   13.5302   -0.0000 </r>
       <r>   13.8621   -0.0000 </r>
      </set>
      <set comment="kpoint 112">
       <r>   -1.9812    1.0000 </r>
       <r>   -1.3764    1.0000 </r>
       <r>   -0.9705    1.0000 </r>
       <r>   -0.7132    1.0000 </r>
       <r>   -0.2752    1.0000 </r>
       <r>    0.1414    1.0000 </r>
       <r>    1.5580    1.0000 </r>
       <r>    2.1367    1.0000 </r>
       <r>    2.2588    1.0000 </r>
       <r>    2.5405    1.0000 </r>
       <r>    2.6973    1.0000 </r>
       <r>    2.9204    1.0000 </r>
       <r>    3.1085    1.0000 </r>
       <r>    3.1719    1.0000 </r>
       <r>    3.3490    1.0000 </r>
       <r>    3.6617    1.0000 </r>
       <r>    3.7905    1.0000 </r>
       <r>    3.9684    1.0000 </r>
       <r>    4.0553    1.0000 </r>
       <r>    4.3080    1.0000 </r>
       <r>    4.6935    1.0000 </r>
       <r>    4.9987    1.0000 </r>
       <r>    5.6474    1.0000 </r>
       <r>    6.0376    1.0000 </r>
       <r>    6.2383    1.0000 </r>
       <r>    6.3568    1.0000 </r>
       <r>    6.6551    1.0000 </r>
       <r>    6.8261    1.0000 </r>
       <r>    7.0380    1.0000 </r>
       <r>    7.2124    1.0000 </r>
       <r>    7.3099    1.0000 </r>
       <r>    7.4033    1.0000 </r>
       <r>    7.7090    1.0000 </r>
       <r>    7.7695    1.0000 </r>
       <r>    8.1580    1.0000 </r>
       <r>    8.3417    1.0000 </r>
       <r>    8.6449    1.0000 </r>
       <r>    8.9782    1.0001 </r>
       <r>    9.1449    1.0054 </r>
       <r>    9.4125    0.9839 </r>
       <r>    9.5836    0.4335 </r>
       <r>    9.9647   -0.0084 </r>
       <r>   10.1452   -0.0002 </r>
       <r>   10.2652   -0.0000 </r>
       <r>   10.5248   -0.0000 </r>
       <r>   10.6402   -0.0000 </r>
       <r>   10.9708   -0.0000 </r>
       <r>   11.1295   -0.0000 </r>
       <r>   11.2085   -0.0000 </r>
       <r>   11.5318   -0.0000 </r>
       <r>   11.6955   -0.0000 </r>
       <r>   12.0302   -0.0000 </r>
       <r>   12.1065   -0.0000 </r>
       <r>   12.2873   -0.0000 </r>
       <r>   12.3927   -0.0000 </r>
       <r>   12.7653   -0.0000 </r>
       <r>   12.8039   -0.0000 </r>
       <r>   12.8926   -0.0000 </r>
       <r>   13.0502   -0.0000 </r>
       <r>   13.1894   -0.0000 </r>
       <r>   13.3288   -0.0000 </r>
       <r>   13.3820   -0.0000 </r>
       <r>   13.4615   -0.0000 </r>
       <r>   13.8511   -0.0000 </r>
      </set>
      <set comment="kpoint 113">
       <r>   -2.3260    1.0000 </r>
       <r>   -1.4796    1.0000 </r>
       <r>   -0.1645    1.0000 </r>
       <r>   -0.0338    1.0000 </r>
       <r>    0.2899    1.0000 </r>
       <r>    0.3625    1.0000 </r>
       <r>    0.6554    1.0000 </r>
       <r>    0.7958    1.0000 </r>
       <r>    1.5764    1.0000 </r>
       <r>    1.8041    1.0000 </r>
       <r>    2.1474    1.0000 </r>
       <r>    2.8952    1.0000 </r>
       <r>    3.1496    1.0000 </r>
       <r>    3.4159    1.0000 </r>
       <r>    3.5222    1.0000 </r>
       <r>    3.6054    1.0000 </r>
       <r>    3.8701    1.0000 </r>
       <r>    4.1200    1.0000 </r>
       <r>    5.1088    1.0000 </r>
       <r>    5.4487    1.0000 </r>
       <r>    5.5484    1.0000 </r>
       <r>    5.7553    1.0000 </r>
       <r>    5.9482    1.0000 </r>
       <r>    6.0912    1.0000 </r>
       <r>    6.2083    1.0000 </r>
       <r>    6.2477    1.0000 </r>
       <r>    6.4968    1.0000 </r>
       <r>    6.5607    1.0000 </r>
       <r>    6.8462    1.0000 </r>
       <r>    7.0594    1.0000 </r>
       <r>    7.3042    1.0000 </r>
       <r>    7.3609    1.0000 </r>
       <r>    7.4159    1.0000 </r>
       <r>    7.6252    1.0000 </r>
       <r>    8.4349    1.0000 </r>
       <r>    8.5620    1.0000 </r>
       <r>    8.6122    1.0000 </r>
       <r>    8.8433    1.0000 </r>
       <r>    9.0003    1.0002 </r>
       <r>    9.1441    1.0053 </r>
       <r>    9.2859    1.0314 </r>
       <r>    9.4281    0.9595 </r>
       <r>    9.7107    0.0353 </r>
       <r>   10.4982   -0.0000 </r>
       <r>   10.5324   -0.0000 </r>
       <r>   10.7947   -0.0000 </r>
       <r>   11.1442   -0.0000 </r>
       <r>   11.3527   -0.0000 </r>
       <r>   11.4888   -0.0000 </r>
       <r>   11.5875   -0.0000 </r>
       <r>   11.7203   -0.0000 </r>
       <r>   11.7888   -0.0000 </r>
       <r>   11.8932   -0.0000 </r>
       <r>   12.0250   -0.0000 </r>
       <r>   12.0672   -0.0000 </r>
       <r>   12.1141   -0.0000 </r>
       <r>   12.2329   -0.0000 </r>
       <r>   12.3896   -0.0000 </r>
       <r>   12.4951   -0.0000 </r>
       <r>   12.6507   -0.0000 </r>
       <r>   12.8267   -0.0000 </r>
       <r>   13.3275   -0.0000 </r>
       <r>   13.4732   -0.0000 </r>
       <r>   13.6078   -0.0000 </r>
      </set>
      <set comment="kpoint 114">
       <r>   -2.3208    1.0000 </r>
       <r>   -1.4810    1.0000 </r>
       <r>   -0.2707    1.0000 </r>
       <r>    0.1005    1.0000 </r>
       <r>    0.1472    1.0000 </r>
       <r>    0.4662    1.0000 </r>
       <r>    0.5902    1.0000 </r>
       <r>    0.9075    1.0000 </r>
       <r>    1.5577    1.0000 </r>
       <r>    1.8784    1.0000 </r>
       <r>    2.1347    1.0000 </r>
       <r>    2.8455    1.0000 </r>
       <r>    3.1582    1.0000 </r>
       <r>    3.3241    1.0000 </r>
       <r>    3.4826    1.0000 </r>
       <r>    3.6823    1.0000 </r>
       <r>    3.7824    1.0000 </r>
       <r>    4.1638    1.0000 </r>
       <r>    5.0944    1.0000 </r>
       <r>    5.3751    1.0000 </r>
       <r>    5.7023    1.0000 </r>
       <r>    5.8254    1.0000 </r>
       <r>    5.8825    1.0000 </r>
       <r>    5.9325    1.0000 </r>
       <r>    6.2187    1.0000 </r>
       <r>    6.3724    1.0000 </r>
       <r>    6.4812    1.0000 </r>
       <r>    6.5964    1.0000 </r>
       <r>    6.9612    1.0000 </r>
       <r>    7.1019    1.0000 </r>
       <r>    7.1878    1.0000 </r>
       <r>    7.3258    1.0000 </r>
       <r>    7.4954    1.0000 </r>
       <r>    7.5845    1.0000 </r>
       <r>    8.3109    1.0000 </r>
       <r>    8.5254    1.0000 </r>
       <r>    8.6497    1.0000 </r>
       <r>    8.9143    1.0000 </r>
       <r>    8.9904    1.0002 </r>
       <r>    9.1779    1.0094 </r>
       <r>    9.2712    1.0284 </r>
       <r>    9.4734    0.8545 </r>
       <r>    9.7447   -0.0086 </r>
       <r>   10.5280   -0.0000 </r>
       <r>   10.6174   -0.0000 </r>
       <r>   10.6504   -0.0000 </r>
       <r>   11.1859   -0.0000 </r>
       <r>   11.2919   -0.0000 </r>
       <r>   11.4422   -0.0000 </r>
       <r>   11.5999   -0.0000 </r>
       <r>   11.6928   -0.0000 </r>
       <r>   11.7910   -0.0000 </r>
       <r>   11.9087   -0.0000 </r>
       <r>   11.9600   -0.0000 </r>
       <r>   12.0636   -0.0000 </r>
       <r>   12.2213   -0.0000 </r>
       <r>   12.2799   -0.0000 </r>
       <r>   12.3382   -0.0000 </r>
       <r>   12.4352   -0.0000 </r>
       <r>   12.6449   -0.0000 </r>
       <r>   12.7263   -0.0000 </r>
       <r>   13.2678   -0.0000 </r>
       <r>   13.5448   -0.0000 </r>
       <r>   13.6734   -0.0000 </r>
      </set>
      <set comment="kpoint 115">
       <r>   -2.3168    1.0000 </r>
       <r>   -1.4676    1.0000 </r>
       <r>   -0.2914    1.0000 </r>
       <r>   -0.0108    1.0000 </r>
       <r>    0.1610    1.0000 </r>
       <r>    0.3242    1.0000 </r>
       <r>    0.7423    1.0000 </r>
       <r>    1.0853    1.0000 </r>
       <r>    1.5393    1.0000 </r>
       <r>    1.8239    1.0000 </r>
       <r>    2.3139    1.0000 </r>
       <r>    2.7979    1.0000 </r>
       <r>    3.0463    1.0000 </r>
       <r>    3.2930    1.0000 </r>
       <r>    3.4399    1.0000 </r>
       <r>    3.6392    1.0000 </r>
       <r>    3.7847    1.0000 </r>
       <r>    4.3182    1.0000 </r>
       <r>    5.0736    1.0000 </r>
       <r>    5.1896    1.0000 </r>
       <r>    5.6093    1.0000 </r>
       <r>    5.7185    1.0000 </r>
       <r>    5.9078    1.0000 </r>
       <r>    5.9543    1.0000 </r>
       <r>    6.0773    1.0000 </r>
       <r>    6.4470    1.0000 </r>
       <r>    6.6295    1.0000 </r>
       <r>    6.7000    1.0000 </r>
       <r>    6.8899    1.0000 </r>
       <r>    6.9600    1.0000 </r>
       <r>    7.1775    1.0000 </r>
       <r>    7.5383    1.0000 </r>
       <r>    7.6879    1.0000 </r>
       <r>    7.7855    1.0000 </r>
       <r>    8.3263    1.0000 </r>
       <r>    8.5865    1.0000 </r>
       <r>    8.7497    1.0000 </r>
       <r>    8.8046    1.0000 </r>
       <r>    8.9425    1.0000 </r>
       <r>    9.0736    1.0013 </r>
       <r>    9.2654    1.0271 </r>
       <r>    9.3493    1.0323 </r>
       <r>    9.8378   -0.0334 </r>
       <r>   10.5049   -0.0000 </r>
       <r>   10.6079   -0.0000 </r>
       <r>   10.8018   -0.0000 </r>
       <r>   11.0265   -0.0000 </r>
       <r>   11.2476   -0.0000 </r>
       <r>   11.3811   -0.0000 </r>
       <r>   11.4870   -0.0000 </r>
       <r>   11.5960   -0.0000 </r>
       <r>   11.7062   -0.0000 </r>
       <r>   11.8234   -0.0000 </r>
       <r>   11.9451   -0.0000 </r>
       <r>   12.1033   -0.0000 </r>
       <r>   12.1478   -0.0000 </r>
       <r>   12.2958   -0.0000 </r>
       <r>   12.3655   -0.0000 </r>
       <r>   12.5500   -0.0000 </r>
       <r>   12.6609   -0.0000 </r>
       <r>   12.9360   -0.0000 </r>
       <r>   13.2911   -0.0000 </r>
       <r>   13.4828   -0.0000 </r>
       <r>   13.6285   -0.0000 </r>
      </set>
      <set comment="kpoint 116">
       <r>   -2.3341    1.0000 </r>
       <r>   -1.4416    1.0000 </r>
       <r>   -0.2582    1.0000 </r>
       <r>   -0.0482    1.0000 </r>
       <r>    0.2896    1.0000 </r>
       <r>    0.4616    1.0000 </r>
       <r>    0.6100    1.0000 </r>
       <r>    0.7868    1.0000 </r>
       <r>    1.5929    1.0000 </r>
       <r>    1.8459    1.0000 </r>
       <r>    2.2352    1.0000 </r>
       <r>    2.8282    1.0000 </r>
       <r>    3.1255    1.0000 </r>
       <r>    3.3206    1.0000 </r>
       <r>    3.4988    1.0000 </r>
       <r>    3.6500    1.0000 </r>
       <r>    3.9034    1.0000 </r>
       <r>    4.1581    1.0000 </r>
       <r>    5.1011    1.0000 </r>
       <r>    5.4022    1.0000 </r>
       <r>    5.6861    1.0000 </r>
       <r>    5.7709    1.0000 </r>
       <r>    5.8373    1.0000 </r>
       <r>    5.9452    1.0000 </r>
       <r>    6.1782    1.0000 </r>
       <r>    6.3262    1.0000 </r>
       <r>    6.4355    1.0000 </r>
       <r>    6.6102    1.0000 </r>
       <r>    6.8566    1.0000 </r>
       <r>    7.0667    1.0000 </r>
       <r>    7.2327    1.0000 </r>
       <r>    7.3492    1.0000 </r>
       <r>    7.5530    1.0000 </r>
       <r>    7.7019    1.0000 </r>
       <r>    8.4447    1.0000 </r>
       <r>    8.5209    1.0000 </r>
       <r>    8.7306    1.0000 </r>
       <r>    8.9139    1.0000 </r>
       <r>    8.9563    1.0001 </r>
       <r>    9.0910    1.0019 </r>
       <r>    9.2079    1.0144 </r>
       <r>    9.3811    1.0168 </r>
       <r>    9.7705   -0.0264 </r>
       <r>   10.4752   -0.0000 </r>
       <r>   10.6569   -0.0000 </r>
       <r>   10.8015   -0.0000 </r>
       <r>   11.0718   -0.0000 </r>
       <r>   11.2338   -0.0000 </r>
       <r>   11.3707   -0.0000 </r>
       <r>   11.5524   -0.0000 </r>
       <r>   11.6371   -0.0000 </r>
       <r>   11.8243   -0.0000 </r>
       <r>   11.9442   -0.0000 </r>
       <r>   12.0462   -0.0000 </r>
       <r>   12.1659   -0.0000 </r>
       <r>   12.2178   -0.0000 </r>
       <r>   12.2992   -0.0000 </r>
       <r>   12.3902   -0.0000 </r>
       <r>   12.5179   -0.0000 </r>
       <r>   12.5847   -0.0000 </r>
       <r>   12.8168   -0.0000 </r>
       <r>   13.2271   -0.0000 </r>
       <r>   13.5365   -0.0000 </r>
       <r>   13.6150   -0.0000 </r>
      </set>
      <set comment="kpoint 117">
       <r>   -1.9961    1.0000 </r>
       <r>   -1.5881    1.0000 </r>
       <r>   -1.0150    1.0000 </r>
       <r>   -0.3588    1.0000 </r>
       <r>   -0.0683    1.0000 </r>
       <r>    0.8457    1.0000 </r>
       <r>    1.2008    1.0000 </r>
       <r>    1.3916    1.0000 </r>
       <r>    1.6434    1.0000 </r>
       <r>    1.9134    1.0000 </r>
       <r>    2.0711    1.0000 </r>
       <r>    2.9660    1.0000 </r>
       <r>    3.3711    1.0000 </r>
       <r>    3.6266    1.0000 </r>
       <r>    3.9614    1.0000 </r>
       <r>    4.1420    1.0000 </r>
       <r>    4.2632    1.0000 </r>
       <r>    4.4014    1.0000 </r>
       <r>    4.6348    1.0000 </r>
       <r>    4.7353    1.0000 </r>
       <r>    4.9266    1.0000 </r>
       <r>    5.0355    1.0000 </r>
       <r>    5.1893    1.0000 </r>
       <r>    5.3263    1.0000 </r>
       <r>    5.4857    1.0000 </r>
       <r>    6.2542    1.0000 </r>
       <r>    6.3009    1.0000 </r>
       <r>    6.4442    1.0000 </r>
       <r>    6.6914    1.0000 </r>
       <r>    7.0333    1.0000 </r>
       <r>    7.1880    1.0000 </r>
       <r>    7.5545    1.0000 </r>
       <r>    7.7200    1.0000 </r>
       <r>    8.3073    1.0000 </r>
       <r>    8.4552    1.0000 </r>
       <r>    8.6858    1.0000 </r>
       <r>    8.9177    1.0000 </r>
       <r>    9.1659    1.0077 </r>
       <r>    9.5280    0.6649 </r>
       <r>    9.7149    0.0285 </r>
       <r>    9.8359   -0.0337 </r>
       <r>   10.0357   -0.0023 </r>
       <r>   10.1765   -0.0001 </r>
       <r>   10.2384   -0.0000 </r>
       <r>   10.4084   -0.0000 </r>
       <r>   10.5498   -0.0000 </r>
       <r>   10.7278   -0.0000 </r>
       <r>   10.8128   -0.0000 </r>
       <r>   11.1048   -0.0000 </r>
       <r>   11.2979   -0.0000 </r>
       <r>   11.4925   -0.0000 </r>
       <r>   11.7323   -0.0000 </r>
       <r>   11.8965   -0.0000 </r>
       <r>   12.1448   -0.0000 </r>
       <r>   12.2234   -0.0000 </r>
       <r>   12.3027   -0.0000 </r>
       <r>   12.4553   -0.0000 </r>
       <r>   12.5426   -0.0000 </r>
       <r>   12.8112   -0.0000 </r>
       <r>   12.9152   -0.0000 </r>
       <r>   13.6005   -0.0000 </r>
       <r>   13.8204   -0.0000 </r>
       <r>   13.9177   -0.0000 </r>
       <r>   14.0027   -0.0000 </r>
      </set>
      <set comment="kpoint 118">
       <r>   -2.0081    1.0000 </r>
       <r>   -1.5588    1.0000 </r>
       <r>   -1.0215    1.0000 </r>
       <r>   -0.3788    1.0000 </r>
       <r>   -0.0970    1.0000 </r>
       <r>    1.0108    1.0000 </r>
       <r>    1.1609    1.0000 </r>
       <r>    1.2745    1.0000 </r>
       <r>    1.6026    1.0000 </r>
       <r>    1.9589    1.0000 </r>
       <r>    2.1288    1.0000 </r>
       <r>    2.9574    1.0000 </r>
       <r>    3.3858    1.0000 </r>
       <r>    3.4604    1.0000 </r>
       <r>    4.0565    1.0000 </r>
       <r>    4.2890    1.0000 </r>
       <r>    4.3066    1.0000 </r>
       <r>    4.4123    1.0000 </r>
       <r>    4.5618    1.0000 </r>
       <r>    4.6927    1.0000 </r>
       <r>    4.8925    1.0000 </r>
       <r>    5.0373    1.0000 </r>
       <r>    5.1400    1.0000 </r>
       <r>    5.3457    1.0000 </r>
       <r>    5.4418    1.0000 </r>
       <r>    6.2231    1.0000 </r>
       <r>    6.3231    1.0000 </r>
       <r>    6.5629    1.0000 </r>
       <r>    6.6220    1.0000 </r>
       <r>    6.9980    1.0000 </r>
       <r>    7.2235    1.0000 </r>
       <r>    7.6084    1.0000 </r>
       <r>    7.6946    1.0000 </r>
       <r>    8.3181    1.0000 </r>
       <r>    8.5038    1.0000 </r>
       <r>    8.6774    1.0000 </r>
       <r>    8.8145    1.0000 </r>
       <r>    9.1579    1.0068 </r>
       <r>    9.5577    0.5429 </r>
       <r>    9.6638    0.1413 </r>
       <r>    9.8553   -0.0303 </r>
       <r>    9.9643   -0.0085 </r>
       <r>   10.0976   -0.0006 </r>
       <r>   10.2507   -0.0000 </r>
       <r>   10.4408   -0.0000 </r>
       <r>   10.6421   -0.0000 </r>
       <r>   10.7851   -0.0000 </r>
       <r>   10.9954   -0.0000 </r>
       <r>   11.1866   -0.0000 </r>
       <r>   11.3354   -0.0000 </r>
       <r>   11.4525   -0.0000 </r>
       <r>   11.6772   -0.0000 </r>
       <r>   11.8610   -0.0000 </r>
       <r>   12.0904   -0.0000 </r>
       <r>   12.2088   -0.0000 </r>
       <r>   12.3021   -0.0000 </r>
       <r>   12.3811   -0.0000 </r>
       <r>   12.5031   -0.0000 </r>
       <r>   12.6563   -0.0000 </r>
       <r>   12.9109   -0.0000 </r>
       <r>   13.6119   -0.0000 </r>
       <r>   13.8057   -0.0000 </r>
       <r>   13.9369   -0.0000 </r>
       <r>   14.0186   -0.0000 </r>
      </set>
      <set comment="kpoint 119">
       <r>   -1.9851    1.0000 </r>
       <r>   -1.5823    1.0000 </r>
       <r>   -1.0614    1.0000 </r>
       <r>   -0.4038    1.0000 </r>
       <r>    0.0351    1.0000 </r>
       <r>    0.9098    1.0000 </r>
       <r>    1.1516    1.0000 </r>
       <r>    1.3191    1.0000 </r>
       <r>    1.5382    1.0000 </r>
       <r>    1.9940    1.0000 </r>
       <r>    2.1465    1.0000 </r>
       <r>    3.0839    1.0000 </r>
       <r>    3.3175    1.0000 </r>
       <r>    3.6308    1.0000 </r>
       <r>    3.9348    1.0000 </r>
       <r>    4.0502    1.0000 </r>
       <r>    4.3706    1.0000 </r>
       <r>    4.4794    1.0000 </r>
       <r>    4.5122    1.0000 </r>
       <r>    4.6875    1.0000 </r>
       <r>    4.8015    1.0000 </r>
       <r>    4.9043    1.0000 </r>
       <r>    5.1541    1.0000 </r>
       <r>    5.4568    1.0000 </r>
       <r>    5.5286    1.0000 </r>
       <r>    6.2826    1.0000 </r>
       <r>    6.3465    1.0000 </r>
       <r>    6.5325    1.0000 </r>
       <r>    6.8045    1.0000 </r>
       <r>    6.9657    1.0000 </r>
       <r>    7.2393    1.0000 </r>
       <r>    7.4971    1.0000 </r>
       <r>    7.6923    1.0000 </r>
       <r>    8.2243    1.0000 </r>
       <r>    8.5595    1.0000 </r>
       <r>    8.7132    1.0000 </r>
       <r>    8.8444    1.0000 </r>
       <r>    9.2005    1.0131 </r>
       <r>    9.5302    0.6562 </r>
       <r>    9.7414   -0.0054 </r>
       <r>    9.8868   -0.0233 </r>
       <r>   10.0323   -0.0025 </r>
       <r>   10.1328   -0.0002 </r>
       <r>   10.1535   -0.0001 </r>
       <r>   10.3801   -0.0000 </r>
       <r>   10.4908   -0.0000 </r>
       <r>   10.6965   -0.0000 </r>
       <r>   10.9528   -0.0000 </r>
       <r>   11.1592   -0.0000 </r>
       <r>   11.2402   -0.0000 </r>
       <r>   11.4571   -0.0000 </r>
       <r>   11.7233   -0.0000 </r>
       <r>   11.9393   -0.0000 </r>
       <r>   12.1490   -0.0000 </r>
       <r>   12.2384   -0.0000 </r>
       <r>   12.3602   -0.0000 </r>
       <r>   12.4962   -0.0000 </r>
       <r>   12.5931   -0.0000 </r>
       <r>   12.6466   -0.0000 </r>
       <r>   12.7306   -0.0000 </r>
       <r>   13.6419   -0.0000 </r>
       <r>   13.8015   -0.0000 </r>
       <r>   13.8954   -0.0000 </r>
       <r>   14.0298   -0.0000 </r>
      </set>
      <set comment="kpoint 120">
       <r>   -1.9780    1.0000 </r>
       <r>   -1.5923    1.0000 </r>
       <r>   -1.0462    1.0000 </r>
       <r>   -0.3953    1.0000 </r>
       <r>   -0.0355    1.0000 </r>
       <r>    0.7997    1.0000 </r>
       <r>    1.3084    1.0000 </r>
       <r>    1.3799    1.0000 </r>
       <r>    1.6391    1.0000 </r>
       <r>    1.9509    1.0000 </r>
       <r>    2.1171    1.0000 </r>
       <r>    3.0749    1.0000 </r>
       <r>    3.2522    1.0000 </r>
       <r>    3.5403    1.0000 </r>
       <r>    3.9089    1.0000 </r>
       <r>    4.0607    1.0000 </r>
       <r>    4.2190    1.0000 </r>
       <r>    4.3898    1.0000 </r>
       <r>    4.5988    1.0000 </r>
       <r>    4.7684    1.0000 </r>
       <r>    4.8901    1.0000 </r>
       <r>    5.0213    1.0000 </r>
       <r>    5.2643    1.0000 </r>
       <r>    5.4104    1.0000 </r>
       <r>    5.5116    1.0000 </r>
       <r>    6.1348    1.0000 </r>
       <r>    6.2790    1.0000 </r>
       <r>    6.5473    1.0000 </r>
       <r>    6.8374    1.0000 </r>
       <r>    7.0410    1.0000 </r>
       <r>    7.2624    1.0000 </r>
       <r>    7.4825    1.0000 </r>
       <r>    7.8169    1.0000 </r>
       <r>    8.3258    1.0000 </r>
       <r>    8.4495    1.0000 </r>
       <r>    8.5541    1.0000 </r>
       <r>    8.8423    1.0000 </r>
       <r>    9.2546    1.0246 </r>
       <r>    9.4659    0.8756 </r>
       <r>    9.6578    0.1589 </r>
       <r>    9.8618   -0.0290 </r>
       <r>    9.9909   -0.0054 </r>
       <r>   10.1601   -0.0001 </r>
       <r>   10.2883   -0.0000 </r>
       <r>   10.3522   -0.0000 </r>
       <r>   10.5218   -0.0000 </r>
       <r>   10.8370   -0.0000 </r>
       <r>   11.0337   -0.0000 </r>
       <r>   11.1701   -0.0000 </r>
       <r>   11.2659   -0.0000 </r>
       <r>   11.4639   -0.0000 </r>
       <r>   11.6674   -0.0000 </r>
       <r>   11.8328   -0.0000 </r>
       <r>   12.1558   -0.0000 </r>
       <r>   12.2374   -0.0000 </r>
       <r>   12.3290   -0.0000 </r>
       <r>   12.4382   -0.0000 </r>
       <r>   12.4964   -0.0000 </r>
       <r>   12.6833   -0.0000 </r>
       <r>   12.9279   -0.0000 </r>
       <r>   13.5446   -0.0000 </r>
       <r>   13.7031   -0.0000 </r>
       <r>   13.8211   -0.0000 </r>
       <r>   14.0777   -0.0000 </r>
      </set>
      <set comment="kpoint 121">
       <r>   -1.9880    1.0000 </r>
       <r>   -1.5969    1.0000 </r>
       <r>   -1.0223    1.0000 </r>
       <r>   -0.3458    1.0000 </r>
       <r>   -0.0778    1.0000 </r>
       <r>    0.7973    1.0000 </r>
       <r>    1.2098    1.0000 </r>
       <r>    1.5193    1.0000 </r>
       <r>    1.6226    1.0000 </r>
       <r>    1.9071    1.0000 </r>
       <r>    2.0493    1.0000 </r>
       <r>    2.9274    1.0000 </r>
       <r>    3.4080    1.0000 </r>
       <r>    3.6076    1.0000 </r>
       <r>    3.9043    1.0000 </r>
       <r>    4.1053    1.0000 </r>
       <r>    4.2452    1.0000 </r>
       <r>    4.4662    1.0000 </r>
       <r>    4.5415    1.0000 </r>
       <r>    4.7895    1.0000 </r>
       <r>    4.9412    1.0000 </r>
       <r>    5.0844    1.0000 </r>
       <r>    5.2097    1.0000 </r>
       <r>    5.3730    1.0000 </r>
       <r>    5.4221    1.0000 </r>
       <r>    6.2302    1.0000 </r>
       <r>    6.3577    1.0000 </r>
       <r>    6.4341    1.0000 </r>
       <r>    6.6951    1.0000 </r>
       <r>    7.0903    1.0000 </r>
       <r>    7.1622    1.0000 </r>
       <r>    7.4999    1.0000 </r>
       <r>    7.7014    1.0000 </r>
       <r>    8.2965    1.0000 </r>
       <r>    8.4307    1.0000 </r>
       <r>    8.8366    1.0000 </r>
       <r>    8.9435    1.0000 </r>
       <r>    9.0655    1.0011 </r>
       <r>    9.4477    0.9204 </r>
       <r>    9.7252    0.0134 </r>
       <r>    9.8412   -0.0329 </r>
       <r>    9.9663   -0.0082 </r>
       <r>   10.2298   -0.0000 </r>
       <r>   10.3409   -0.0000 </r>
       <r>   10.4751   -0.0000 </r>
       <r>   10.5310   -0.0000 </r>
       <r>   10.7011   -0.0000 </r>
       <r>   10.8780   -0.0000 </r>
       <r>   11.1445   -0.0000 </r>
       <r>   11.2525   -0.0000 </r>
       <r>   11.4698   -0.0000 </r>
       <r>   11.6427   -0.0000 </r>
       <r>   11.9411   -0.0000 </r>
       <r>   12.0205   -0.0000 </r>
       <r>   12.1764   -0.0000 </r>
       <r>   12.3388   -0.0000 </r>
       <r>   12.4491   -0.0000 </r>
       <r>   12.6133   -0.0000 </r>
       <r>   12.8045   -0.0000 </r>
       <r>   12.8465   -0.0000 </r>
       <r>   13.5678   -0.0000 </r>
       <r>   13.7449   -0.0000 </r>
       <r>   13.8981   -0.0000 </r>
       <r>   14.0745   -0.0000 </r>
      </set>
      <set comment="kpoint 122">
       <r>   -1.9875    1.0000 </r>
       <r>   -1.5824    1.0000 </r>
       <r>   -1.0550    1.0000 </r>
       <r>   -0.3006    1.0000 </r>
       <r>   -0.1492    1.0000 </r>
       <r>    1.0294    1.0000 </r>
       <r>    1.1737    1.0000 </r>
       <r>    1.3879    1.0000 </r>
       <r>    1.6139    1.0000 </r>
       <r>    1.7181    1.0000 </r>
       <r>    2.1816    1.0000 </r>
       <r>    3.0202    1.0000 </r>
       <r>    3.4332    1.0000 </r>
       <r>    3.5587    1.0000 </r>
       <r>    3.9139    1.0000 </r>
       <r>    4.2127    1.0000 </r>
       <r>    4.2831    1.0000 </r>
       <r>    4.3875    1.0000 </r>
       <r>    4.5650    1.0000 </r>
       <r>    4.6715    1.0000 </r>
       <r>    4.8397    1.0000 </r>
       <r>    5.0137    1.0000 </r>
       <r>    5.2497    1.0000 </r>
       <r>    5.3031    1.0000 </r>
       <r>    5.5290    1.0000 </r>
       <r>    6.2122    1.0000 </r>
       <r>    6.3781    1.0000 </r>
       <r>    6.5565    1.0000 </r>
       <r>    6.7436    1.0000 </r>
       <r>    7.0378    1.0000 </r>
       <r>    7.1305    1.0000 </r>
       <r>    7.5345    1.0000 </r>
       <r>    7.6786    1.0000 </r>
       <r>    8.3021    1.0000 </r>
       <r>    8.5996    1.0000 </r>
       <r>    8.7095    1.0000 </r>
       <r>    8.9718    1.0001 </r>
       <r>    9.0452    1.0007 </r>
       <r>    9.5270    0.6691 </r>
       <r>    9.6448    0.1997 </r>
       <r>    9.7827   -0.0312 </r>
       <r>    9.9502   -0.0105 </r>
       <r>   10.0852   -0.0008 </r>
       <r>   10.2765   -0.0000 </r>
       <r>   10.4148   -0.0000 </r>
       <r>   10.6044   -0.0000 </r>
       <r>   10.7614   -0.0000 </r>
       <r>   10.9113   -0.0000 </r>
       <r>   11.1814   -0.0000 </r>
       <r>   11.3151   -0.0000 </r>
       <r>   11.4163   -0.0000 </r>
       <r>   11.8404   -0.0000 </r>
       <r>   11.9684   -0.0000 </r>
       <r>   12.0888   -0.0000 </r>
       <r>   12.2090   -0.0000 </r>
       <r>   12.3064   -0.0000 </r>
       <r>   12.4393   -0.0000 </r>
       <r>   12.4808   -0.0000 </r>
       <r>   12.7496   -0.0000 </r>
       <r>   12.8314   -0.0000 </r>
       <r>   13.5522   -0.0000 </r>
       <r>   13.7311   -0.0000 </r>
       <r>   13.8776   -0.0000 </r>
       <r>   14.0209   -0.0000 </r>
      </set>
      <set comment="kpoint 123">
       <r>   -1.9888    1.0000 </r>
       <r>   -1.5769    1.0000 </r>
       <r>   -1.0122    1.0000 </r>
       <r>   -0.4739    1.0000 </r>
       <r>    0.0017    1.0000 </r>
       <r>    0.7655    1.0000 </r>
       <r>    1.2358    1.0000 </r>
       <r>    1.4617    1.0000 </r>
       <r>    1.6226    1.0000 </r>
       <r>    1.9837    1.0000 </r>
       <r>    2.2211    1.0000 </r>
       <r>    2.9854    1.0000 </r>
       <r>    3.2509    1.0000 </r>
       <r>    3.7188    1.0000 </r>
       <r>    3.8083    1.0000 </r>
       <r>    4.0479    1.0000 </r>
       <r>    4.1426    1.0000 </r>
       <r>    4.3175    1.0000 </r>
       <r>    4.6071    1.0000 </r>
       <r>    4.7100    1.0000 </r>
       <r>    4.9532    1.0000 </r>
       <r>    5.0043    1.0000 </r>
       <r>    5.2607    1.0000 </r>
       <r>    5.4239    1.0000 </r>
       <r>    5.5348    1.0000 </r>
       <r>    6.1922    1.0000 </r>
       <r>    6.3848    1.0000 </r>
       <r>    6.4748    1.0000 </r>
       <r>    6.8075    1.0000 </r>
       <r>    6.9618    1.0000 </r>
       <r>    7.2736    1.0000 </r>
       <r>    7.5397    1.0000 </r>
       <r>    7.7935    1.0000 </r>
       <r>    8.1942    1.0000 </r>
       <r>    8.4569    1.0000 </r>
       <r>    8.7301    1.0000 </r>
       <r>    9.0510    1.0008 </r>
       <r>    9.2552    1.0248 </r>
       <r>    9.3977    1.0019 </r>
       <r>    9.5468    0.5887 </r>
       <r>    9.9075   -0.0186 </r>
       <r>    9.9458   -0.0112 </r>
       <r>   10.1156   -0.0004 </r>
       <r>   10.2998   -0.0000 </r>
       <r>   10.3825   -0.0000 </r>
       <r>   10.5632   -0.0000 </r>
       <r>   10.7845   -0.0000 </r>
       <r>   10.9466   -0.0000 </r>
       <r>   11.0851   -0.0000 </r>
       <r>   11.4029   -0.0000 </r>
       <r>   11.4583   -0.0000 </r>
       <r>   11.6430   -0.0000 </r>
       <r>   11.8174   -0.0000 </r>
       <r>   12.0903   -0.0000 </r>
       <r>   12.2395   -0.0000 </r>
       <r>   12.3319   -0.0000 </r>
       <r>   12.4886   -0.0000 </r>
       <r>   12.5326   -0.0000 </r>
       <r>   12.7751   -0.0000 </r>
       <r>   12.8614   -0.0000 </r>
       <r>   13.5224   -0.0000 </r>
       <r>   13.6367   -0.0000 </r>
       <r>   13.7975   -0.0000 </r>
       <r>   14.0025   -0.0000 </r>
      </set>
      <set comment="kpoint 124">
       <r>   -1.9747    1.0000 </r>
       <r>   -1.5833    1.0000 </r>
       <r>   -1.0650    1.0000 </r>
       <r>   -0.3948    1.0000 </r>
       <r>   -0.0477    1.0000 </r>
       <r>    0.7921    1.0000 </r>
       <r>    1.2350    1.0000 </r>
       <r>    1.4420    1.0000 </r>
       <r>    1.7350    1.0000 </r>
       <r>    1.9506    1.0000 </r>
       <r>    2.1417    1.0000 </r>
       <r>    2.9468    1.0000 </r>
       <r>    3.2975    1.0000 </r>
       <r>    3.7057    1.0000 </r>
       <r>    3.7626    1.0000 </r>
       <r>    4.0939    1.0000 </r>
       <r>    4.1600    1.0000 </r>
       <r>    4.3724    1.0000 </r>
       <r>    4.6208    1.0000 </r>
       <r>    4.7020    1.0000 </r>
       <r>    4.8701    1.0000 </r>
       <r>    4.9903    1.0000 </r>
       <r>    5.2763    1.0000 </r>
       <r>    5.3821    1.0000 </r>
       <r>    5.5346    1.0000 </r>
       <r>    6.2487    1.0000 </r>
       <r>    6.2866    1.0000 </r>
       <r>    6.5510    1.0000 </r>
       <r>    6.8179    1.0000 </r>
       <r>    6.9923    1.0000 </r>
       <r>    7.3150    1.0000 </r>
       <r>    7.5401    1.0000 </r>
       <r>    7.7251    1.0000 </r>
       <r>    8.3487    1.0000 </r>
       <r>    8.4256    1.0000 </r>
       <r>    8.6755    1.0000 </r>
       <r>    8.9403    1.0000 </r>
       <r>    9.2920    1.0325 </r>
       <r>    9.4432    0.9302 </r>
       <r>    9.6039    0.3501 </r>
       <r>    9.8258   -0.0349 </r>
       <r>    9.9117   -0.0177 </r>
       <r>   10.1445   -0.0002 </r>
       <r>   10.3151   -0.0000 </r>
       <r>   10.4221   -0.0000 </r>
       <r>   10.5538   -0.0000 </r>
       <r>   10.7258   -0.0000 </r>
       <r>   10.9694   -0.0000 </r>
       <r>   11.1332   -0.0000 </r>
       <r>   11.2594   -0.0000 </r>
       <r>   11.4541   -0.0000 </r>
       <r>   11.7175   -0.0000 </r>
       <r>   11.8293   -0.0000 </r>
       <r>   12.0973   -0.0000 </r>
       <r>   12.2213   -0.0000 </r>
       <r>   12.2839   -0.0000 </r>
       <r>   12.4584   -0.0000 </r>
       <r>   12.5810   -0.0000 </r>
       <r>   12.7156   -0.0000 </r>
       <r>   12.8779   -0.0000 </r>
       <r>   13.6410   -0.0000 </r>
       <r>   13.7054   -0.0000 </r>
       <r>   13.8723   -0.0000 </r>
       <r>   13.9961   -0.0000 </r>
      </set>
      <set comment="kpoint 125">
       <r>   -1.9734    1.0000 </r>
       <r>   -1.5829    1.0000 </r>
       <r>   -1.0829    1.0000 </r>
       <r>   -0.4005    1.0000 </r>
       <r>    0.0081    1.0000 </r>
       <r>    0.8591    1.0000 </r>
       <r>    1.1506    1.0000 </r>
       <r>    1.4401    1.0000 </r>
       <r>    1.6863    1.0000 </r>
       <r>    1.8055    1.0000 </r>
       <r>    2.2507    1.0000 </r>
       <r>    2.9732    1.0000 </r>
       <r>    3.3736    1.0000 </r>
       <r>    3.6930    1.0000 </r>
       <r>    3.9340    1.0000 </r>
       <r>    3.9755    1.0000 </r>
       <r>    4.2189    1.0000 </r>
       <r>    4.4082    1.0000 </r>
       <r>    4.5209    1.0000 </r>
       <r>    4.6600    1.0000 </r>
       <r>    4.8924    1.0000 </r>
       <r>    4.9511    1.0000 </r>
       <r>    5.1518    1.0000 </r>
       <r>    5.4322    1.0000 </r>
       <r>    5.5340    1.0000 </r>
       <r>    6.2692    1.0000 </r>
       <r>    6.3974    1.0000 </r>
       <r>    6.5681    1.0000 </r>
       <r>    6.8200    1.0000 </r>
       <r>    6.9975    1.0000 </r>
       <r>    7.2388    1.0000 </r>
       <r>    7.4742    1.0000 </r>
       <r>    7.6747    1.0000 </r>
       <r>    8.2883    1.0000 </r>
       <r>    8.5627    1.0000 </r>
       <r>    8.7074    1.0000 </r>
       <r>    8.9589    1.0001 </r>
       <r>    9.3194    1.0354 </r>
       <r>    9.4818    0.8294 </r>
       <r>    9.7168    0.0255 </r>
       <r>    9.8122   -0.0355 </r>
       <r>    9.9312   -0.0138 </r>
       <r>   10.1240   -0.0003 </r>
       <r>   10.2474   -0.0000 </r>
       <r>   10.3523   -0.0000 </r>
       <r>   10.4629   -0.0000 </r>
       <r>   10.6872   -0.0000 </r>
       <r>   10.9131   -0.0000 </r>
       <r>   11.1346   -0.0000 </r>
       <r>   11.2150   -0.0000 </r>
       <r>   11.4219   -0.0000 </r>
       <r>   11.7468   -0.0000 </r>
       <r>   11.9138   -0.0000 </r>
       <r>   12.1449   -0.0000 </r>
       <r>   12.1730   -0.0000 </r>
       <r>   12.3541   -0.0000 </r>
       <r>   12.4611   -0.0000 </r>
       <r>   12.5657   -0.0000 </r>
       <r>   12.7387   -0.0000 </r>
       <r>   12.8452   -0.0000 </r>
       <r>   13.6213   -0.0000 </r>
       <r>   13.7530   -0.0000 </r>
       <r>   13.9480   -0.0000 </r>
       <r>   14.0408   -0.0000 </r>
      </set>
      <set comment="kpoint 126">
       <r>   -2.0229    1.0000 </r>
       <r>   -1.5092    1.0000 </r>
       <r>   -1.0654    1.0000 </r>
       <r>   -0.3747    1.0000 </r>
       <r>   -0.0942    1.0000 </r>
       <r>    0.9752    1.0000 </r>
       <r>    1.0554    1.0000 </r>
       <r>    1.4503    1.0000 </r>
       <r>    1.7083    1.0000 </r>
       <r>    1.9047    1.0000 </r>
       <r>    2.0072    1.0000 </r>
       <r>    2.9845    1.0000 </r>
       <r>    3.4264    1.0000 </r>
       <r>    3.6159    1.0000 </r>
       <r>    3.9176    1.0000 </r>
       <r>    4.1865    1.0000 </r>
       <r>    4.2718    1.0000 </r>
       <r>    4.3676    1.0000 </r>
       <r>    4.4986    1.0000 </r>
       <r>    4.8574    1.0000 </r>
       <r>    4.8896    1.0000 </r>
       <r>    5.0382    1.0000 </r>
       <r>    5.1786    1.0000 </r>
       <r>    5.3178    1.0000 </r>
       <r>    5.4898    1.0000 </r>
       <r>    6.1943    1.0000 </r>
       <r>    6.2719    1.0000 </r>
       <r>    6.5479    1.0000 </r>
       <r>    6.6882    1.0000 </r>
       <r>    7.0546    1.0000 </r>
       <r>    7.1933    1.0000 </r>
       <r>    7.5855    1.0000 </r>
       <r>    7.7145    1.0000 </r>
       <r>    8.3080    1.0000 </r>
       <r>    8.3824    1.0000 </r>
       <r>    8.7088    1.0000 </r>
       <r>    8.8660    1.0000 </r>
       <r>    9.1904    1.0113 </r>
       <r>    9.5463    0.5908 </r>
       <r>    9.7447   -0.0086 </r>
       <r>    9.8263   -0.0348 </r>
       <r>    9.9779   -0.0068 </r>
       <r>   10.1431   -0.0002 </r>
       <r>   10.3278   -0.0000 </r>
       <r>   10.4016   -0.0000 </r>
       <r>   10.6064   -0.0000 </r>
       <r>   10.7851   -0.0000 </r>
       <r>   10.9519   -0.0000 </r>
       <r>   11.1104   -0.0000 </r>
       <r>   11.2122   -0.0000 </r>
       <r>   11.4664   -0.0000 </r>
       <r>   11.7742   -0.0000 </r>
       <r>   11.8718   -0.0000 </r>
       <r>   12.0004   -0.0000 </r>
       <r>   12.2213   -0.0000 </r>
       <r>   12.2610   -0.0000 </r>
       <r>   12.4044   -0.0000 </r>
       <r>   12.6411   -0.0000 </r>
       <r>   12.7374   -0.0000 </r>
       <r>   12.8522   -0.0000 </r>
       <r>   13.6280   -0.0000 </r>
       <r>   13.7949   -0.0000 </r>
       <r>   13.8675   -0.0000 </r>
       <r>   14.1040   -0.0000 </r>
      </set>
      <set comment="kpoint 127">
       <r>   -2.0155    1.0000 </r>
       <r>   -1.5288    1.0000 </r>
       <r>   -1.0304    1.0000 </r>
       <r>   -0.4738    1.0000 </r>
       <r>    0.0232    1.0000 </r>
       <r>    0.7828    1.0000 </r>
       <r>    1.2346    1.0000 </r>
       <r>    1.3920    1.0000 </r>
       <r>    1.5797    1.0000 </r>
       <r>    1.9582    1.0000 </r>
       <r>    2.2493    1.0000 </r>
       <r>    3.0177    1.0000 </r>
       <r>    3.2895    1.0000 </r>
       <r>    3.6157    1.0000 </r>
       <r>    3.9150    1.0000 </r>
       <r>    4.0531    1.0000 </r>
       <r>    4.2169    1.0000 </r>
       <r>    4.4334    1.0000 </r>
       <r>    4.5263    1.0000 </r>
       <r>    4.6898    1.0000 </r>
       <r>    4.9010    1.0000 </r>
       <r>    4.9553    1.0000 </r>
       <r>    5.3037    1.0000 </r>
       <r>    5.4187    1.0000 </r>
       <r>    5.5972    1.0000 </r>
       <r>    6.1534    1.0000 </r>
       <r>    6.3072    1.0000 </r>
       <r>    6.5268    1.0000 </r>
       <r>    6.7541    1.0000 </r>
       <r>    6.9779    1.0000 </r>
       <r>    7.3080    1.0000 </r>
       <r>    7.5367    1.0000 </r>
       <r>    7.7949    1.0000 </r>
       <r>    8.1329    1.0000 </r>
       <r>    8.4413    1.0000 </r>
       <r>    8.6368    1.0000 </r>
       <r>    8.9178    1.0000 </r>
       <r>    9.2741    1.0290 </r>
       <r>    9.4697    0.8650 </r>
       <r>    9.6235    0.2746 </r>
       <r>    9.8659   -0.0281 </r>
       <r>   10.0434   -0.0020 </r>
       <r>   10.1126   -0.0004 </r>
       <r>   10.2874   -0.0000 </r>
       <r>   10.4183   -0.0000 </r>
       <r>   10.6125   -0.0000 </r>
       <r>   10.7688   -0.0000 </r>
       <r>   10.9639   -0.0000 </r>
       <r>   11.1681   -0.0000 </r>
       <r>   11.3456   -0.0000 </r>
       <r>   11.4663   -0.0000 </r>
       <r>   11.6042   -0.0000 </r>
       <r>   11.8317   -0.0000 </r>
       <r>   12.0748   -0.0000 </r>
       <r>   12.2962   -0.0000 </r>
       <r>   12.3496   -0.0000 </r>
       <r>   12.4946   -0.0000 </r>
       <r>   12.5592   -0.0000 </r>
       <r>   12.7323   -0.0000 </r>
       <r>   12.8035   -0.0000 </r>
       <r>   13.5511   -0.0000 </r>
       <r>   13.6865   -0.0000 </r>
       <r>   13.8734   -0.0000 </r>
       <r>   13.9168   -0.0000 </r>
      </set>
      <set comment="kpoint 128">
       <r>   -2.0116    1.0000 </r>
       <r>   -1.5203    1.0000 </r>
       <r>   -1.0978    1.0000 </r>
       <r>   -0.3012    1.0000 </r>
       <r>   -0.1350    1.0000 </r>
       <r>    1.0456    1.0000 </r>
       <r>    1.0990    1.0000 </r>
       <r>    1.3908    1.0000 </r>
       <r>    1.6074    1.0000 </r>
       <r>    1.7726    1.0000 </r>
       <r>    2.1618    1.0000 </r>
       <r>    3.0252    1.0000 </r>
       <r>    3.4885    1.0000 </r>
       <r>    3.6080    1.0000 </r>
       <r>    3.9270    1.0000 </r>
       <r>    4.1609    1.0000 </r>
       <r>    4.2350    1.0000 </r>
       <r>    4.3932    1.0000 </r>
       <r>    4.5062    1.0000 </r>
       <r>    4.6961    1.0000 </r>
       <r>    4.8510    1.0000 </r>
       <r>    5.1280    1.0000 </r>
       <r>    5.1931    1.0000 </r>
       <r>    5.2458    1.0000 </r>
       <r>    5.4766    1.0000 </r>
       <r>    6.2693    1.0000 </r>
       <r>    6.4769    1.0000 </r>
       <r>    6.5515    1.0000 </r>
       <r>    6.6636    1.0000 </r>
       <r>    7.0129    1.0000 </r>
       <r>    7.2185    1.0000 </r>
       <r>    7.5316    1.0000 </r>
       <r>    7.6021    1.0000 </r>
       <r>    8.2078    1.0000 </r>
       <r>    8.5539    1.0000 </r>
       <r>    8.7101    1.0000 </r>
       <r>    9.0045    1.0003 </r>
       <r>    9.2028    1.0135 </r>
       <r>    9.5412    0.6117 </r>
       <r>    9.6314    0.2457 </r>
       <r>    9.7900   -0.0331 </r>
       <r>    9.9077   -0.0186 </r>
       <r>   10.2079   -0.0000 </r>
       <r>   10.2725   -0.0000 </r>
       <r>   10.3672   -0.0000 </r>
       <r>   10.5933   -0.0000 </r>
       <r>   10.7205   -0.0000 </r>
       <r>   10.8401   -0.0000 </r>
       <r>   11.1474   -0.0000 </r>
       <r>   11.3122   -0.0000 </r>
       <r>   11.5173   -0.0000 </r>
       <r>   11.7980   -0.0000 </r>
       <r>   11.9341   -0.0000 </r>
       <r>   12.0558   -0.0000 </r>
       <r>   12.2757   -0.0000 </r>
       <r>   12.3508   -0.0000 </r>
       <r>   12.4672   -0.0000 </r>
       <r>   12.5523   -0.0000 </r>
       <r>   12.6707   -0.0000 </r>
       <r>   12.7735   -0.0000 </r>
       <r>   13.5300   -0.0000 </r>
       <r>   13.7361   -0.0000 </r>
       <r>   13.9826   -0.0000 </r>
       <r>   14.0808   -0.0000 </r>
      </set>
     </set>
    </set>
   </array>
  </eigenvalues>
  <separator name="orbital magnetization" >
   <v name="MAGDIPOLOUT">      0.00000000      0.00000000      0.00000000</v>
  </separator>
  <dos>
   <i name="efermi">      9.56787195 </i>
   <total>
    <array>
     <dimension dim="1">gridpoints</dimension>
     <dimension dim="2">spin</dimension>
     <field>energy</field>
     <field>total</field>
     <field>integrated</field>
     <set>
      <set comment="spin 1">
       <r>    -4.7055     0.0000     0.0000 </r>
       <r>    -4.6341     0.0000     0.0000 </r>
       <r>    -4.5628     0.0000     0.0000 </r>
       <r>    -4.4914     0.0000     0.0000 </r>
       <r>    -4.4200     0.0000     0.0000 </r>
       <r>    -4.3486    -0.0000    -0.0000 </r>
       <r>    -4.2772    -0.0000    -0.0000 </r>
       <r>    -4.2059    -0.0000    -0.0000 </r>
       <r>    -4.1345    -0.0000    -0.0000 </r>
       <r>    -4.0631    -0.0000    -0.0000 </r>
       <r>    -3.9917    -0.0000    -0.0000 </r>
       <r>    -3.9203    -0.0000    -0.0000 </r>
       <r>    -3.8490    -0.0000    -0.0000 </r>
       <r>    -3.7776    -0.0000    -0.0000 </r>
       <r>    -3.7062    -0.0000    -0.0000 </r>
       <r>    -3.6348    -0.0000    -0.0000 </r>
       <r>    -3.5634    -0.0000    -0.0000 </r>
       <r>    -3.4921    -0.0000    -0.0000 </r>
       <r>    -3.4207    -0.0000    -0.0000 </r>
       <r>    -3.3493    -0.0000    -0.0000 </r>
       <r>    -3.2779    -0.0002    -0.0000 </r>
       <r>    -3.2065    -0.0009    -0.0001 </r>
       <r>    -3.1352    -0.0038    -0.0003 </r>
       <r>    -3.0638    -0.0120    -0.0012 </r>
       <r>    -2.9924    -0.0264    -0.0031 </r>
       <r>    -2.9210    -0.0351    -0.0056 </r>
       <r>    -2.8496    -0.0013    -0.0057 </r>
       <r>    -2.7783     0.1300     0.0036 </r>
       <r>    -2.7069     0.3920     0.0316 </r>
       <r>    -2.6355     0.7491     0.0850 </r>
       <r>    -2.5641     1.1006     0.1636 </r>
       <r>    -2.4927     1.3692     0.2613 </r>
       <r>    -2.4214     1.5921     0.3750 </r>
       <r>    -2.3500     1.8795     0.5091 </r>
       <r>    -2.2786     2.2521     0.6699 </r>
       <r>    -2.2072     2.5709     0.8534 </r>
       <r>    -2.1358     2.7163     1.0473 </r>
       <r>    -2.0645     2.7832     1.2460 </r>
       <r>    -1.9931     2.9048     1.4533 </r>
       <r>    -1.9217     2.9210     1.6618 </r>
       <r>    -1.8503     2.5421     1.8432 </r>
       <r>    -1.7789     1.8665     1.9765 </r>
       <r>    -1.7076     1.4109     2.0772 </r>
       <r>    -1.6362     1.5824     2.1901 </r>
       <r>    -1.5648     2.3248     2.3561 </r>
       <r>    -1.4934     3.2045     2.5848 </r>
       <r>    -1.4220     3.6789     2.8474 </r>
       <r>    -1.3507     3.4802     3.0958 </r>
       <r>    -1.2793     2.9570     3.3069 </r>
       <r>    -1.2079     2.8143     3.5078 </r>
       <r>    -1.1365     3.2748     3.7415 </r>
       <r>    -1.0651     3.8067     4.0133 </r>
       <r>    -0.9938     3.9511     4.2953 </r>
       <r>    -0.9224     3.9489     4.5772 </r>
       <r>    -0.8510     4.1420     4.8728 </r>
       <r>    -0.7796     4.2936     5.1793 </r>
       <r>    -0.7082     4.0784     5.4704 </r>
       <r>    -0.6369     3.7992     5.7416 </r>
       <r>    -0.5655     3.9934     6.0266 </r>
       <r>    -0.4941     4.5916     6.3544 </r>
       <r>    -0.4227     4.9768     6.7096 </r>
       <r>    -0.3513     4.7679     7.0500 </r>
       <r>    -0.2800     4.1720     7.3478 </r>
       <r>    -0.2086     3.5951     7.6044 </r>
       <r>    -0.1372     3.2406     7.8357 </r>
       <r>    -0.0658     3.1747     8.0623 </r>
       <r>     0.0056     3.5284     8.3142 </r>
       <r>     0.0769     4.3820     8.6269 </r>
       <r>     0.1483     5.4426     9.0154 </r>
       <r>     0.2197     6.0576     9.4478 </r>
       <r>     0.2911     5.7858     9.8608 </r>
       <r>     0.3625     4.9213    10.2121 </r>
       <r>     0.4338     4.2189    10.5132 </r>
       <r>     0.5052     4.0914    10.8053 </r>
       <r>     0.5766     4.3139    11.1132 </r>
       <r>     0.6480     4.5180    11.4357 </r>
       <r>     0.7194     4.6583    11.7682 </r>
       <r>     0.7907     4.8798    12.1165 </r>
       <r>     0.8621     5.1783    12.4862 </r>
       <r>     0.9335     5.3729    12.8697 </r>
       <r>     1.0049     5.3269    13.2499 </r>
       <r>     1.0763     5.0755    13.6122 </r>
       <r>     1.1476     4.7627    13.9522 </r>
       <r>     1.2190     4.5560    14.2774 </r>
       <r>     1.2904     4.6157    14.6068 </r>
       <r>     1.3618     5.0324    14.9661 </r>
       <r>     1.4332     5.7498    15.3765 </r>
       <r>     1.5045     6.5194    15.8418 </r>
       <r>     1.5759     6.9371    16.3370 </r>
       <r>     1.6473     6.6981    16.8151 </r>
       <r>     1.7187     5.9274    17.2382 </r>
       <r>     1.7901     5.1227    17.6039 </r>
       <r>     1.8614     4.7144    17.9404 </r>
       <r>     1.9328     4.7781    18.2814 </r>
       <r>     2.0042     5.1531    18.6493 </r>
       <r>     2.0756     5.6907    19.0555 </r>
       <r>     2.1470     6.3111    19.5060 </r>
       <r>     2.2183     6.8838    19.9973 </r>
       <r>     2.2897     7.1689    20.5090 </r>
       <r>     2.3611     6.9553    21.0055 </r>
       <r>     2.4325     6.3087    21.4558 </r>
       <r>     2.5038     5.6606    21.8599 </r>
       <r>     2.5752     5.5128    22.2534 </r>
       <r>     2.6466     5.9626    22.6790 </r>
       <r>     2.7180     6.6270    23.1520 </r>
       <r>     2.7894     7.0925    23.6583 </r>
       <r>     2.8607     7.2627    24.1767 </r>
       <r>     2.9321     7.2354    24.6932 </r>
       <r>     3.0035     7.0823    25.1987 </r>
       <r>     3.0749     6.8260    25.6859 </r>
       <r>     3.1463     6.5172    26.1511 </r>
       <r>     3.2176     6.3035    26.6011 </r>
       <r>     3.2890     6.3456    27.0540 </r>
       <r>     3.3604     6.5766    27.5234 </r>
       <r>     3.4318     6.7429    28.0048 </r>
       <r>     3.5032     6.7948    28.4898 </r>
       <r>     3.5745     6.9038    28.9826 </r>
       <r>     3.6459     7.0375    29.4849 </r>
       <r>     3.7173     7.0029    29.9848 </r>
       <r>     3.7887     6.9472    30.4807 </r>
       <r>     3.8601     7.2842    31.0006 </r>
       <r>     3.9314     8.0241    31.5733 </r>
       <r>     4.0028     8.6103    32.1880 </r>
       <r>     4.0742     8.6161    32.8030 </r>
       <r>     4.1456     8.3091    33.3961 </r>
       <r>     4.2170     8.2364    33.9840 </r>
       <r>     4.2883     8.4086    34.5842 </r>
       <r>     4.3597     8.2678    35.1743 </r>
       <r>     4.4311     7.4756    35.7079 </r>
       <r>     4.5025     6.4039    36.1651 </r>
       <r>     4.5739     5.7356    36.5745 </r>
       <r>     4.6452     5.8124    36.9894 </r>
       <r>     4.7166     6.4966    37.4531 </r>
       <r>     4.7880     7.5057    37.9888 </r>
       <r>     4.8594     8.6530    38.6065 </r>
       <r>     4.9308     9.7057    39.2993 </r>
       <r>     5.0021    10.2261    40.0292 </r>
       <r>     5.0735     9.8594    40.7330 </r>
       <r>     5.1449     8.8257    41.3630 </r>
       <r>     5.2163     7.8804    41.9255 </r>
       <r>     5.2877     7.6067    42.4684 </r>
       <r>     5.3590     7.8822    43.0310 </r>
       <r>     5.4304     8.1875    43.6155 </r>
       <r>     5.5018     8.2730    44.2060 </r>
       <r>     5.5732     8.3090    44.7991 </r>
       <r>     5.6446     8.4416    45.4017 </r>
       <r>     5.7159     8.4487    46.0047 </r>
       <r>     5.7873     8.0406    46.5787 </r>
       <r>     5.8587     7.4054    47.1073 </r>
       <r>     5.9301     7.1239    47.6158 </r>
       <r>     6.0015     7.5315    48.1534 </r>
       <r>     6.0728     8.4431    48.7560 </r>
       <r>     6.1442     9.4076    49.4275 </r>
       <r>     6.2156     9.9758    50.1396 </r>
       <r>     6.2870     9.9436    50.8494 </r>
       <r>     6.3584     9.6004    51.5347 </r>
       <r>     6.4297     9.5197    52.2142 </r>
       <r>     6.5011     9.9335    52.9232 </r>
       <r>     6.5725    10.4878    53.6718 </r>
       <r>     6.6439    10.6578    54.4326 </r>
       <r>     6.7153    10.2314    55.1629 </r>
       <r>     6.7866     9.3713    55.8318 </r>
       <r>     6.8580     8.3962    56.4312 </r>
       <r>     6.9294     7.6315    56.9759 </r>
       <r>     7.0008     7.3079    57.4975 </r>
       <r>     7.0722     7.4033    58.0260 </r>
       <r>     7.1435     7.6889    58.5748 </r>
       <r>     7.2149     8.0239    59.1475 </r>
       <r>     7.2863     8.4426    59.7502 </r>
       <r>     7.3577     8.9513    60.3891 </r>
       <r>     7.4291     9.4363    61.0627 </r>
       <r>     7.5004     9.7446    61.7582 </r>
       <r>     7.5718     9.7475    62.4540 </r>
       <r>     7.6432     9.4040    63.1253 </r>
       <r>     7.7146     8.8169    63.7546 </r>
       <r>     7.7860     8.1924    64.3394 </r>
       <r>     7.8573     7.7696    64.8940 </r>
       <r>     7.9287     7.7652    65.4483 </r>
       <r>     8.0001     8.2626    66.0381 </r>
       <r>     8.0715     9.1129    66.6885 </r>
       <r>     8.1429    10.0105    67.4031 </r>
       <r>     8.2142    10.6904    68.1662 </r>
       <r>     8.2856    11.0293    68.9534 </r>
       <r>     8.3570    11.0242    69.7403 </r>
       <r>     8.4284    10.7897    70.5105 </r>
       <r>     8.4998    10.5166    71.2612 </r>
       <r>     8.5711    10.2837    71.9952 </r>
       <r>     8.6425     9.9896    72.7083 </r>
       <r>     8.7139     9.6136    73.3945 </r>
       <r>     8.7853     9.3365    74.0609 </r>
       <r>     8.8567     9.1868    74.7167 </r>
       <r>     8.9280     8.8801    75.3505 </r>
       <r>     8.9994     8.2979    75.9429 </r>
       <r>     9.0708     7.7463    76.4958 </r>
       <r>     9.1422     7.4855    77.0301 </r>
       <r>     9.2136     7.4681    77.5632 </r>
       <r>     9.2849     7.7156    78.1139 </r>
       <r>     9.3563     8.4501    78.7171 </r>
       <r>     9.4277     9.6719    79.4074 </r>
       <r>     9.4991    10.9480    80.1889 </r>
       <r>     9.5705    11.7984    81.0311 </r>
       <r>     9.6418    12.1498    81.8983 </r>
       <r>     9.7132    12.2027    82.7694 </r>
       <r>     9.7846    11.9470    83.6221 </r>
       <r>     9.8560    11.2384    84.4243 </r>
       <r>     9.9274    10.3443    85.1627 </r>
       <r>     9.9987     9.8744    85.8675 </r>
       <r>    10.0701    10.0950    86.5881 </r>
       <r>    10.1415    10.6556    87.3487 </r>
       <r>    10.2129    10.9865    88.1329 </r>
       <r>    10.2843    10.7738    88.9020 </r>
       <r>    10.3556    10.1141    89.6239 </r>
       <r>    10.4270     9.3885    90.2940 </r>
       <r>    10.4984     9.0251    90.9383 </r>
       <r>    10.5698     9.2180    91.5962 </r>
       <r>    10.6412     9.7466    92.2919 </r>
       <r>    10.7125    10.1614    93.0173 </r>
       <r>    10.7839    10.2459    93.7486 </r>
       <r>    10.8553    10.2170    94.4779 </r>
       <r>    10.9267    10.4151    95.2213 </r>
       <r>    10.9981    10.8906    95.9987 </r>
       <r>    11.0694    11.3408    96.8082 </r>
       <r>    11.1408    11.4006    97.6220 </r>
       <r>    11.2122    11.0052    98.4075 </r>
       <r>    11.2836    10.4650    99.1545 </r>
       <r>    11.3550    10.1373    99.8781 </r>
       <r>    11.4263    10.0908   100.5984 </r>
       <r>    11.4977    10.1575   101.3234 </r>
       <r>    11.5691    10.1922   102.0510 </r>
       <r>    11.6405    10.1778   102.7774 </r>
       <r>    11.7119    10.1916   103.5049 </r>
       <r>    11.7832    10.3712   104.2452 </r>
       <r>    11.8546    10.7792   105.0146 </r>
       <r>    11.9260    11.2786   105.8197 </r>
       <r>    11.9974    11.7037   106.6551 </r>
       <r>    12.0687    12.0399   107.5145 </r>
       <r>    12.1401    12.2434   108.3884 </r>
       <r>    12.2115    12.0862   109.2512 </r>
       <r>    12.2829    11.4357   110.0674 </r>
       <r>    12.3543    10.6098   110.8248 </r>
       <r>    12.4256    10.2156   111.5539 </r>
       <r>    12.4970    10.5034   112.3037 </r>
       <r>    12.5684    11.0249   113.0906 </r>
       <r>    12.6398    11.1633   113.8875 </r>
       <r>    12.7112    10.9063   114.6660 </r>
       <r>    12.7825    10.7866   115.4359 </r>
       <r>    12.8539    11.1023   116.2284 </r>
       <r>    12.9253    11.5737   117.0545 </r>
       <r>    12.9967    11.8398   117.8996 </r>
       <r>    13.0681    11.9265   118.7509 </r>
       <r>    13.1394    12.0391   119.6103 </r>
       <r>    13.2108    12.1512   120.4776 </r>
       <r>    13.2822    12.0541   121.3381 </r>
       <r>    13.3536    11.7504   122.1768 </r>
       <r>    13.4250    11.5289   122.9997 </r>
       <r>    13.4963    11.5168   123.8218 </r>
       <r>    13.5677    11.3863   124.6346 </r>
       <r>    13.6391    10.7243   125.4000 </r>
       <r>    13.7105     9.5068   126.0786 </r>
       <r>    13.7819     8.0142   126.6507 </r>
       <r>    13.8532     6.4545   127.1114 </r>
       <r>    13.9246     4.8594   127.4583 </r>
       <r>    13.9960     3.2676   127.6915 </r>
       <r>    14.0674     1.8450   127.8232 </r>
       <r>    14.1388     0.7871   127.8794 </r>
       <r>    14.2101     0.1734   127.8918 </r>
       <r>    14.2815    -0.0548   127.8879 </r>
       <r>    14.3529    -0.0269   127.8860 </r>
       <r>    14.4243     0.1151   127.8942 </r>
       <r>    14.4957     0.2544   127.9123 </r>
       <r>    14.5670     0.3313   127.9360 </r>
       <r>    14.6384     0.3405   127.9603 </r>
       <r>    14.7098     0.2909   127.9810 </r>
       <r>    14.7812     0.1947   127.9949 </r>
       <r>    14.8526     0.0879   128.0012 </r>
       <r>    14.9239     0.0148   128.0023 </r>
       <r>    14.9953    -0.0121   128.0014 </r>
       <r>    15.0667    -0.0119   128.0006 </r>
       <r>    15.1381    -0.0056   128.0002 </r>
       <r>    15.2095    -0.0018   128.0000 </r>
       <r>    15.2808    -0.0004   128.0000 </r>
       <r>    15.3522    -0.0001   128.0000 </r>
       <r>    15.4236    -0.0000   128.0000 </r>
       <r>    15.4950    -0.0000   128.0000 </r>
       <r>    15.5664    -0.0000   128.0000 </r>
       <r>    15.6377    -0.0000   128.0000 </r>
       <r>    15.7091    -0.0000   128.0000 </r>
       <r>    15.7805    -0.0000   128.0000 </r>
       <r>    15.8519    -0.0000   128.0000 </r>
       <r>    15.9233    -0.0000   128.0000 </r>
       <r>    15.9946    -0.0000   128.0000 </r>
       <r>    16.0660     0.0000   128.0000 </r>
       <r>    16.1374     0.0000   128.0000 </r>
       <r>    16.2088     0.0000   128.0000 </r>
       <r>    16.2802     0.0000   128.0000 </r>
       <r>    16.3515     0.0000   128.0000 </r>
       <r>    16.4229     0.0000   128.0000 </r>
       <r>    16.4943     0.0000   128.0000 </r>
       <r>    16.5657     0.0000   128.0000 </r>
       <r>    16.6371     0.0000   128.0000 </r>
       <r>    16.7084     0.0000   128.0000 </r>
      </set>
     </set>
    </array>
   </total>
  </dos>
 </calculation>
 <structure name="finalpos" >
  <crystal>
   <varray name="basis" >
    <v>       0.00000000       5.77125000       5.77125000 </v>
    <v>       5.77125000       0.00000000       5.77125000 </v>
    <v>       5.77125000       5.77125000       0.00000000 </v>
   </varray>
   <i name="volume">    384.44981685 </i>
   <varray name="rec_basis" >
    <v>      -0.08663634       0.08663634       0.08663634 </v>
    <v>       0.08663634      -0.08663634       0.08663634 </v>
    <v>       0.08663634       0.08663634      -0.08663634 </v>
   </varray>
  </crystal>
  <varray name="positions" >
   <v>       0.02462078       0.00949487       0.00962395 </v>
   <v>       0.97013745       0.98162997       0.36989325 </v>
   <v>       0.98682227       0.01461429       0.69996196 </v>
   <v>       0.96435541       0.36716996       0.98896624 </v>
   <v>       0.01018179       0.37107095       0.31299142 </v>
   <v>       0.03681312       0.33909603       0.65965013 </v>
   <v>       0.97313313       0.64248791       0.03233599 </v>
   <v>       0.98433123       0.63860283       0.37407752 </v>
   <v>       0.01394820       0.69727186       0.62738444 </v>
   <v>       0.29420722       0.99458986       0.03093551 </v>
   <v>       0.35456401       0.00476599       0.35108186 </v>
   <v>       0.37350545       0.98621092       0.63688994 </v>
   <v>       0.32444905       0.34990785       0.03020553 </v>
   <v>       0.30584313       0.36456654       0.35341495 </v>
   <v>       0.31405054       0.36123794       0.68987346 </v>
   <v>       0.36562501       0.68328238       0.96586883 </v>
   <v>       0.37334253       0.65967417       0.33275336 </v>
   <v>       0.34343178       0.62219397       0.68782331 </v>
   <v>       0.69833488       0.99996614       0.95969951 </v>
   <v>       0.69747671       0.98685835       0.29781524 </v>
   <v>       0.65866061       0.02810914       0.68530153 </v>
   <v>       0.66839430       0.31234506       0.97743459 </v>
   <v>       0.70752279       0.32880398       0.32844688 </v>
   <v>       0.65626220       0.33986551       0.63293989 </v>
   <v>       0.67127359       0.68964228       0.01597959 </v>
   <v>       0.65143410       0.63262550       0.35099429 </v>
   <v>       0.66469172       0.70943028       0.64193510 </v>
  </varray>
 </structure>
</modeling>
