<?xml version="1.0" encoding="ISO-8859-1"?>
<modeling>
 <generator>
  <i name="program" type="string">vasp </i>
  <i name="version" type="string">5.3.5  </i>
  <i name="subversion" type="string">31Mar14 (build Jun 17 2014 14:04:22) complex                          parallel </i>
  <i name="platform" type="string">LinuxIfort </i>
  <i name="date" type="string">2025 12 23 </i>
  <i name="time" type="string">03:49:03 </i>
 </generator>
 <incar>
  <i type="string" name="SYSTEM"> Al Random Displacement</i>
  <i type="string" name="PREC">normal</i>
  <i type="string" name="ALGO"> Fast</i>
  <i type="int" name="IBRION">    -1</i>
  <i type="int" name="NSW">     0</i>
  <i name="ENCUT">    300.00000000</i>
  <i type="string" name="LREAL"> Auto</i>
  <i type="int" name="ISMEAR">     1</i>
  <i name="SIGMA">      0.20000000</i>
  <i type="logical" name="LWAVE"> F  </i>
  <i type="logical" name="LCHARG"> F  </i>
 </incar>
 <kpoints>
  <generation param="Monkhorst-Pack">
   <v type="int" name="divisions">       4        4        4 </v>
   <v name="usershift">      0.00000000       0.00000000       0.00000000 </v>
   <v name="genvec1">      0.25000000       0.00000000       0.00000000 </v>
   <v name="genvec2">      0.00000000       0.25000000       0.00000000 </v>
   <v name="genvec3">      0.00000000       0.00000000       0.25000000 </v>
   <v name="shift">      0.50000000       0.50000000       0.50000000 </v>
  </generation>
  <varray name="kpointlist" >
   <v>       0.12500000       0.12500000       0.12500000 </v>
   <v>       0.12500000       0.00000000       0.00000000 </v>
   <v>       0.00000000       0.00000000      -0.12500000 </v>
   <v>       0.00000000       0.12500000       0.00000000 </v>
   <v>       0.37500000       0.12500000       0.12500000 </v>
   <v>       0.12500000       0.37500000       0.12500000 </v>
   <v>       0.12500000       0.12500000       0.37500000 </v>
   <v>       0.12500000       0.00000000      -0.25000000 </v>
   <v>       0.37500000       0.25000000       0.25000000 </v>
   <v>       0.12500000      -0.25000000       0.00000000 </v>
   <v>       0.00000000       0.25000000      -0.12500000 </v>
   <v>       0.25000000       0.00000000      -0.12500000 </v>
   <v>      -0.25000000      -0.25000000      -0.37500000 </v>
   <v>       0.25000000       0.37500000       0.25000000 </v>
   <v>       0.00000000       0.12500000      -0.25000000 </v>
   <v>      -0.25000000       0.12500000       0.00000000 </v>
   <v>      -0.37500000       0.12500000       0.12500000 </v>
   <v>       0.12500000      -0.37500000       0.12500000 </v>
   <v>       0.12500000       0.12500000      -0.37500000 </v>
   <v>       0.12500000       0.00000000       0.50000000 </v>
   <v>      -0.37500000       0.50000000       0.50000000 </v>
   <v>       0.12500000       0.50000000       0.00000000 </v>
   <v>       0.00000000       0.50000000      -0.12500000 </v>
   <v>       0.50000000       0.00000000      -0.12500000 </v>
   <v>       0.50000000       0.50000000       0.37500000 </v>
   <v>       0.50000000      -0.37500000       0.50000000 </v>
   <v>       0.00000000       0.12500000       0.50000000 </v>
   <v>       0.50000000       0.12500000       0.00000000 </v>
   <v>      -0.12500000       0.12500000       0.12500000 </v>
   <v>       0.12500000      -0.12500000       0.12500000 </v>
   <v>       0.12500000       0.12500000      -0.12500000 </v>
   <v>       0.12500000       0.00000000       0.25000000 </v>
   <v>      -0.12500000      -0.25000000      -0.25000000 </v>
   <v>       0.12500000       0.25000000       0.00000000 </v>
   <v>       0.00000000      -0.25000000      -0.12500000 </v>
   <v>      -0.25000000       0.00000000      -0.12500000 </v>
   <v>       0.25000000       0.25000000       0.12500000 </v>
   <v>      -0.25000000      -0.12500000      -0.25000000 </v>
   <v>       0.00000000       0.12500000       0.25000000 </v>
   <v>       0.25000000       0.12500000       0.00000000 </v>
   <v>       0.37500000       0.37500000       0.12500000 </v>
   <v>       0.12500000       0.37500000       0.37500000 </v>
   <v>       0.37500000       0.12500000       0.37500000 </v>
   <v>       0.37500000       0.25000000       0.00000000 </v>
   <v>       0.37500000       0.00000000       0.25000000 </v>
   <v>       0.12500000      -0.25000000      -0.25000000 </v>
   <v>       0.25000000       0.25000000      -0.12500000 </v>
   <v>       0.00000000      -0.25000000      -0.37500000 </v>
   <v>      -0.25000000       0.00000000      -0.37500000 </v>
   <v>       0.25000000       0.37500000       0.00000000 </v>
   <v>      -0.25000000       0.12500000      -0.25000000 </v>
   <v>       0.00000000       0.37500000       0.25000000 </v>
   <v>      -0.37500000       0.37500000       0.12500000 </v>
   <v>       0.12500000      -0.37500000       0.37500000 </v>
   <v>       0.37500000       0.12500000      -0.37500000 </v>
   <v>       0.37500000       0.25000000      -0.25000000 </v>
   <v>      -0.37500000       0.25000000       0.50000000 </v>
   <v>       0.12500000       0.50000000      -0.25000000 </v>
   <v>       0.25000000       0.50000000      -0.12500000 </v>
   <v>       0.25000000      -0.25000000      -0.37500000 </v>
   <v>       0.50000000      -0.25000000       0.37500000 </v>
   <v>       0.50000000      -0.37500000       0.25000000 </v>
   <v>      -0.25000000       0.12500000       0.50000000 </v>
   <v>      -0.25000000       0.37500000       0.25000000 </v>
   <v>      -0.12500000       0.25000000       0.50000000 </v>
   <v>      -0.37500000       0.25000000      -0.25000000 </v>
   <v>       0.37500000       0.50000000      -0.25000000 </v>
   <v>       0.25000000       0.50000000      -0.37500000 </v>
   <v>       0.50000000      -0.25000000       0.12500000 </v>
   <v>       0.25000000      -0.25000000       0.37500000 </v>
   <v>       0.50000000      -0.12500000       0.25000000 </v>
   <v>      -0.25000000      -0.37500000       0.25000000 </v>
   <v>      -0.25000000       0.37500000       0.50000000 </v>
   <v>       0.37500000      -0.12500000      -0.37500000 </v>
   <v>      -0.37500000       0.37500000      -0.12500000 </v>
   <v>      -0.12500000      -0.37500000       0.37500000 </v>
   <v>      -0.12500000       0.37500000       0.12500000 </v>
   <v>       0.12500000      -0.12500000       0.37500000 </v>
   <v>       0.37500000       0.12500000      -0.12500000 </v>
   <v>       0.37500000       0.25000000       0.50000000 </v>
   <v>      -0.12500000       0.50000000      -0.25000000 </v>
   <v>       0.12500000       0.25000000      -0.25000000 </v>
   <v>       0.25000000      -0.25000000      -0.12500000 </v>
   <v>       0.50000000      -0.25000000      -0.37500000 </v>
   <v>       0.25000000       0.50000000       0.12500000 </v>
   <v>      -0.25000000      -0.12500000       0.50000000 </v>
   <v>      -0.25000000       0.12500000       0.25000000 </v>
   <v>       0.50000000       0.37500000       0.25000000 </v>
   <v>      -0.12500000       0.25000000      -0.25000000 </v>
   <v>      -0.37500000       0.50000000      -0.25000000 </v>
   <v>       0.12500000       0.25000000       0.50000000 </v>
   <v>       0.50000000      -0.25000000      -0.12500000 </v>
   <v>       0.25000000      -0.25000000       0.12500000 </v>
   <v>       0.25000000       0.50000000       0.37500000 </v>
   <v>      -0.25000000      -0.12500000       0.25000000 </v>
   <v>      -0.25000000      -0.37500000       0.50000000 </v>
   <v>       0.50000000       0.12500000       0.25000000 </v>
   <v>       0.12500000      -0.12500000      -0.37500000 </v>
   <v>      -0.37500000       0.12500000      -0.12500000 </v>
   <v>      -0.12500000      -0.37500000       0.12500000 </v>
   <v>      -0.37500000      -0.37500000       0.12500000 </v>
   <v>       0.12500000      -0.37500000      -0.37500000 </v>
   <v>      -0.37500000       0.12500000      -0.37500000 </v>
   <v>      -0.37500000       0.50000000       0.00000000 </v>
   <v>      -0.37500000       0.00000000       0.50000000 </v>
   <v>       0.12500000       0.50000000       0.50000000 </v>
   <v>       0.50000000       0.50000000      -0.12500000 </v>
   <v>       0.00000000       0.50000000       0.37500000 </v>
   <v>       0.50000000       0.00000000       0.37500000 </v>
   <v>       0.50000000      -0.37500000       0.00000000 </v>
   <v>       0.50000000       0.12500000       0.50000000 </v>
   <v>       0.00000000      -0.37500000       0.50000000 </v>
   <v>       0.37500000       0.37500000       0.37500000 </v>
   <v>       0.37500000       0.00000000       0.00000000 </v>
   <v>       0.00000000       0.00000000      -0.37500000 </v>
   <v>       0.00000000       0.37500000       0.00000000 </v>
   <v>      -0.37500000       0.37500000       0.37500000 </v>
   <v>       0.37500000      -0.37500000       0.37500000 </v>
   <v>       0.37500000       0.37500000      -0.37500000 </v>
   <v>       0.37500000       0.00000000      -0.25000000 </v>
   <v>      -0.37500000       0.25000000       0.25000000 </v>
   <v>       0.37500000      -0.25000000       0.00000000 </v>
   <v>       0.00000000       0.25000000      -0.37500000 </v>
   <v>       0.25000000       0.00000000      -0.37500000 </v>
   <v>      -0.25000000      -0.25000000       0.37500000 </v>
   <v>       0.25000000      -0.37500000       0.25000000 </v>
   <v>       0.00000000       0.37500000      -0.25000000 </v>
   <v>      -0.25000000       0.37500000       0.00000000 </v>
  </varray>
  <varray name="weights" >
   <v>       0.00781250 </v>
   <v>       0.00781250 </v>
   <v>       0.00781250 </v>
   <v>       0.00781250 </v>
   <v>       0.00781250 </v>
   <v>       0.00781250 </v>
   <v>       0.00781250 </v>
   <v>       0.00781250 </v>
   <v>       0.00781250 </v>
   <v>       0.00781250 </v>
   <v>       0.00781250 </v>
   <v>       0.00781250 </v>
   <v>       0.00781250 </v>
   <v>       0.00781250 </v>
   <v>       0.00781250 </v>
   <v>       0.00781250 </v>
   <v>       0.00781250 </v>
   <v>       0.00781250 </v>
   <v>       0.00781250 </v>
   <v>       0.00781250 </v>
   <v>       0.00781250 </v>
   <v>       0.00781250 </v>
   <v>       0.00781250 </v>
   <v>       0.00781250 </v>
   <v>       0.00781250 </v>
   <v>       0.00781250 </v>
   <v>       0.00781250 </v>
   <v>       0.00781250 </v>
   <v>       0.00781250 </v>
   <v>       0.00781250 </v>
   <v>       0.00781250 </v>
   <v>       0.00781250 </v>
   <v>       0.00781250 </v>
   <v>       0.00781250 </v>
   <v>       0.00781250 </v>
   <v>       0.00781250 </v>
   <v>       0.00781250 </v>
   <v>       0.00781250 </v>
   <v>       0.00781250 </v>
   <v>       0.00781250 </v>
   <v>       0.00781250 </v>
   <v>       0.00781250 </v>
   <v>       0.00781250 </v>
   <v>       0.00781250 </v>
   <v>       0.00781250 </v>
   <v>       0.00781250 </v>
   <v>       0.00781250 </v>
   <v>       0.00781250 </v>
   <v>       0.00781250 </v>
   <v>       0.00781250 </v>
   <v>       0.00781250 </v>
   <v>       0.00781250 </v>
   <v>       0.00781250 </v>
   <v>       0.00781250 </v>
   <v>       0.00781250 </v>
   <v>       0.00781250 </v>
   <v>       0.00781250 </v>
   <v>       0.00781250 </v>
   <v>       0.00781250 </v>
   <v>       0.00781250 </v>
   <v>       0.00781250 </v>
   <v>       0.00781250 </v>
   <v>       0.00781250 </v>
   <v>       0.00781250 </v>
   <v>       0.00781250 </v>
   <v>       0.00781250 </v>
   <v>       0.00781250 </v>
   <v>       0.00781250 </v>
   <v>       0.00781250 </v>
   <v>       0.00781250 </v>
   <v>       0.00781250 </v>
   <v>       0.00781250 </v>
   <v>       0.00781250 </v>
   <v>       0.00781250 </v>
   <v>       0.00781250 </v>
   <v>       0.00781250 </v>
   <v>       0.00781250 </v>
   <v>       0.00781250 </v>
   <v>       0.00781250 </v>
   <v>       0.00781250 </v>
   <v>       0.00781250 </v>
   <v>       0.00781250 </v>
   <v>       0.00781250 </v>
   <v>       0.00781250 </v>
   <v>       0.00781250 </v>
   <v>       0.00781250 </v>
   <v>       0.00781250 </v>
   <v>       0.00781250 </v>
   <v>       0.00781250 </v>
   <v>       0.00781250 </v>
   <v>       0.00781250 </v>
   <v>       0.00781250 </v>
   <v>       0.00781250 </v>
   <v>       0.00781250 </v>
   <v>       0.00781250 </v>
   <v>       0.00781250 </v>
   <v>       0.00781250 </v>
   <v>       0.00781250 </v>
   <v>       0.00781250 </v>
   <v>       0.00781250 </v>
   <v>       0.00781250 </v>
   <v>       0.00781250 </v>
   <v>       0.00781250 </v>
   <v>       0.00781250 </v>
   <v>       0.00781250 </v>
   <v>       0.00781250 </v>
   <v>       0.00781250 </v>
   <v>       0.00781250 </v>
   <v>       0.00781250 </v>
   <v>       0.00781250 </v>
   <v>       0.00781250 </v>
   <v>       0.00781250 </v>
   <v>       0.00781250 </v>
   <v>       0.00781250 </v>
   <v>       0.00781250 </v>
   <v>       0.00781250 </v>
   <v>       0.00781250 </v>
   <v>       0.00781250 </v>
   <v>       0.00781250 </v>
   <v>       0.00781250 </v>
   <v>       0.00781250 </v>
   <v>       0.00781250 </v>
   <v>       0.00781250 </v>
   <v>       0.00781250 </v>
   <v>       0.00781250 </v>
   <v>       0.00781250 </v>
   <v>       0.00781250 </v>
   <v>       0.00781250 </v>
  </varray>
 </kpoints>
 <parameters>
  <separator name="general" >
   <i type="string" name="SYSTEM">Al Random Displacement</i>
   <i type="logical" name="LCOMPAT"> F  </i>
  </separator>
  <separator name="electronic" >
   <i type="string" name="PREC">normal</i>
   <i name="ENMAX">    300.00000000</i>
   <i name="ENAUG">    291.05200000</i>
   <i name="EDIFF">      0.00010000</i>
   <i type="int" name="IALGO">    68</i>
   <i type="int" name="IWAVPR">    10</i>
   <i type="int" name="NBANDS">    64</i>
   <i name="NELECT">     81.00000000</i>
   <i type="int" name="TURBO">     0</i>
   <i type="int" name="IRESTART">     0</i>
   <i type="int" name="NREBOOT">     0</i>
   <i type="int" name="NMIN">     0</i>
   <i name="EREF">      0.00000000</i>
   <separator name="electronic smearing" >
    <i type="int" name="ISMEAR">     1</i>
    <i name="SIGMA">      0.20000000</i>
    <i name="KSPACING">      0.50000000</i>
    <i type="logical" name="KGAMMA"> T  </i>
   </separator>
   <separator name="electronic projectors" >
    <i type="logical" name="LREAL"> T  </i>
    <v name="ROPT">     -0.00050000</v>
    <i type="int" name="LMAXPAW">  -100</i>
    <i type="int" name="LMAXMIX">     2</i>
    <i type="logical" name="NLSPLINE"> F  </i>
   </separator>
   <separator name="electronic startup" >
    <i type="int" name="ISTART">     0</i>
    <i type="int" name="ICHARG">     2</i>
    <i type="int" name="INIWAV">     1</i>
   </separator>
   <separator name="electronic spin" >
    <i type="int" name="ISPIN">     1</i>
    <i type="logical" name="LNONCOLLINEAR"> F  </i>
    <v name="MAGMOM">      1.00000000      1.00000000      1.00000000      1.00000000      1.00000000      1.00000000      1.00000000      1.00000000      1.00000000      1.00000000      1.00000000      1.00000000      1.00000000      1.00000000      1.00000000      1.00000000      1.00000000      1.00000000      1.00000000      1.00000000
      1.00000000      1.00000000      1.00000000      1.00000000      1.00000000      1.00000000      1.00000000</v>
    <i name="NUPDOWN">     -1.00000000</i>
    <i type="logical" name="LSORBIT"> F  </i>
    <v name="SAXIS">      0.00000000      0.00000000      1.00000000</v>
    <i type="logical" name="LSPIRAL"> F  </i>
    <v name="QSPIRAL">      0.00000000      0.00000000      0.00000000</v>
    <i type="logical" name="LZEROZ"> F  </i>
   </separator>
   <separator name="electronic exchange-correlation" >
    <i type="logical" name="LASPH"> F  </i>
    <i type="logical" name="LMETAGGA"> F  </i>
   </separator>
   <separator name="electronic convergence" >
    <i type="int" name="NELM">    60</i>
    <i type="int" name="NELMDL">    -5</i>
    <i type="int" name="NELMIN">     2</i>
    <i name="ENINI">    300.00000000</i>
    <separator name="electronic convergence detail" >
     <i type="logical" name="LDIAG"> T  </i>
     <i type="logical" name="LSUBROT"> F  </i>
     <i name="WEIMIN">      0.00000000</i>
     <i name="EBREAK">      0.00000039</i>
     <i name="DEPER">      0.30000000</i>
     <i type="int" name="NRMM">     4</i>
     <i name="TIME">      0.40000000</i>
    </separator>
   </separator>
   <separator name="electronic mixer" >
    <i name="AMIX">      0.40000000</i>
    <i name="BMIX">      1.00000000</i>
    <i name="AMIN">      0.10000000</i>
    <i name="AMIX_MAG">      1.60000000</i>
    <i name="BMIX_MAG">      1.00000000</i>
    <separator name="electronic mixer details" >
     <i type="int" name="IMIX">     4</i>
     <i type="int" name="MAXMIX">   -45</i>
     <i name="WC">    100.00000000</i>
     <i type="int" name="INIMIX">     1</i>
     <i type="int" name="MIXPRE">     1</i>
     <i type="int" name="MREMOVE">     5</i>
    </separator>
   </separator>
   <separator name="electronic dipolcorrection" >
    <i type="logical" name="LDIPOL"> F  </i>
    <i type="logical" name="LMONO"> F  </i>
    <i type="int" name="IDIPOL">     0</i>
    <i name="EPSILON">      1.00000000</i>
    <v name="DIPOL">   -100.00000000   -100.00000000   -100.00000000</v>
    <i name="EFIELD">      0.00000000</i>
   </separator>
  </separator>
  <separator name="grids" >
   <i type="int" name="NGX">    40</i>
   <i type="int" name="NGY">    40</i>
   <i type="int" name="NGZ">    40</i>
   <i type="int" name="NGXF">    80</i>
   <i type="int" name="NGYF">    80</i>
   <i type="int" name="NGZF">    80</i>
   <i type="logical" name="ADDGRID"> F  </i>
  </separator>
  <separator name="ionic" >
   <i type="int" name="NSW">     0</i>
   <i type="int" name="IBRION">    -1</i>
   <i type="int" name="ISIF">     2</i>
   <i name="PSTRESS">      0.00000000</i>
   <i name="EDIFFG">      0.00100000</i>
   <i type="int" name="NFREE">     0</i>
   <i name="POTIM">      0.50000000</i>
   <i name="SMASS">     -3.00000000</i>
   <i name="SCALEE">      1.00000000</i>
  </separator>
  <separator name="ionic md" >
   <i name="TEBEG">      0.00010000</i>
   <i name="TEEND">      0.00010000</i>
   <i type="int" name="NBLOCK">     1</i>
   <i type="int" name="KBLOCK">     1</i>
   <i type="int" name="NPACO">   256</i>
   <i name="APACO">     16.00000000</i>
  </separator>
  <separator name="symmetry" >
   <i type="int" name="ISYM">     2</i>
   <i name="SYMPREC">      0.00001000</i>
  </separator>
  <separator name="dos" >
   <i type="logical" name="LORBIT"> F  </i>
   <v name="RWIGS">     -1.00000000</v>
   <i type="int" name="NEDOS">   301</i>
   <i name="EMIN">     10.00000000</i>
   <i name="EMAX">    -10.00000000</i>
   <i name="EFERMI">      0.00000000</i>
  </separator>
  <separator name="writing" >
   <i type="int" name="NWRITE">     2</i>
   <i type="logical" name="LWAVE"> F  </i>
   <i type="logical" name="LCHARG"> F  </i>
   <i type="logical" name="LPARD"> F  </i>
   <i type="logical" name="LVTOT"> F  </i>
   <i type="logical" name="LVHAR"> F  </i>
   <i type="logical" name="LELF"> F  </i>
   <i type="logical" name="LOPTICS"> F  </i>
   <v name="STM">      0.00000000      0.00000000      0.00000000      0.00000000      0.00000000      0.00000000      0.00000000</v>
  </separator>
  <separator name="performance" >
   <i type="int" name="NPAR">    16</i>
   <i type="int" name="NSIM">     4</i>
   <i type="int" name="NBLK">    -1</i>
   <i type="logical" name="LPLANE"> T  </i>
   <i type="logical" name="LSCALAPACK"> F  </i>
   <i type="logical" name="LSCAAWARE"> F  </i>
   <i type="logical" name="LSCALU"> F  </i>
   <i type="logical" name="LASYNC"> F  </i>
   <i type="logical" name="LORBITALREAL"> F  </i>
  </separator>
  <separator name="miscellaneous" >
   <i type="int" name="IDIOT">     3</i>
   <i type="logical" name="LMUSIC"> F  </i>
   <v name="POMASS">     26.98100000</v>
   <v name="DARWINR">      0.00000000</v>
   <v name="DARWINV">      1.00000000</v>
   <i type="logical" name="LCORR"> T  </i>
  </separator>
  <i type="logical" name="GGA_COMPAT"> T  </i>
  <i type="logical" name="LBERRY"> F  </i>
  <i type="int" name="ICORELEVEL">     0</i>
  <i type="logical" name="LDAU"> F  </i>
  <i type="int" name="I_CONSTRAINED_M">     0</i>
  <separator name="electronic exchange-correlation" >
   <i type="string" name="GGA">--</i>
   <i type="int" name="VOSKOWN">     0</i>
   <i type="logical" name="LHFCALC"> F  </i>
   <i type="string" name="PRECFOCK"></i>
   <i type="logical" name="LSYMGRAD"> F  </i>
   <i type="logical" name="LHFONE"> F  </i>
   <i type="logical" name="LRHFCALC"> F  </i>
   <i type="logical" name="LTHOMAS"> F  </i>
   <i type="logical" name="LMODELHF"> F  </i>
   <i name="ENCUT4O">     -1.00000000</i>
   <i type="int" name="EXXOEP">     0</i>
   <i type="int" name="FOURORBIT">     0</i>
   <i name="AEXX">      0.00000000</i>
   <i name="HFALPHA">      0.00000000</i>
   <i name="MCALPHA">      0.00000000</i>
   <i name="ALDAX">      1.00000000</i>
   <i name="AGGAX">      1.00000000</i>
   <i name="ALDAC">      1.00000000</i>
   <i name="AGGAC">      1.00000000</i>
   <i type="int" name="NKREDX">     1</i>
   <i type="int" name="NKREDY">     1</i>
   <i type="int" name="NKREDZ">     1</i>
   <i type="logical" name="SHIFTRED"> F  </i>
   <i type="logical" name="ODDONLY"> F  </i>
   <i type="logical" name="EVENONLY"> F  </i>
   <i type="int" name="LMAXFOCK">     0</i>
   <i type="int" name="NMAXFOCKAE">     0</i>
   <i type="logical" name="LFOCKAEDFT"> F  </i>
   <i name="HFSCREEN">      0.00000000</i>
   <i name="HFSCREENC">      0.00000000</i>
   <i type="int" name="NBANDSGWLOW">     0</i>
  </separator>
  <separator name="vdW DFT" >
   <i type="logical" name="LUSE_VDW"> F  </i>
   <i name="Zab_VDW">     -0.84910000</i>
   <i name="PARAM1">      0.12340000</i>
   <i name="PARAM2">      1.00000000</i>
   <i name="PARAM3">      0.00000000</i>
  </separator>
  <separator name="model GW" >
   <i type="int" name="MODEL_GW">     0</i>
   <i name="MODEL_EPS0">     10.57442701</i>
   <i name="MODEL_ALPHA">      1.00000000</i>
  </separator>
  <separator name="linear response parameters" >
   <i type="logical" name="LEPSILON"> F  </i>
   <i type="logical" name="LRPA"> F  </i>
   <i type="logical" name="LNABLA"> F  </i>
   <i type="logical" name="LVEL"> F  </i>
   <i type="int" name="KINTER">     0</i>
   <i name="CSHIFT">      0.10000000</i>
   <i name="OMEGAMAX">     -1.00000000</i>
   <i name="DEG_THRESHOLD">      0.00200000</i>
  </separator>
  <separator name="orbital magnetization" >
   <i type="logical" name="NUCIND"> F  </i>
   <v name="MAGPOS">      0.00000000      0.00000000      0.00000000</v>
   <i type="logical" name="LNICSALL"> T  </i>
   <i type="logical" name="ORBITALMAG"> F  </i>
   <i type="logical" name="LMAGBLOCH"> F  </i>
   <i type="logical" name="LCHIMAG"> F  </i>
   <i type="logical" name="LGAUGE"> T  </i>
   <i type="int" name="MAGATOM">     0</i>
   <v name="MAGDIPOL">      0.00000000      0.00000000      0.00000000</v>
   <v name="AVECCONST">      0.00000000      0.00000000      0.00000000</v>
  </separator>
  <separator name="response functions" >
   <i type="logical" name="LADDER"> F  </i>
   <i type="logical" name="LFXC"> F  </i>
   <i type="logical" name="LHARTREE"> T  </i>
   <i type="int" name="IBSE">     0</i>
   <i type="logical" name="LTCTE"> F  </i>
   <i type="logical" name="LTETE"> F  </i>
   <i type="logical" name="LTRIPLET"> F  </i>
   <i type="logical" name="LFXCEPS"> F  </i>
   <i type="logical" name="LFXHEG"> F  </i>
   <i type="logical" name="L2ORDER"> F  </i>
   <i type="logical" name="LUSEW"> F  </i>
   <i name="ENCUTGW">     -2.00000000</i>
   <i name="ENCUTGWSOFT">     -2.00000000</i>
   <i name="ENCUTLF">     -1.00000000</i>
   <i type="int" name="LMAXMP2">    -1</i>
   <i name="SCISSOR">      0.00000000</i>
   <i type="int" name="NOMEGA">     0</i>
   <i type="int" name="NOMEGAR">     0</i>
   <i type="int" name="NBANDSGW">    -1</i>
   <i type="int" name="NBANDSO">    -1</i>
   <i type="int" name="NBANDSV">    -1</i>
   <i type="int" name="NELM">     1</i>
   <i type="int" name="DIM">     3</i>
   <i type="int" name="ANTIRES">     0</i>
   <i name="OMEGAMAX">    -30.00000000</i>
   <i name="OMEGAMIN">    -30.00000000</i>
   <i name="OMEGATL">   -200.00000000</i>
   <i type="int" name="OMEGAGRID">     0</i>
   <i name="CSHIFT">     -0.10000000</i>
   <i type="logical" name="SELFENERGY"> F  </i>
   <i type="logical" name="LSPECTRAL"> F  </i>
   <i type="logical" name="ODDONLYGW"> F  </i>
   <i type="logical" name="EVENONLYGW"> F  </i>
   <i type="int" name="NKREDLFX">     1</i>
   <i type="int" name="NKREDLFY">     1</i>
   <i type="int" name="NKREDLFZ">     1</i>
   <i type="int" name="MAXMEM">  1800</i>
   <i type="int" name="TELESCOPE">     0</i>
   <i type="int" name="TAUPAR">     1</i>
  </separator>
  <separator name="External order field" >
   <i name="OFIELD_KAPPA">      0.00000000</i>
   <v name="OFIELD_K">      0.00000000      0.00000000      0.00000000</v>
   <i name="OFIELD_Q6_NEAR">      0.00000000</i>
   <i name="OFIELD_Q6_FAR">      0.00000000</i>
   <i name="OFIELD_A">      0.00000000</i>
  </separator>
 </parameters>
 <atominfo>
  <atoms>      27 </atoms>
  <types>       1 </types>
  <array name="atoms" >
   <dimension dim="1">ion</dimension>
   <field type="string">element</field>
   <field type="int">atomtype</field>
   <set>
    <rc><c>Al</c><c>   1</c></rc>
    <rc><c>Al</c><c>   1</c></rc>
    <rc><c>Al</c><c>   1</c></rc>
    <rc><c>Al</c><c>   1</c></rc>
    <rc><c>Al</c><c>   1</c></rc>
    <rc><c>Al</c><c>   1</c></rc>
    <rc><c>Al</c><c>   1</c></rc>
    <rc><c>Al</c><c>   1</c></rc>
    <rc><c>Al</c><c>   1</c></rc>
    <rc><c>Al</c><c>   1</c></rc>
    <rc><c>Al</c><c>   1</c></rc>
    <rc><c>Al</c><c>   1</c></rc>
    <rc><c>Al</c><c>   1</c></rc>
    <rc><c>Al</c><c>   1</c></rc>
    <rc><c>Al</c><c>   1</c></rc>
    <rc><c>Al</c><c>   1</c></rc>
    <rc><c>Al</c><c>   1</c></rc>
    <rc><c>Al</c><c>   1</c></rc>
    <rc><c>Al</c><c>   1</c></rc>
    <rc><c>Al</c><c>   1</c></rc>
    <rc><c>Al</c><c>   1</c></rc>
    <rc><c>Al</c><c>   1</c></rc>
    <rc><c>Al</c><c>   1</c></rc>
    <rc><c>Al</c><c>   1</c></rc>
    <rc><c>Al</c><c>   1</c></rc>
    <rc><c>Al</c><c>   1</c></rc>
    <rc><c>Al</c><c>   1</c></rc>
   </set>
  </array>
  <array name="atomtypes" >
   <dimension dim="1">type</dimension>
   <field type="int">atomspertype</field>
   <field type="string">element</field>
   <field>mass</field>
   <field>valence</field>
   <field type="string">pseudopotential</field>
   <set>
    <rc><c>  27</c><c>Al</c><c>     26.98100000</c><c>      3.00000000</c><c>  PAW_PBE Al 04Jan2001                  </c></rc>
   </set>
  </array>
 </atominfo>
 <structure name="initialpos" >
  <crystal>
   <varray name="basis" >
    <v>       0.00000000       6.19650000       6.19650000 </v>
    <v>       6.19650000       0.00000000       6.19650000 </v>
    <v>       6.19650000       6.19650000       0.00000000 </v>
   </varray>
   <i name="volume">    475.84921561 </i>
   <varray name="rec_basis" >
    <v>      -0.08069071       0.08069071       0.08069071 </v>
    <v>       0.08069071      -0.08069071       0.08069071 </v>
    <v>       0.08069071       0.08069071      -0.08069071 </v>
   </varray>
  </crystal>
  <varray name="positions" >
   <v>       0.02181100       0.00919521       0.95897247 </v>
   <v>       0.01352279       0.03165782       0.30242949 </v>
   <v>       0.98986914       0.04140728       0.64668956 </v>
   <v>       0.95916336       0.34393411       0.00780887 </v>
   <v>       0.97611942       0.36185777       0.30922553 </v>
   <v>       0.00088144       0.35763005       0.68087198 </v>
   <v>       0.02066256       0.62541196       0.01153034 </v>
   <v>       0.99626492       0.68894079       0.35289107 </v>
   <v>       0.97514728       0.70132606       0.67720580 </v>
   <v>       0.36804001       0.00637234       0.96816771 </v>
   <v>       0.30631611       0.03902844       0.32427219 </v>
   <v>       0.29955488       0.03020491       0.65653179 </v>
   <v>       0.36468914       0.34368257       0.96529093 </v>
   <v>       0.36315256       0.29599779       0.33305537 </v>
   <v>       0.29803795       0.35628354       0.68857582 </v>
   <v>       0.34035900       0.63048528       0.03131817 </v>
   <v>       0.35935659       0.62721693       0.34323480 </v>
   <v>       0.33577273       0.63566903       0.70296131 </v>
   <v>       0.65355388       0.03917013       0.99918239 </v>
   <v>       0.70368707       0.00572030       0.30826562 </v>
   <v>       0.66315761       0.96777256       0.66644504 </v>
   <v>       0.66703725       0.29502664       0.02782362 </v>
   <v>       0.69689911       0.32001482       0.30132289 </v>
   <v>       0.65556450       0.32278807       0.64687020 </v>
   <v>       0.67133394       0.62608808       0.01403512 </v>
   <v>       0.68730939       0.65960525       0.29674549 </v>
   <v>       0.65820048       0.63142122       0.68241161 </v>
  </varray>
 </structure>
 <calculation>
  <scstep>
   <time name="dav">    9.22    9.22</time>
   <time name="total">    9.25    9.26</time>
   <energy>
    <i name="alphaZ">     -5.14568972 </i>
    <i name="ewald">  -1903.71545552 </i>
    <i name="hartreedc">    -23.25650456 </i>
    <i name="XCdc">   -711.01081119 </i>
    <i name="pawpsdc">   1787.40424240 </i>
    <i name="pawaedc">   -924.63176043 </i>
    <i name="eentropy">     -0.00166919 </i>
    <i name="bandstr">    383.41055745 </i>
    <i name="atom">   1445.51584806 </i>
    <i name="e_fr_energy">     48.56875730 </i>
    <i name="e_wo_entrp">     48.57042649 </i>
    <i name="e_0_energy">     48.56931369 </i>
   </energy>
  </scstep>
  <scstep>
   <time name="dav">   10.98   10.98</time>
   <time name="total">   10.98   11.00</time>
   <energy>
    <i name="e_fr_energy">    -92.39718444 </i>
    <i name="e_wo_entrp">    -92.39547145 </i>
    <i name="e_0_energy">    -92.39661344 </i>
   </energy>
  </scstep>
  <scstep>
   <time name="dav">   11.64   11.65</time>
   <time name="total">   11.65   11.67</time>
   <energy>
    <i name="e_fr_energy">    -98.22668049 </i>
    <i name="e_wo_entrp">    -98.22306728 </i>
    <i name="e_0_energy">    -98.22547609 </i>
   </energy>
  </scstep>
  <scstep>
   <time name="dav">   10.75   10.75</time>
   <time name="total">   10.75   10.77</time>
   <energy>
    <i name="e_fr_energy">    -98.28621047 </i>
    <i name="e_wo_entrp">    -98.28259920 </i>
    <i name="e_0_energy">    -98.28500671 </i>
   </energy>
  </scstep>
  <scstep>
   <time name="dav">   11.35   11.35</time>
   <time name="total">   11.80   11.82</time>
   <energy>
    <i name="e_fr_energy">    -98.28696250 </i>
    <i name="e_wo_entrp">    -98.28335166 </i>
    <i name="e_0_energy">    -98.28575889 </i>
   </energy>
  </scstep>
  <scstep>
   <time name="diag">    1.52    1.52</time>
   <time name="diis">    4.89    4.89</time>
   <time name="orth">    0.21    0.21</time>
   <time name="total">    7.09    7.11</time>
   <energy>
    <i name="e_fr_energy">    -96.72144066 </i>
    <i name="e_wo_entrp">    -96.71446482 </i>
    <i name="e_0_energy">    -96.71911538 </i>
   </energy>
  </scstep>
  <scstep>
   <time name="diag">    1.51    1.51</time>
   <time name="diis">    5.67    5.67</time>
   <time name="orth">    0.21    0.21</time>
   <time name="total">    7.86    7.88</time>
   <energy>
    <i name="e_fr_energy">    -96.49570193 </i>
    <i name="e_wo_entrp">    -96.48811138 </i>
    <i name="e_0_energy">    -96.49317174 </i>
   </energy>
  </scstep>
  <scstep>
   <time name="diag">    1.50    1.51</time>
   <time name="diis">    5.80    5.80</time>
   <time name="orth">    0.21    0.21</time>
   <time name="total">    7.99    8.01</time>
   <energy>
    <i name="e_fr_energy">    -96.41828082 </i>
    <i name="e_wo_entrp">    -96.41039637 </i>
    <i name="e_0_energy">    -96.41565267 </i>
   </energy>
  </scstep>
  <scstep>
   <time name="diag">    1.50    1.50</time>
   <time name="diis">    6.10    6.10</time>
   <time name="orth">    0.21    0.21</time>
   <time name="total">    8.29    8.31</time>
   <energy>
    <i name="e_fr_energy">    -96.41355753 </i>
    <i name="e_wo_entrp">    -96.40578605 </i>
    <i name="e_0_energy">    -96.41096703 </i>
   </energy>
  </scstep>
  <scstep>
   <time name="diag">    1.50    1.51</time>
   <time name="diis">    5.85    5.85</time>
   <time name="orth">    0.22    0.22</time>
   <time name="total">    8.05    8.07</time>
   <energy>
    <i name="e_fr_energy">    -96.41311151 </i>
    <i name="e_wo_entrp">    -96.40542159 </i>
    <i name="e_0_energy">    -96.41054820 </i>
   </energy>
  </scstep>
  <scstep>
   <time name="diag">    1.49    1.49</time>
   <time name="diis">    4.40    4.40</time>
   <time name="orth">    0.21    0.21</time>
   <time name="total">    6.13    6.15</time>
   <energy>
    <i name="alphaZ">     -5.14568972 </i>
    <i name="ewald">  -1903.71545552 </i>
    <i name="hartreedc">    -28.43640820 </i>
    <i name="XCdc">   -708.03853182 </i>
    <i name="pawpsdc">   4066.11919041 </i>
    <i name="pawaedc">  -3203.82896426 </i>
    <i name="eentropy">     -0.00770877 </i>
    <i name="bandstr">    241.12464442 </i>
    <i name="atom">   1445.51584806 </i>
    <i name="e_fr_energy">    -96.41307538 </i>
    <i name="e_wo_entrp">    -96.40536662 </i>
    <i name="e_0_energy">    -96.41050579 </i>
   </energy>
  </scstep>
  <structure>
   <crystal>
    <varray name="basis" >
     <v>       0.00000000       6.19650000       6.19650000 </v>
     <v>       6.19650000       0.00000000       6.19650000 </v>
     <v>       6.19650000       6.19650000       0.00000000 </v>
    </varray>
    <i name="volume">    475.84921561 </i>
    <varray name="rec_basis" >
     <v>      -0.08069071       0.08069071       0.08069071 </v>
     <v>       0.08069071      -0.08069071       0.08069071 </v>
     <v>       0.08069071       0.08069071      -0.08069071 </v>
    </varray>
   </crystal>
   <varray name="positions" >
    <v>       0.02181100       0.00919521       0.95897247 </v>
    <v>       0.01352279       0.03165782       0.30242949 </v>
    <v>       0.98986914       0.04140728       0.64668956 </v>
    <v>       0.95916336       0.34393411       0.00780887 </v>
    <v>       0.97611942       0.36185777       0.30922553 </v>
    <v>       0.00088144       0.35763005       0.68087198 </v>
    <v>       0.02066256       0.62541196       0.01153034 </v>
    <v>       0.99626492       0.68894079       0.35289107 </v>
    <v>       0.97514728       0.70132606       0.67720580 </v>
    <v>       0.36804001       0.00637234       0.96816771 </v>
    <v>       0.30631611       0.03902844       0.32427219 </v>
    <v>       0.29955488       0.03020491       0.65653179 </v>
    <v>       0.36468914       0.34368257       0.96529093 </v>
    <v>       0.36315256       0.29599779       0.33305537 </v>
    <v>       0.29803795       0.35628354       0.68857582 </v>
    <v>       0.34035900       0.63048528       0.03131817 </v>
    <v>       0.35935659       0.62721693       0.34323480 </v>
    <v>       0.33577273       0.63566903       0.70296131 </v>
    <v>       0.65355388       0.03917013       0.99918239 </v>
    <v>       0.70368707       0.00572030       0.30826562 </v>
    <v>       0.66315761       0.96777256       0.66644504 </v>
    <v>       0.66703725       0.29502664       0.02782362 </v>
    <v>       0.69689911       0.32001482       0.30132289 </v>
    <v>       0.65556450       0.32278807       0.64687020 </v>
    <v>       0.67133394       0.62608808       0.01403512 </v>
    <v>       0.68730939       0.65960525       0.29674549 </v>
    <v>       0.65820048       0.63142122       0.68241161 </v>
   </varray>
  </structure>
  <varray name="forces" >
   <v>       0.47070583       0.67753401      -0.84820441 </v>
   <v>      -0.68647412       0.65937166      -0.48157174 </v>
   <v>      -0.22875850      -0.08852796      -0.55532894 </v>
   <v>      -1.61847080       0.84180192       1.36670075 </v>
   <v>      -0.04277994       1.76528677      -0.26114909 </v>
   <v>      -0.43964356      -0.99985076      -0.19646826 </v>
   <v>       0.42750673      -0.93772611       1.13511776 </v>
   <v>      -0.60516523       0.03022009      -0.04463572 </v>
   <v>      -0.47787337       0.70116541       0.23027707 </v>
   <v>       0.46494379      -0.02636854      -0.72974168 </v>
   <v>      -0.83737653       0.30079294      -0.40656242 </v>
   <v>      -0.84739034       0.90749991       0.35833532 </v>
   <v>       0.49178876       0.87025348      -1.58579066 </v>
   <v>       1.09329045      -0.39696980       0.35534518 </v>
   <v>      -0.63155413       0.06348527       0.00764654 </v>
   <v>       0.38008206      -0.38483581       0.28994447 </v>
   <v>       0.54266260      -0.24408260       0.16017737 </v>
   <v>       0.22084252      -1.65361873       1.46777635 </v>
   <v>      -1.71811855       0.51383370      -1.04934492 </v>
   <v>      -0.21616958       0.63778475      -1.25434800 </v>
   <v>       0.33718808      -0.55711373       0.38878113 </v>
   <v>       0.32262123      -1.06797600       1.78766695 </v>
   <v>       1.61958940       0.42673079      -1.64685967 </v>
   <v>      -0.28523849      -0.01513720       0.46890616 </v>
   <v>       0.73698230      -1.51377222       0.68996414 </v>
   <v>       1.40316359      -0.29148395       0.03794052 </v>
   <v>       0.12364580      -0.21829728       0.31542581 </v>
  </varray>
  <varray name="stress" >
   <v>       3.76886550      -7.01896436      -3.53141002 </v>
   <v>      -7.01896420      10.02438755      -7.31824586 </v>
   <v>      -3.53141007      -7.31824590       7.87221978 </v>
  </varray>
  <energy>
   <i name="e_fr_energy">    -96.41307538 </i>
   <i name="e_wo_entrp">    -96.41050579 </i>
   <i name="e_0_energy">     -0.00770877 </i>
  </energy>
  <time name="totalsc">  110.67  110.92</time>
  <eigenvalues>
   <array>
    <dimension dim="1">band</dimension>
    <dimension dim="2">kpoint</dimension>
    <dimension dim="3">spin</dimension>
    <field>eigene</field>
    <field>occ</field>
    <set>
     <set comment="spin 1">
      <set comment="kpoint 1">
       <r>   -3.5744    1.0000 </r>
       <r>   -1.7057    1.0000 </r>
       <r>   -1.2399    1.0000 </r>
       <r>   -1.0137    1.0000 </r>
       <r>   -0.8033    1.0000 </r>
       <r>   -0.6368    1.0000 </r>
       <r>   -0.3546    1.0000 </r>
       <r>   -0.1971    1.0000 </r>
       <r>   -0.0633    1.0000 </r>
       <r>    0.0003    1.0000 </r>
       <r>    0.2284    1.0000 </r>
       <r>    0.3791    1.0000 </r>
       <r>    0.7267    1.0000 </r>
       <r>    1.0156    1.0000 </r>
       <r>    1.2954    1.0000 </r>
       <r>    2.7491    1.0000 </r>
       <r>    3.2234    1.0000 </r>
       <r>    3.3350    1.0000 </r>
       <r>    3.8194    1.0000 </r>
       <r>    3.9073    1.0000 </r>
       <r>    3.9634    1.0000 </r>
       <r>    4.1846    1.0000 </r>
       <r>    4.3479    1.0000 </r>
       <r>    4.4324    1.0000 </r>
       <r>    4.6318    1.0000 </r>
       <r>    5.0364    1.0000 </r>
       <r>    5.1190    1.0000 </r>
       <r>    5.2085    1.0000 </r>
       <r>    5.3417    1.0000 </r>
       <r>    5.5707    1.0000 </r>
       <r>    5.7269    1.0000 </r>
       <r>    5.8109    1.0000 </r>
       <r>    5.9122    1.0000 </r>
       <r>    6.1262    1.0000 </r>
       <r>    6.1850    1.0000 </r>
       <r>    6.3617    1.0000 </r>
       <r>    6.4556    1.0000 </r>
       <r>    6.5621    1.0000 </r>
       <r>    6.6295    1.0000 </r>
       <r>    6.7484    1.0008 </r>
       <r>    7.1701    0.8619 </r>
       <r>    7.2129    0.7207 </r>
       <r>    7.2669    0.5013 </r>
       <r>    7.3686    0.1261 </r>
       <r>    7.4314    0.0047 </r>
       <r>    7.6116   -0.0176 </r>
       <r>    7.6457   -0.0111 </r>
       <r>    7.6758   -0.0069 </r>
       <r>    7.8025   -0.0005 </r>
       <r>    7.8899   -0.0000 </r>
       <r>    7.9754   -0.0000 </r>
       <r>    8.0937   -0.0000 </r>
       <r>    8.2348   -0.0000 </r>
       <r>    8.3598   -0.0000 </r>
       <r>    8.4591   -0.0000 </r>
       <r>    8.5598   -0.0000 </r>
       <r>    8.6334   -0.0000 </r>
       <r>    8.7864   -0.0000 </r>
       <r>    9.3021   -0.0000 </r>
       <r>   10.5107   -0.0000 </r>
       <r>   10.6210   -0.0000 </r>
       <r>   10.7328   -0.0000 </r>
       <r>   11.6167   -0.0000 </r>
       <r>   12.0288   -0.0000 </r>
      </set>
      <set comment="kpoint 2">
       <r>   -3.5752    1.0000 </r>
       <r>   -1.6834    1.0000 </r>
       <r>   -1.2226    1.0000 </r>
       <r>   -1.0951    1.0000 </r>
       <r>   -0.8203    1.0000 </r>
       <r>   -0.5508    1.0000 </r>
       <r>   -0.3499    1.0000 </r>
       <r>   -0.2313    1.0000 </r>
       <r>   -0.0622    1.0000 </r>
       <r>    0.0274    1.0000 </r>
       <r>    0.1499    1.0000 </r>
       <r>    0.3865    1.0000 </r>
       <r>    0.8435    1.0000 </r>
       <r>    0.9564    1.0000 </r>
       <r>    1.2828    1.0000 </r>
       <r>    2.8802    1.0000 </r>
       <r>    3.1040    1.0000 </r>
       <r>    3.2747    1.0000 </r>
       <r>    3.8014    1.0000 </r>
       <r>    3.9167    1.0000 </r>
       <r>    4.0967    1.0000 </r>
       <r>    4.1381    1.0000 </r>
       <r>    4.2838    1.0000 </r>
       <r>    4.3421    1.0000 </r>
       <r>    4.8354    1.0000 </r>
       <r>    4.9608    1.0000 </r>
       <r>    5.0673    1.0000 </r>
       <r>    5.2466    1.0000 </r>
       <r>    5.3624    1.0000 </r>
       <r>    5.5240    1.0000 </r>
       <r>    5.7268    1.0000 </r>
       <r>    5.9285    1.0000 </r>
       <r>    5.9870    1.0000 </r>
       <r>    6.0263    1.0000 </r>
       <r>    6.1721    1.0000 </r>
       <r>    6.2945    1.0000 </r>
       <r>    6.4145    1.0000 </r>
       <r>    6.5764    1.0000 </r>
       <r>    6.6971    1.0002 </r>
       <r>    6.7562    1.0009 </r>
       <r>    7.0911    1.0079 </r>
       <r>    7.2709    0.4844 </r>
       <r>    7.2946    0.3854 </r>
       <r>    7.3804    0.0958 </r>
       <r>    7.4544   -0.0172 </r>
       <r>    7.5655   -0.0280 </r>
       <r>    7.6169   -0.0165 </r>
       <r>    7.6994   -0.0046 </r>
       <r>    7.7911   -0.0007 </r>
       <r>    7.8856   -0.0001 </r>
       <r>    7.9738   -0.0000 </r>
       <r>    8.0336   -0.0000 </r>
       <r>    8.2911   -0.0000 </r>
       <r>    8.3939   -0.0000 </r>
       <r>    8.4522   -0.0000 </r>
       <r>    8.5271   -0.0000 </r>
       <r>    8.6289   -0.0000 </r>
       <r>    8.7944   -0.0000 </r>
       <r>    9.2974   -0.0000 </r>
       <r>   10.5521   -0.0000 </r>
       <r>   10.6315   -0.0000 </r>
       <r>   10.6861   -0.0000 </r>
       <r>   11.7768   -0.0000 </r>
       <r>   11.9807   -0.0000 </r>
      </set>
      <set comment="kpoint 3">
       <r>   -3.5762    1.0000 </r>
       <r>   -1.6319    1.0000 </r>
       <r>   -1.3040    1.0000 </r>
       <r>   -1.1111    1.0000 </r>
       <r>   -0.8165    1.0000 </r>
       <r>   -0.4535    1.0000 </r>
       <r>   -0.3875    1.0000 </r>
       <r>   -0.2194    1.0000 </r>
       <r>   -0.1542    1.0000 </r>
       <r>    0.1029    1.0000 </r>
       <r>    0.2013    1.0000 </r>
       <r>    0.3432    1.0000 </r>
       <r>    0.7503    1.0000 </r>
       <r>    1.0583    1.0000 </r>
       <r>    1.2477    1.0000 </r>
       <r>    2.8306    1.0000 </r>
       <r>    3.1969    1.0000 </r>
       <r>    3.3163    1.0000 </r>
       <r>    3.7533    1.0000 </r>
       <r>    3.9454    1.0000 </r>
       <r>    4.0199    1.0000 </r>
       <r>    4.1394    1.0000 </r>
       <r>    4.2351    1.0000 </r>
       <r>    4.3723    1.0000 </r>
       <r>    4.7664    1.0000 </r>
       <r>    5.0311    1.0000 </r>
       <r>    5.1429    1.0000 </r>
       <r>    5.2702    1.0000 </r>
       <r>    5.3591    1.0000 </r>
       <r>    5.5180    1.0000 </r>
       <r>    5.6936    1.0000 </r>
       <r>    5.8372    1.0000 </r>
       <r>    6.0347    1.0000 </r>
       <r>    6.0643    1.0000 </r>
       <r>    6.1380    1.0000 </r>
       <r>    6.3104    1.0000 </r>
       <r>    6.4596    1.0000 </r>
       <r>    6.5346    1.0000 </r>
       <r>    6.6481    1.0001 </r>
       <r>    6.7427    1.0007 </r>
       <r>    7.1425    0.9303 </r>
       <r>    7.2106    0.7294 </r>
       <r>    7.3207    0.2824 </r>
       <r>    7.4014    0.0506 </r>
       <r>    7.4777   -0.0298 </r>
       <r>    7.5499   -0.0313 </r>
       <r>    7.5889   -0.0227 </r>
       <r>    7.7662   -0.0012 </r>
       <r>    7.7997   -0.0005 </r>
       <r>    7.8855   -0.0001 </r>
       <r>    7.9387   -0.0000 </r>
       <r>    8.1386   -0.0000 </r>
       <r>    8.2320   -0.0000 </r>
       <r>    8.3764   -0.0000 </r>
       <r>    8.4466   -0.0000 </r>
       <r>    8.4901   -0.0000 </r>
       <r>    8.6008   -0.0000 </r>
       <r>    8.8331   -0.0000 </r>
       <r>    9.2973   -0.0000 </r>
       <r>   10.5730   -0.0000 </r>
       <r>   10.6397   -0.0000 </r>
       <r>   10.6770   -0.0000 </r>
       <r>   11.7224   -0.0000 </r>
       <r>   11.9296   -0.0000 </r>
      </set>
      <set comment="kpoint 4">
       <r>   -3.5796    1.0000 </r>
       <r>   -1.5298    1.0000 </r>
       <r>   -1.3905    1.0000 </r>
       <r>   -1.0653    1.0000 </r>
       <r>   -0.8590    1.0000 </r>
       <r>   -0.5573    1.0000 </r>
       <r>   -0.4164    1.0000 </r>
       <r>   -0.2125    1.0000 </r>
       <r>   -0.1335    1.0000 </r>
       <r>    0.1070    1.0000 </r>
       <r>    0.3065    1.0000 </r>
       <r>    0.3810    1.0000 </r>
       <r>    0.7231    1.0000 </r>
       <r>    1.0096    1.0000 </r>
       <r>    1.2401    1.0000 </r>
       <r>    2.9255    1.0000 </r>
       <r>    3.2020    1.0000 </r>
       <r>    3.4842    1.0000 </r>
       <r>    3.6884    1.0000 </r>
       <r>    3.7593    1.0000 </r>
       <r>    3.9217    1.0000 </r>
       <r>    4.1277    1.0000 </r>
       <r>    4.3017    1.0000 </r>
       <r>    4.3461    1.0000 </r>
       <r>    4.7374    1.0000 </r>
       <r>    5.0089    1.0000 </r>
       <r>    5.2244    1.0000 </r>
       <r>    5.3180    1.0000 </r>
       <r>    5.4727    1.0000 </r>
       <r>    5.5591    1.0000 </r>
       <r>    5.6845    1.0000 </r>
       <r>    5.8684    1.0000 </r>
       <r>    5.9690    1.0000 </r>
       <r>    6.0749    1.0000 </r>
       <r>    6.2599    1.0000 </r>
       <r>    6.3111    1.0000 </r>
       <r>    6.3621    1.0000 </r>
       <r>    6.5081    1.0000 </r>
       <r>    6.5654    1.0000 </r>
       <r>    6.6431    1.0000 </r>
       <r>    7.0034    1.0343 </r>
       <r>    7.0460    1.0329 </r>
       <r>    7.1988    0.7717 </r>
       <r>    7.4889   -0.0330 </r>
       <r>    7.5151   -0.0354 </r>
       <r>    7.6292   -0.0141 </r>
       <r>    7.6861   -0.0058 </r>
       <r>    7.7553   -0.0015 </r>
       <r>    7.9128   -0.0000 </r>
       <r>    7.9827   -0.0000 </r>
       <r>    8.0488   -0.0000 </r>
       <r>    8.2058   -0.0000 </r>
       <r>    8.2735   -0.0000 </r>
       <r>    8.3269   -0.0000 </r>
       <r>    8.3831   -0.0000 </r>
       <r>    8.4599   -0.0000 </r>
       <r>    8.5568   -0.0000 </r>
       <r>    8.7562   -0.0000 </r>
       <r>    9.2895   -0.0000 </r>
       <r>   10.5555   -0.0000 </r>
       <r>   10.6605   -0.0000 </r>
       <r>   10.7481   -0.0000 </r>
       <r>   11.7516   -0.0000 </r>
       <r>   12.0076   -0.0000 </r>
      </set>
      <set comment="kpoint 5">
       <r>   -3.3526    1.0000 </r>
       <r>   -2.2887    1.0000 </r>
       <r>   -1.6405    1.0000 </r>
       <r>   -0.9210    1.0000 </r>
       <r>   -0.8326    1.0000 </r>
       <r>   -0.7467    1.0000 </r>
       <r>   -0.6677    1.0000 </r>
       <r>   -0.1214    1.0000 </r>
       <r>    0.1979    1.0000 </r>
       <r>    0.3213    1.0000 </r>
       <r>    0.6738    1.0000 </r>
       <r>    1.1308    1.0000 </r>
       <r>    1.3124    1.0000 </r>
       <r>    1.4800    1.0000 </r>
       <r>    2.0297    1.0000 </r>
       <r>    2.2468    1.0000 </r>
       <r>    2.4542    1.0000 </r>
       <r>    2.5956    1.0000 </r>
       <r>    3.2676    1.0000 </r>
       <r>    3.4823    1.0000 </r>
       <r>    3.7902    1.0000 </r>
       <r>    3.8808    1.0000 </r>
       <r>    4.2673    1.0000 </r>
       <r>    4.3886    1.0000 </r>
       <r>    4.5103    1.0000 </r>
       <r>    4.6856    1.0000 </r>
       <r>    4.8811    1.0000 </r>
       <r>    4.9398    1.0000 </r>
       <r>    5.1500    1.0000 </r>
       <r>    5.2919    1.0000 </r>
       <r>    5.5021    1.0000 </r>
       <r>    5.6325    1.0000 </r>
       <r>    5.7780    1.0000 </r>
       <r>    5.8994    1.0000 </r>
       <r>    5.9678    1.0000 </r>
       <r>    6.0975    1.0000 </r>
       <r>    6.2877    1.0000 </r>
       <r>    6.3025    1.0000 </r>
       <r>    6.4361    1.0000 </r>
       <r>    6.7708    1.0013 </r>
       <r>    7.1029    0.9953 </r>
       <r>    7.4265    0.0109 </r>
       <r>    7.5200   -0.0352 </r>
       <r>    7.6476   -0.0108 </r>
       <r>    7.8534   -0.0001 </r>
       <r>    8.0683   -0.0000 </r>
       <r>    8.3723   -0.0000 </r>
       <r>    8.4134   -0.0000 </r>
       <r>    8.5663   -0.0000 </r>
       <r>    8.5960   -0.0000 </r>
       <r>    8.7797   -0.0000 </r>
       <r>    8.9064   -0.0000 </r>
       <r>    9.0437   -0.0000 </r>
       <r>    9.1468   -0.0000 </r>
       <r>    9.4621   -0.0000 </r>
       <r>    9.5728   -0.0000 </r>
       <r>    9.6657   -0.0000 </r>
       <r>    9.8469   -0.0000 </r>
       <r>   10.0650   -0.0000 </r>
       <r>   10.2551   -0.0000 </r>
       <r>   10.3587   -0.0000 </r>
       <r>   10.4704   -0.0000 </r>
       <r>   10.6716   -0.0000 </r>
       <r>   10.7817   -0.0000 </r>
      </set>
      <set comment="kpoint 6">
       <r>   -3.3897    1.0000 </r>
       <r>   -2.0468    1.0000 </r>
       <r>   -1.7260    1.0000 </r>
       <r>   -1.2215    1.0000 </r>
       <r>   -0.9782    1.0000 </r>
       <r>   -0.6581    1.0000 </r>
       <r>   -0.3453    1.0000 </r>
       <r>   -0.1540    1.0000 </r>
       <r>    0.0131    1.0000 </r>
       <r>    0.2567    1.0000 </r>
       <r>    0.8924    1.0000 </r>
       <r>    1.0324    1.0000 </r>
       <r>    1.3102    1.0000 </r>
       <r>    1.7328    1.0000 </r>
       <r>    1.8195    1.0000 </r>
       <r>    2.2049    1.0000 </r>
       <r>    2.4600    1.0000 </r>
       <r>    2.9427    1.0000 </r>
       <r>    2.9886    1.0000 </r>
       <r>    3.5247    1.0000 </r>
       <r>    3.8540    1.0000 </r>
       <r>    4.0974    1.0000 </r>
       <r>    4.2796    1.0000 </r>
       <r>    4.3943    1.0000 </r>
       <r>    4.4828    1.0000 </r>
       <r>    4.7034    1.0000 </r>
       <r>    4.7693    1.0000 </r>
       <r>    4.8841    1.0000 </r>
       <r>    5.0080    1.0000 </r>
       <r>    5.3505    1.0000 </r>
       <r>    5.4775    1.0000 </r>
       <r>    5.5371    1.0000 </r>
       <r>    5.6641    1.0000 </r>
       <r>    5.8505    1.0000 </r>
       <r>    5.9586    1.0000 </r>
       <r>    6.0645    1.0000 </r>
       <r>    6.1271    1.0000 </r>
       <r>    6.5015    1.0000 </r>
       <r>    6.5631    1.0000 </r>
       <r>    6.7837    1.0017 </r>
       <r>    7.0441    1.0333 </r>
       <r>    7.2665    0.5028 </r>
       <r>    7.4657   -0.0243 </r>
       <r>    7.6852   -0.0059 </r>
       <r>    7.8728   -0.0001 </r>
       <r>    8.1310   -0.0000 </r>
       <r>    8.3477   -0.0000 </r>
       <r>    8.4037   -0.0000 </r>
       <r>    8.5119   -0.0000 </r>
       <r>    8.5916   -0.0000 </r>
       <r>    8.7985   -0.0000 </r>
       <r>    8.9264   -0.0000 </r>
       <r>    9.1505   -0.0000 </r>
       <r>    9.2937   -0.0000 </r>
       <r>    9.4428   -0.0000 </r>
       <r>    9.5450   -0.0000 </r>
       <r>    9.8086   -0.0000 </r>
       <r>   10.0124   -0.0000 </r>
       <r>   10.1161   -0.0000 </r>
       <r>   10.1905   -0.0000 </r>
       <r>   10.3925   -0.0000 </r>
       <r>   10.4157   -0.0000 </r>
       <r>   10.5364   -0.0000 </r>
       <r>   10.9002   -0.0000 </r>
      </set>
      <set comment="kpoint 7">
       <r>   -3.3637    1.0000 </r>
       <r>   -2.1905    1.0000 </r>
       <r>   -1.7690    1.0000 </r>
       <r>   -0.9612    1.0000 </r>
       <r>   -0.8163    1.0000 </r>
       <r>   -0.7064    1.0000 </r>
       <r>   -0.5910    1.0000 </r>
       <r>   -0.1584    1.0000 </r>
       <r>    0.0976    1.0000 </r>
       <r>    0.3262    1.0000 </r>
       <r>    0.8176    1.0000 </r>
       <r>    1.0932    1.0000 </r>
       <r>    1.2886    1.0000 </r>
       <r>    1.4871    1.0000 </r>
       <r>    1.9712    1.0000 </r>
       <r>    2.2107    1.0000 </r>
       <r>    2.5231    1.0000 </r>
       <r>    2.6629    1.0000 </r>
       <r>    3.2953    1.0000 </r>
       <r>    3.3881    1.0000 </r>
       <r>    3.8499    1.0000 </r>
       <r>    3.9493    1.0000 </r>
       <r>    4.2645    1.0000 </r>
       <r>    4.3956    1.0000 </r>
       <r>    4.4251    1.0000 </r>
       <r>    4.7073    1.0000 </r>
       <r>    4.8078    1.0000 </r>
       <r>    4.9696    1.0000 </r>
       <r>    5.1104    1.0000 </r>
       <r>    5.2470    1.0000 </r>
       <r>    5.5398    1.0000 </r>
       <r>    5.6399    1.0000 </r>
       <r>    5.7282    1.0000 </r>
       <r>    5.9371    1.0000 </r>
       <r>    6.0309    1.0000 </r>
       <r>    6.0671    1.0000 </r>
       <r>    6.2156    1.0000 </r>
       <r>    6.2985    1.0000 </r>
       <r>    6.4413    1.0000 </r>
       <r>    6.8282    1.0040 </r>
       <r>    7.0893    1.0095 </r>
       <r>    7.3642    0.1383 </r>
       <r>    7.5588   -0.0295 </r>
       <r>    7.6588   -0.0091 </r>
       <r>    7.9095   -0.0000 </r>
       <r>    8.0685   -0.0000 </r>
       <r>    8.3295   -0.0000 </r>
       <r>    8.4342   -0.0000 </r>
       <r>    8.5183   -0.0000 </r>
       <r>    8.6156   -0.0000 </r>
       <r>    8.7978   -0.0000 </r>
       <r>    8.9006   -0.0000 </r>
       <r>    9.0836   -0.0000 </r>
       <r>    9.1750   -0.0000 </r>
       <r>    9.4842   -0.0000 </r>
       <r>    9.5854   -0.0000 </r>
       <r>    9.7159   -0.0000 </r>
       <r>    9.8101   -0.0000 </r>
       <r>   10.0473   -0.0000 </r>
       <r>   10.2387   -0.0000 </r>
       <r>   10.3349   -0.0000 </r>
       <r>   10.4791   -0.0000 </r>
       <r>   10.6424   -0.0000 </r>
       <r>   10.7811   -0.0000 </r>
      </set>
      <set comment="kpoint 8">
       <r>   -3.3667    1.0000 </r>
       <r>   -2.1688    1.0000 </r>
       <r>   -1.7549    1.0000 </r>
       <r>   -1.1166    1.0000 </r>
       <r>   -0.8135    1.0000 </r>
       <r>   -0.6205    1.0000 </r>
       <r>   -0.5267    1.0000 </r>
       <r>   -0.1789    1.0000 </r>
       <r>    0.0319    1.0000 </r>
       <r>    0.3967    1.0000 </r>
       <r>    0.7917    1.0000 </r>
       <r>    1.1360    1.0000 </r>
       <r>    1.2631    1.0000 </r>
       <r>    1.5755    1.0000 </r>
       <r>    1.9212    1.0000 </r>
       <r>    2.2529    1.0000 </r>
       <r>    2.3495    1.0000 </r>
       <r>    2.7633    1.0000 </r>
       <r>    3.1576    1.0000 </r>
       <r>    3.4567    1.0000 </r>
       <r>    3.7926    1.0000 </r>
       <r>    4.0496    1.0000 </r>
       <r>    4.2713    1.0000 </r>
       <r>    4.3430    1.0000 </r>
       <r>    4.5156    1.0000 </r>
       <r>    4.6558    1.0000 </r>
       <r>    4.7730    1.0000 </r>
       <r>    4.9743    1.0000 </r>
       <r>    5.1866    1.0000 </r>
       <r>    5.3568    1.0000 </r>
       <r>    5.5118    1.0000 </r>
       <r>    5.6300    1.0000 </r>
       <r>    5.7131    1.0000 </r>
       <r>    5.9141    1.0000 </r>
       <r>    5.9648    1.0000 </r>
       <r>    6.0424    1.0000 </r>
       <r>    6.1350    1.0000 </r>
       <r>    6.3805    1.0000 </r>
       <r>    6.5074    1.0000 </r>
       <r>    6.7907    1.0019 </r>
       <r>    7.0752    1.0204 </r>
       <r>    7.3788    0.0996 </r>
       <r>    7.5244   -0.0349 </r>
       <r>    7.6968   -0.0048 </r>
       <r>    7.8488   -0.0002 </r>
       <r>    8.0554   -0.0000 </r>
       <r>    8.3474   -0.0000 </r>
       <r>    8.4642   -0.0000 </r>
       <r>    8.5573   -0.0000 </r>
       <r>    8.6439   -0.0000 </r>
       <r>    8.8206   -0.0000 </r>
       <r>    8.8803   -0.0000 </r>
       <r>    9.1067   -0.0000 </r>
       <r>    9.2296   -0.0000 </r>
       <r>    9.3897   -0.0000 </r>
       <r>    9.5065   -0.0000 </r>
       <r>    9.6829   -0.0000 </r>
       <r>    9.8586   -0.0000 </r>
       <r>   10.0848   -0.0000 </r>
       <r>   10.2496   -0.0000 </r>
       <r>   10.2824   -0.0000 </r>
       <r>   10.5230   -0.0000 </r>
       <r>   10.6116   -0.0000 </r>
       <r>   10.8208   -0.0000 </r>
      </set>
      <set comment="kpoint 9">
       <r>   -3.3487    1.0000 </r>
       <r>   -2.3046    1.0000 </r>
       <r>   -1.6498    1.0000 </r>
       <r>   -0.9071    1.0000 </r>
       <r>   -0.8267    1.0000 </r>
       <r>   -0.7501    1.0000 </r>
       <r>   -0.5652    1.0000 </r>
       <r>   -0.2420    1.0000 </r>
       <r>    0.1853    1.0000 </r>
       <r>    0.3661    1.0000 </r>
       <r>    0.7130    1.0000 </r>
       <r>    1.0924    1.0000 </r>
       <r>    1.2521    1.0000 </r>
       <r>    1.4845    1.0000 </r>
       <r>    2.0391    1.0000 </r>
       <r>    2.2529    1.0000 </r>
       <r>    2.4546    1.0000 </r>
       <r>    2.6172    1.0000 </r>
       <r>    3.3196    1.0000 </r>
       <r>    3.4636    1.0000 </r>
       <r>    3.8005    1.0000 </r>
       <r>    3.8520    1.0000 </r>
       <r>    4.2485    1.0000 </r>
       <r>    4.3544    1.0000 </r>
       <r>    4.5293    1.0000 </r>
       <r>    4.7041    1.0000 </r>
       <r>    4.8609    1.0000 </r>
       <r>    5.0206    1.0000 </r>
       <r>    5.1861    1.0000 </r>
       <r>    5.3516    1.0000 </r>
       <r>    5.4207    1.0000 </r>
       <r>    5.6063    1.0000 </r>
       <r>    5.7381    1.0000 </r>
       <r>    5.9135    1.0000 </r>
       <r>    5.9506    1.0000 </r>
       <r>    6.0606    1.0000 </r>
       <r>    6.2246    1.0000 </r>
       <r>    6.3179    1.0000 </r>
       <r>    6.4928    1.0000 </r>
       <r>    6.8210    1.0035 </r>
       <r>    7.0703    1.0234 </r>
       <r>    7.4006    0.0522 </r>
       <r>    7.5418   -0.0327 </r>
       <r>    7.6938   -0.0051 </r>
       <r>    7.8900   -0.0000 </r>
       <r>    8.0179   -0.0000 </r>
       <r>    8.2808   -0.0000 </r>
       <r>    8.4024   -0.0000 </r>
       <r>    8.5997   -0.0000 </r>
       <r>    8.6458   -0.0000 </r>
       <r>    8.8175   -0.0000 </r>
       <r>    8.9640   -0.0000 </r>
       <r>    9.0292   -0.0000 </r>
       <r>    9.1202   -0.0000 </r>
       <r>    9.4422   -0.0000 </r>
       <r>    9.5415   -0.0000 </r>
       <r>    9.6247   -0.0000 </r>
       <r>    9.7989   -0.0000 </r>
       <r>   10.1495   -0.0000 </r>
       <r>   10.2562   -0.0000 </r>
       <r>   10.4139   -0.0000 </r>
       <r>   10.4213   -0.0000 </r>
       <r>   10.6754   -0.0000 </r>
       <r>   10.8203   -0.0000 </r>
      </set>
      <set comment="kpoint 10">
       <r>   -3.3918    1.0000 </r>
       <r>   -2.0076    1.0000 </r>
       <r>   -1.7907    1.0000 </r>
       <r>   -1.1215    1.0000 </r>
       <r>   -1.0284    1.0000 </r>
       <r>   -0.5786    1.0000 </r>
       <r>   -0.5176    1.0000 </r>
       <r>   -0.0884    1.0000 </r>
       <r>    0.0793    1.0000 </r>
       <r>    0.1567    1.0000 </r>
       <r>    0.8444    1.0000 </r>
       <r>    1.0624    1.0000 </r>
       <r>    1.3691    1.0000 </r>
       <r>    1.7325    1.0000 </r>
       <r>    1.8718    1.0000 </r>
       <r>    2.1012    1.0000 </r>
       <r>    2.6702    1.0000 </r>
       <r>    2.7677    1.0000 </r>
       <r>    3.2091    1.0000 </r>
       <r>    3.3244    1.0000 </r>
       <r>    3.8918    1.0000 </r>
       <r>    4.0069    1.0000 </r>
       <r>    4.2250    1.0000 </r>
       <r>    4.3315    1.0000 </r>
       <r>    4.4969    1.0000 </r>
       <r>    4.6847    1.0000 </r>
       <r>    4.8047    1.0000 </r>
       <r>    4.9541    1.0000 </r>
       <r>    5.1488    1.0000 </r>
       <r>    5.2943    1.0000 </r>
       <r>    5.4449    1.0000 </r>
       <r>    5.5801    1.0000 </r>
       <r>    5.6092    1.0000 </r>
       <r>    5.8128    1.0000 </r>
       <r>    5.9741    1.0000 </r>
       <r>    6.1245    1.0000 </r>
       <r>    6.2766    1.0000 </r>
       <r>    6.3768    1.0000 </r>
       <r>    6.4413    1.0000 </r>
       <r>    6.8147    1.0031 </r>
       <r>    7.1251    0.9635 </r>
       <r>    7.2221    0.6857 </r>
       <r>    7.5028   -0.0351 </r>
       <r>    7.7429   -0.0020 </r>
       <r>    7.9381   -0.0000 </r>
       <r>    8.1068   -0.0000 </r>
       <r>    8.2676   -0.0000 </r>
       <r>    8.3558   -0.0000 </r>
       <r>    8.4868   -0.0000 </r>
       <r>    8.5802   -0.0000 </r>
       <r>    8.7940   -0.0000 </r>
       <r>    8.9171   -0.0000 </r>
       <r>    9.1671   -0.0000 </r>
       <r>    9.2457   -0.0000 </r>
       <r>    9.4491   -0.0000 </r>
       <r>    9.6700   -0.0000 </r>
       <r>    9.7729   -0.0000 </r>
       <r>    9.9405   -0.0000 </r>
       <r>   10.0494   -0.0000 </r>
       <r>   10.1770   -0.0000 </r>
       <r>   10.2926   -0.0000 </r>
       <r>   10.5625   -0.0000 </r>
       <r>   10.7728   -0.0000 </r>
       <r>   10.8769   -0.0000 </r>
      </set>
      <set comment="kpoint 11">
       <r>   -3.3926    1.0000 </r>
       <r>   -2.0385    1.0000 </r>
       <r>   -1.6938    1.0000 </r>
       <r>   -1.2457    1.0000 </r>
       <r>   -1.0333    1.0000 </r>
       <r>   -0.6287    1.0000 </r>
       <r>   -0.3751    1.0000 </r>
       <r>   -0.0661    1.0000 </r>
       <r>    0.0491    1.0000 </r>
       <r>    0.1742    1.0000 </r>
       <r>    0.8057    1.0000 </r>
       <r>    0.9853    1.0000 </r>
       <r>    1.5034    1.0000 </r>
       <r>    1.7076    1.0000 </r>
       <r>    1.9151    1.0000 </r>
       <r>    1.9982    1.0000 </r>
       <r>    2.5882    1.0000 </r>
       <r>    2.8724    1.0000 </r>
       <r>    3.1704    1.0000 </r>
       <r>    3.4530    1.0000 </r>
       <r>    3.7834    1.0000 </r>
       <r>    4.0313    1.0000 </r>
       <r>    4.2438    1.0000 </r>
       <r>    4.3468    1.0000 </r>
       <r>    4.4781    1.0000 </r>
       <r>    4.6243    1.0000 </r>
       <r>    4.8564    1.0000 </r>
       <r>    4.9535    1.0000 </r>
       <r>    5.1514    1.0000 </r>
       <r>    5.3089    1.0000 </r>
       <r>    5.4168    1.0000 </r>
       <r>    5.5220    1.0000 </r>
       <r>    5.6213    1.0000 </r>
       <r>    5.8484    1.0000 </r>
       <r>    5.9264    1.0000 </r>
       <r>    6.0926    1.0000 </r>
       <r>    6.3296    1.0000 </r>
       <r>    6.3989    1.0000 </r>
       <r>    6.5254    1.0000 </r>
       <r>    6.8197    1.0034 </r>
       <r>    7.0923    1.0068 </r>
       <r>    7.2776    0.4560 </r>
       <r>    7.4826   -0.0314 </r>
       <r>    7.6504   -0.0104 </r>
       <r>    7.9582   -0.0000 </r>
       <r>    8.1183   -0.0000 </r>
       <r>    8.2291   -0.0000 </r>
       <r>    8.3269   -0.0000 </r>
       <r>    8.4135   -0.0000 </r>
       <r>    8.5298   -0.0000 </r>
       <r>    8.8954   -0.0000 </r>
       <r>    9.0860   -0.0000 </r>
       <r>    9.1825   -0.0000 </r>
       <r>    9.2303   -0.0000 </r>
       <r>    9.3544   -0.0000 </r>
       <r>    9.6062   -0.0000 </r>
       <r>    9.8250   -0.0000 </r>
       <r>    9.8884   -0.0000 </r>
       <r>   10.1558   -0.0000 </r>
       <r>   10.2127   -0.0000 </r>
       <r>   10.3321   -0.0000 </r>
       <r>   10.4290   -0.0000 </r>
       <r>   10.7160   -0.0000 </r>
       <r>   10.9366   -0.0000 </r>
      </set>
      <set comment="kpoint 12">
       <r>   -3.3618    1.0000 </r>
       <r>   -2.2186    1.0000 </r>
       <r>   -1.6985    1.0000 </r>
       <r>   -1.0859    1.0000 </r>
       <r>   -0.8330    1.0000 </r>
       <r>   -0.6891    1.0000 </r>
       <r>   -0.4646    1.0000 </r>
       <r>   -0.1861    1.0000 </r>
       <r>    0.0142    1.0000 </r>
       <r>    0.3963    1.0000 </r>
       <r>    0.7931    1.0000 </r>
       <r>    1.1170    1.0000 </r>
       <r>    1.3326    1.0000 </r>
       <r>    1.5486    1.0000 </r>
       <r>    1.9369    1.0000 </r>
       <r>    2.2276    1.0000 </r>
       <r>    2.3927    1.0000 </r>
       <r>    2.6205    1.0000 </r>
       <r>    3.1913    1.0000 </r>
       <r>    3.5601    1.0000 </r>
       <r>    3.7429    1.0000 </r>
       <r>    4.0668    1.0000 </r>
       <r>    4.2780    1.0000 </r>
       <r>    4.3476    1.0000 </r>
       <r>    4.4848    1.0000 </r>
       <r>    4.6196    1.0000 </r>
       <r>    4.7731    1.0000 </r>
       <r>    5.0236    1.0000 </r>
       <r>    5.1544    1.0000 </r>
       <r>    5.4379    1.0000 </r>
       <r>    5.4948    1.0000 </r>
       <r>    5.6118    1.0000 </r>
       <r>    5.8013    1.0000 </r>
       <r>    5.8884    1.0000 </r>
       <r>    5.9550    1.0000 </r>
       <r>    6.0078    1.0000 </r>
       <r>    6.1431    1.0000 </r>
       <r>    6.3702    1.0000 </r>
       <r>    6.4441    1.0000 </r>
       <r>    6.7724    1.0013 </r>
       <r>    7.1004    0.9983 </r>
       <r>    7.4641   -0.0235 </r>
       <r>    7.5481   -0.0316 </r>
       <r>    7.6031   -0.0195 </r>
       <r>    7.8066   -0.0005 </r>
       <r>    8.1752   -0.0000 </r>
       <r>    8.3371   -0.0000 </r>
       <r>    8.4618   -0.0000 </r>
       <r>    8.5316   -0.0000 </r>
       <r>    8.5647   -0.0000 </r>
       <r>    8.8532   -0.0000 </r>
       <r>    8.9651   -0.0000 </r>
       <r>    9.0633   -0.0000 </r>
       <r>    9.1606   -0.0000 </r>
       <r>    9.3702   -0.0000 </r>
       <r>    9.6191   -0.0000 </r>
       <r>    9.6787   -0.0000 </r>
       <r>    9.8435   -0.0000 </r>
       <r>   10.1023   -0.0000 </r>
       <r>   10.1872   -0.0000 </r>
       <r>   10.3027   -0.0000 </r>
       <r>   10.5281   -0.0000 </r>
       <r>   10.6072   -0.0000 </r>
       <r>   10.8067   -0.0000 </r>
      </set>
      <set comment="kpoint 13">
       <r>   -3.3549    1.0000 </r>
       <r>   -2.2563    1.0000 </r>
       <r>   -1.7187    1.0000 </r>
       <r>   -0.9058    1.0000 </r>
       <r>   -0.8583    1.0000 </r>
       <r>   -0.6970    1.0000 </r>
       <r>   -0.4746    1.0000 </r>
       <r>   -0.2916    1.0000 </r>
       <r>    0.0386    1.0000 </r>
       <r>    0.4044    1.0000 </r>
       <r>    0.8360    1.0000 </r>
       <r>    1.0607    1.0000 </r>
       <r>    1.2553    1.0000 </r>
       <r>    1.4846    1.0000 </r>
       <r>    2.0252    1.0000 </r>
       <r>    2.2362    1.0000 </r>
       <r>    2.4546    1.0000 </r>
       <r>    2.5891    1.0000 </r>
       <r>    3.3601    1.0000 </r>
       <r>    3.4429    1.0000 </r>
       <r>    3.8147    1.0000 </r>
       <r>    3.9757    1.0000 </r>
       <r>    4.2253    1.0000 </r>
       <r>    4.3953    1.0000 </r>
       <r>    4.4820    1.0000 </r>
       <r>    4.6531    1.0000 </r>
       <r>    4.8270    1.0000 </r>
       <r>    5.0118    1.0000 </r>
       <r>    5.1505    1.0000 </r>
       <r>    5.3298    1.0000 </r>
       <r>    5.3822    1.0000 </r>
       <r>    5.6799    1.0000 </r>
       <r>    5.7652    1.0000 </r>
       <r>    5.8600    1.0000 </r>
       <r>    5.9534    1.0000 </r>
       <r>    6.0513    1.0000 </r>
       <r>    6.2496    1.0000 </r>
       <r>    6.3224    1.0000 </r>
       <r>    6.4639    1.0000 </r>
       <r>    6.8404    1.0051 </r>
       <r>    7.0796    1.0174 </r>
       <r>    7.4383   -0.0029 </r>
       <r>    7.5128   -0.0355 </r>
       <r>    7.6504   -0.0104 </r>
       <r>    7.9378   -0.0000 </r>
       <r>    8.0109   -0.0000 </r>
       <r>    8.2605   -0.0000 </r>
       <r>    8.4392   -0.0000 </r>
       <r>    8.4954   -0.0000 </r>
       <r>    8.7350   -0.0000 </r>
       <r>    8.8117   -0.0000 </r>
       <r>    9.0122   -0.0000 </r>
       <r>    9.0857   -0.0000 </r>
       <r>    9.1261   -0.0000 </r>
       <r>    9.4200   -0.0000 </r>
       <r>    9.5344   -0.0000 </r>
       <r>    9.6641   -0.0000 </r>
       <r>    9.8048   -0.0000 </r>
       <r>   10.1005   -0.0000 </r>
       <r>   10.2334   -0.0000 </r>
       <r>   10.3834   -0.0000 </r>
       <r>   10.5093   -0.0000 </r>
       <r>   10.6618   -0.0000 </r>
       <r>   10.7385   -0.0000 </r>
      </set>
      <set comment="kpoint 14">
       <r>   -3.3662    1.0000 </r>
       <r>   -2.2268    1.0000 </r>
       <r>   -1.5519    1.0000 </r>
       <r>   -1.3174    1.0000 </r>
       <r>   -0.8225    1.0000 </r>
       <r>   -0.6607    1.0000 </r>
       <r>   -0.3287    1.0000 </r>
       <r>   -0.1926    1.0000 </r>
       <r>    0.0780    1.0000 </r>
       <r>    0.2464    1.0000 </r>
       <r>    0.6928    1.0000 </r>
       <r>    1.1015    1.0000 </r>
       <r>    1.4454    1.0000 </r>
       <r>    1.6594    1.0000 </r>
       <r>    1.8473    1.0000 </r>
       <r>    2.1450    1.0000 </r>
       <r>    2.3577    1.0000 </r>
       <r>    2.6619    1.0000 </r>
       <r>    3.2467    1.0000 </r>
       <r>    3.7009    1.0000 </r>
       <r>    3.8340    1.0000 </r>
       <r>    4.1453    1.0000 </r>
       <r>    4.2284    1.0000 </r>
       <r>    4.3724    1.0000 </r>
       <r>    4.4338    1.0000 </r>
       <r>    4.4932    1.0000 </r>
       <r>    4.8549    1.0000 </r>
       <r>    4.9832    1.0000 </r>
       <r>    5.1484    1.0000 </r>
       <r>    5.2908    1.0000 </r>
       <r>    5.4388    1.0000 </r>
       <r>    5.5680    1.0000 </r>
       <r>    5.7495    1.0000 </r>
       <r>    5.8042    1.0000 </r>
       <r>    5.9485    1.0000 </r>
       <r>    6.0269    1.0000 </r>
       <r>    6.2067    1.0000 </r>
       <r>    6.4099    1.0000 </r>
       <r>    6.5861    1.0000 </r>
       <r>    6.7778    1.0015 </r>
       <r>    7.0556    1.0302 </r>
       <r>    7.4383   -0.0029 </r>
       <r>    7.5455   -0.0321 </r>
       <r>    7.7062   -0.0041 </r>
       <r>    7.8806   -0.0001 </r>
       <r>    8.0571   -0.0000 </r>
       <r>    8.1865   -0.0000 </r>
       <r>    8.2806   -0.0000 </r>
       <r>    8.5311   -0.0000 </r>
       <r>    8.6470   -0.0000 </r>
       <r>    8.8977   -0.0000 </r>
       <r>    9.0074   -0.0000 </r>
       <r>    9.0982   -0.0000 </r>
       <r>    9.2459   -0.0000 </r>
       <r>    9.4316   -0.0000 </r>
       <r>    9.5138   -0.0000 </r>
       <r>    9.7899   -0.0000 </r>
       <r>   10.0174   -0.0000 </r>
       <r>   10.0875   -0.0000 </r>
       <r>   10.2615   -0.0000 </r>
       <r>   10.2865   -0.0000 </r>
       <r>   10.5177   -0.0000 </r>
       <r>   10.5605   -0.0000 </r>
       <r>   10.7353   -0.0000 </r>
      </set>
      <set comment="kpoint 15">
       <r>   -3.3777    1.0000 </r>
       <r>   -2.1524    1.0000 </r>
       <r>   -1.5899    1.0000 </r>
       <r>   -1.2967    1.0000 </r>
       <r>   -1.0337    1.0000 </r>
       <r>   -0.5385    1.0000 </r>
       <r>   -0.2270    1.0000 </r>
       <r>   -0.1805    1.0000 </r>
       <r>    0.0304    1.0000 </r>
       <r>    0.1491    1.0000 </r>
       <r>    0.7902    1.0000 </r>
       <r>    1.0036    1.0000 </r>
       <r>    1.4797    1.0000 </r>
       <r>    1.7058    1.0000 </r>
       <r>    1.9864    1.0000 </r>
       <r>    2.0617    1.0000 </r>
       <r>    2.3822    1.0000 </r>
       <r>    2.6067    1.0000 </r>
       <r>    3.3805    1.0000 </r>
       <r>    3.6431    1.0000 </r>
       <r>    3.8329    1.0000 </r>
       <r>    4.0022    1.0000 </r>
       <r>    4.1786    1.0000 </r>
       <r>    4.2428    1.0000 </r>
       <r>    4.5103    1.0000 </r>
       <r>    4.5734    1.0000 </r>
       <r>    4.7748    1.0000 </r>
       <r>    5.0222    1.0000 </r>
       <r>    5.1800    1.0000 </r>
       <r>    5.3019    1.0000 </r>
       <r>    5.4249    1.0000 </r>
       <r>    5.5550    1.0000 </r>
       <r>    5.7418    1.0000 </r>
       <r>    5.8801    1.0000 </r>
       <r>    5.9726    1.0000 </r>
       <r>    6.0696    1.0000 </r>
       <r>    6.2052    1.0000 </r>
       <r>    6.3405    1.0000 </r>
       <r>    6.5599    1.0000 </r>
       <r>    6.8524    1.0062 </r>
       <r>    7.1089    0.9878 </r>
       <r>    7.4226    0.0161 </r>
       <r>    7.5038   -0.0352 </r>
       <r>    7.7081   -0.0039 </r>
       <r>    7.9272   -0.0000 </r>
       <r>    8.0781   -0.0000 </r>
       <r>    8.1833   -0.0000 </r>
       <r>    8.2717   -0.0000 </r>
       <r>    8.4561   -0.0000 </r>
       <r>    8.5071   -0.0000 </r>
       <r>    8.9428   -0.0000 </r>
       <r>    9.0134   -0.0000 </r>
       <r>    9.1225   -0.0000 </r>
       <r>    9.2471   -0.0000 </r>
       <r>    9.3621   -0.0000 </r>
       <r>    9.6017   -0.0000 </r>
       <r>    9.8375   -0.0000 </r>
       <r>    9.8792   -0.0000 </r>
       <r>   10.1865   -0.0000 </r>
       <r>   10.2459   -0.0000 </r>
       <r>   10.3227   -0.0000 </r>
       <r>   10.4452   -0.0000 </r>
       <r>   10.6081   -0.0000 </r>
       <r>   10.7376   -0.0000 </r>
      </set>
      <set comment="kpoint 16">
       <r>   -3.3722    1.0000 </r>
       <r>   -2.1930    1.0000 </r>
       <r>   -1.6069    1.0000 </r>
       <r>   -1.1609    1.0000 </r>
       <r>   -1.0629    1.0000 </r>
       <r>   -0.4672    1.0000 </r>
       <r>   -0.3869    1.0000 </r>
       <r>   -0.1736    1.0000 </r>
       <r>   -0.0289    1.0000 </r>
       <r>    0.1928    1.0000 </r>
       <r>    0.8172    1.0000 </r>
       <r>    1.0437    1.0000 </r>
       <r>    1.5247    1.0000 </r>
       <r>    1.6512    1.0000 </r>
       <r>    1.9676    1.0000 </r>
       <r>    2.1217    1.0000 </r>
       <r>    2.3786    1.0000 </r>
       <r>    2.5134    1.0000 </r>
       <r>    3.4434    1.0000 </r>
       <r>    3.5180    1.0000 </r>
       <r>    3.8854    1.0000 </r>
       <r>    4.0855    1.0000 </r>
       <r>    4.1165    1.0000 </r>
       <r>    4.3210    1.0000 </r>
       <r>    4.4429    1.0000 </r>
       <r>    4.6128    1.0000 </r>
       <r>    4.7243    1.0000 </r>
       <r>    5.0853    1.0000 </r>
       <r>    5.2080    1.0000 </r>
       <r>    5.2501    1.0000 </r>
       <r>    5.4335    1.0000 </r>
       <r>    5.5814    1.0000 </r>
       <r>    5.7464    1.0000 </r>
       <r>    5.9051    1.0000 </r>
       <r>    5.9720    1.0000 </r>
       <r>    6.0578    1.0000 </r>
       <r>    6.1199    1.0000 </r>
       <r>    6.3752    1.0000 </r>
       <r>    6.5163    1.0000 </r>
       <r>    6.8786    1.0096 </r>
       <r>    7.0917    1.0073 </r>
       <r>    7.4579   -0.0196 </r>
       <r>    7.5452   -0.0321 </r>
       <r>    7.6456   -0.0111 </r>
       <r>    7.9865   -0.0000 </r>
       <r>    8.0371   -0.0000 </r>
       <r>    8.1112   -0.0000 </r>
       <r>    8.2681   -0.0000 </r>
       <r>    8.4724   -0.0000 </r>
       <r>    8.6266   -0.0000 </r>
       <r>    8.9427   -0.0000 </r>
       <r>    9.0174   -0.0000 </r>
       <r>    9.1131   -0.0000 </r>
       <r>    9.1389   -0.0000 </r>
       <r>    9.3875   -0.0000 </r>
       <r>    9.6702   -0.0000 </r>
       <r>    9.7833   -0.0000 </r>
       <r>    9.9350   -0.0000 </r>
       <r>   10.1031   -0.0000 </r>
       <r>   10.2622   -0.0000 </r>
       <r>   10.3588   -0.0000 </r>
       <r>   10.5071   -0.0000 </r>
       <r>   10.6597   -0.0000 </r>
       <r>   10.7244   -0.0000 </r>
      </set>
      <set comment="kpoint 17">
       <r>   -3.1053    1.0000 </r>
       <r>   -2.6622    1.0000 </r>
       <r>   -1.7091    1.0000 </r>
       <r>   -1.2111    1.0000 </r>
       <r>   -0.9909    1.0000 </r>
       <r>   -0.7594    1.0000 </r>
       <r>   -0.4894    1.0000 </r>
       <r>    0.0091    1.0000 </r>
       <r>    0.2053    1.0000 </r>
       <r>    0.8418    1.0000 </r>
       <r>    1.0838    1.0000 </r>
       <r>    1.2110    1.0000 </r>
       <r>    1.3523    1.0000 </r>
       <r>    1.8186    1.0000 </r>
       <r>    2.1022    1.0000 </r>
       <r>    2.2961    1.0000 </r>
       <r>    2.6019    1.0000 </r>
       <r>    2.8303    1.0000 </r>
       <r>    3.0353    1.0000 </r>
       <r>    3.2654    1.0000 </r>
       <r>    3.4644    1.0000 </r>
       <r>    3.5436    1.0000 </r>
       <r>    3.8199    1.0000 </r>
       <r>    3.9161    1.0000 </r>
       <r>    4.0005    1.0000 </r>
       <r>    4.2242    1.0000 </r>
       <r>    4.6062    1.0000 </r>
       <r>    4.6814    1.0000 </r>
       <r>    4.9975    1.0000 </r>
       <r>    5.0835    1.0000 </r>
       <r>    5.3675    1.0000 </r>
       <r>    5.4402    1.0000 </r>
       <r>    5.6143    1.0000 </r>
       <r>    5.8468    1.0000 </r>
       <r>    6.0110    1.0000 </r>
       <r>    6.0888    1.0000 </r>
       <r>    6.1906    1.0000 </r>
       <r>    7.0729    1.0219 </r>
       <r>    7.1668    0.8711 </r>
       <r>    7.2409    0.6103 </r>
       <r>    7.5661   -0.0279 </r>
       <r>    7.7678   -0.0011 </r>
       <r>    7.8840   -0.0001 </r>
       <r>    7.9582   -0.0000 </r>
       <r>    8.1613   -0.0000 </r>
       <r>    8.2740   -0.0000 </r>
       <r>    8.4653   -0.0000 </r>
       <r>    8.5206   -0.0000 </r>
       <r>    8.6477   -0.0000 </r>
       <r>    8.9763   -0.0000 </r>
       <r>    9.1517   -0.0000 </r>
       <r>    9.2925   -0.0000 </r>
       <r>    9.3896   -0.0000 </r>
       <r>    9.5545   -0.0000 </r>
       <r>    9.6257   -0.0000 </r>
       <r>    9.7302   -0.0000 </r>
       <r>    9.7920   -0.0000 </r>
       <r>    9.9356   -0.0000 </r>
       <r>    9.9885   -0.0000 </r>
       <r>   10.1439   -0.0000 </r>
       <r>   10.2473   -0.0000 </r>
       <r>   10.3537   -0.0000 </r>
       <r>   10.5666   -0.0000 </r>
       <r>   10.6600   -0.0000 </r>
      </set>
      <set comment="kpoint 18">
       <r>   -3.2162    1.0000 </r>
       <r>   -2.3877    1.0000 </r>
       <r>   -1.7784    1.0000 </r>
       <r>   -1.3512    1.0000 </r>
       <r>   -1.0117    1.0000 </r>
       <r>   -0.8162    1.0000 </r>
       <r>   -0.3240    1.0000 </r>
       <r>   -0.1239    1.0000 </r>
       <r>    0.2833    1.0000 </r>
       <r>    0.6621    1.0000 </r>
       <r>    0.9900    1.0000 </r>
       <r>    1.1858    1.0000 </r>
       <r>    1.5397    1.0000 </r>
       <r>    1.8403    1.0000 </r>
       <r>    2.1158    1.0000 </r>
       <r>    2.5342    1.0000 </r>
       <r>    2.6567    1.0000 </r>
       <r>    2.8897    1.0000 </r>
       <r>    3.1604    1.0000 </r>
       <r>    3.2507    1.0000 </r>
       <r>    3.3807    1.0000 </r>
       <r>    3.5126    1.0000 </r>
       <r>    3.8107    1.0000 </r>
       <r>    3.8827    1.0000 </r>
       <r>    4.0367    1.0000 </r>
       <r>    4.3767    1.0000 </r>
       <r>    4.4731    1.0000 </r>
       <r>    4.5656    1.0000 </r>
       <r>    4.9762    1.0000 </r>
       <r>    5.0684    1.0000 </r>
       <r>    5.1980    1.0000 </r>
       <r>    5.3183    1.0000 </r>
       <r>    5.5933    1.0000 </r>
       <r>    5.8327    1.0000 </r>
       <r>    5.9691    1.0000 </r>
       <r>    6.1027    1.0000 </r>
       <r>    6.2995    1.0000 </r>
       <r>    6.9772    1.0298 </r>
       <r>    7.1810    0.8298 </r>
       <r>    7.3004    0.3618 </r>
       <r>    7.4555   -0.0180 </r>
       <r>    7.6935   -0.0051 </r>
       <r>    7.7924   -0.0006 </r>
       <r>    7.8925   -0.0000 </r>
       <r>    8.0728   -0.0000 </r>
       <r>    8.2557   -0.0000 </r>
       <r>    8.5381   -0.0000 </r>
       <r>    8.7137   -0.0000 </r>
       <r>    8.7550   -0.0000 </r>
       <r>    9.0120   -0.0000 </r>
       <r>    9.2124   -0.0000 </r>
       <r>    9.3032   -0.0000 </r>
       <r>    9.3822   -0.0000 </r>
       <r>    9.5288   -0.0000 </r>
       <r>    9.5818   -0.0000 </r>
       <r>    9.7340   -0.0000 </r>
       <r>    9.8907   -0.0000 </r>
       <r>    9.9359   -0.0000 </r>
       <r>   10.0063   -0.0000 </r>
       <r>   10.1248   -0.0000 </r>
       <r>   10.3070   -0.0000 </r>
       <r>   10.5400   -0.0000 </r>
       <r>   10.6758   -0.0000 </r>
       <r>   10.7962   -0.0000 </r>
      </set>
      <set comment="kpoint 19">
       <r>   -3.1364    1.0000 </r>
       <r>   -2.5831    1.0000 </r>
       <r>   -1.7872    1.0000 </r>
       <r>   -1.2489    1.0000 </r>
       <r>   -0.9379    1.0000 </r>
       <r>   -0.7711    1.0000 </r>
       <r>   -0.4392    1.0000 </r>
       <r>    0.0224    1.0000 </r>
       <r>    0.1884    1.0000 </r>
       <r>    0.8597    1.0000 </r>
       <r>    1.0252    1.0000 </r>
       <r>    1.1654    1.0000 </r>
       <r>    1.3320    1.0000 </r>
       <r>    1.8829    1.0000 </r>
       <r>    2.1374    1.0000 </r>
       <r>    2.3362    1.0000 </r>
       <r>    2.5905    1.0000 </r>
       <r>    2.8479    1.0000 </r>
       <r>    3.0261    1.0000 </r>
       <r>    3.2445    1.0000 </r>
       <r>    3.4824    1.0000 </r>
       <r>    3.5573    1.0000 </r>
       <r>    3.7659    1.0000 </r>
       <r>    3.8679    1.0000 </r>
       <r>    3.9712    1.0000 </r>
       <r>    4.2938    1.0000 </r>
       <r>    4.6018    1.0000 </r>
       <r>    4.7864    1.0000 </r>
       <r>    4.9512    1.0000 </r>
       <r>    5.1205    1.0000 </r>
       <r>    5.2386    1.0000 </r>
       <r>    5.4527    1.0000 </r>
       <r>    5.5667    1.0000 </r>
       <r>    5.8449    1.0000 </r>
       <r>    6.0274    1.0000 </r>
       <r>    6.0913    1.0000 </r>
       <r>    6.2257    1.0000 </r>
       <r>    7.0743    1.0210 </r>
       <r>    7.1705    0.8610 </r>
       <r>    7.3071    0.3348 </r>
       <r>    7.6118   -0.0176 </r>
       <r>    7.7593   -0.0014 </r>
       <r>    7.8624   -0.0001 </r>
       <r>    7.9032   -0.0000 </r>
       <r>    8.1231   -0.0000 </r>
       <r>    8.2508   -0.0000 </r>
       <r>    8.4226   -0.0000 </r>
       <r>    8.5636   -0.0000 </r>
       <r>    8.6412   -0.0000 </r>
       <r>    9.0415   -0.0000 </r>
       <r>    9.1223   -0.0000 </r>
       <r>    9.3030   -0.0000 </r>
       <r>    9.4039   -0.0000 </r>
       <r>    9.4423   -0.0000 </r>
       <r>    9.5468   -0.0000 </r>
       <r>    9.6978   -0.0000 </r>
       <r>    9.8188   -0.0000 </r>
       <r>   10.0016   -0.0000 </r>
       <r>   10.0753   -0.0000 </r>
       <r>   10.1339   -0.0000 </r>
       <r>   10.3083   -0.0000 </r>
       <r>   10.3579   -0.0000 </r>
       <r>   10.5694   -0.0000 </r>
       <r>   10.7426   -0.0000 </r>
      </set>
      <set comment="kpoint 20">
       <r>   -3.1360    1.0000 </r>
       <r>   -2.5875    1.0000 </r>
       <r>   -1.7750    1.0000 </r>
       <r>   -1.2705    1.0000 </r>
       <r>   -0.8642    1.0000 </r>
       <r>   -0.8323    1.0000 </r>
       <r>   -0.4301    1.0000 </r>
       <r>    0.0115    1.0000 </r>
       <r>    0.2165    1.0000 </r>
       <r>    0.8011    1.0000 </r>
       <r>    1.0081    1.0000 </r>
       <r>    1.1532    1.0000 </r>
       <r>    1.3888    1.0000 </r>
       <r>    1.8422    1.0000 </r>
       <r>    2.1199    1.0000 </r>
       <r>    2.3812    1.0000 </r>
       <r>    2.6288    1.0000 </r>
       <r>    2.8745    1.0000 </r>
       <r>    3.0099    1.0000 </r>
       <r>    3.2436    1.0000 </r>
       <r>    3.4557    1.0000 </r>
       <r>    3.5896    1.0000 </r>
       <r>    3.8111    1.0000 </r>
       <r>    3.8655    1.0000 </r>
       <r>    3.9336    1.0000 </r>
       <r>    4.2689    1.0000 </r>
       <r>    4.6427    1.0000 </r>
       <r>    4.7308    1.0000 </r>
       <r>    4.9595    1.0000 </r>
       <r>    5.0614    1.0000 </r>
       <r>    5.3422    1.0000 </r>
       <r>    5.4071    1.0000 </r>
       <r>    5.6077    1.0000 </r>
       <r>    5.7888    1.0000 </r>
       <r>    5.9355    1.0000 </r>
       <r>    6.0971    1.0000 </r>
       <r>    6.3118    1.0000 </r>
       <r>    7.1364    0.9428 </r>
       <r>    7.1967    0.7787 </r>
       <r>    7.2685    0.4945 </r>
       <r>    7.5673   -0.0276 </r>
       <r>    7.6997   -0.0046 </r>
       <r>    7.7994   -0.0005 </r>
       <r>    7.8656   -0.0001 </r>
       <r>    8.1238   -0.0000 </r>
       <r>    8.3149   -0.0000 </r>
       <r>    8.4895   -0.0000 </r>
       <r>    8.6089   -0.0000 </r>
       <r>    8.6662   -0.0000 </r>
       <r>    8.9495   -0.0000 </r>
       <r>    9.2653   -0.0000 </r>
       <r>    9.3087   -0.0000 </r>
       <r>    9.3291   -0.0000 </r>
       <r>    9.4265   -0.0000 </r>
       <r>    9.5734   -0.0000 </r>
       <r>    9.6732   -0.0000 </r>
       <r>    9.8585   -0.0000 </r>
       <r>   10.0131   -0.0000 </r>
       <r>   10.0429   -0.0000 </r>
       <r>   10.1737   -0.0000 </r>
       <r>   10.2295   -0.0000 </r>
       <r>   10.3928   -0.0000 </r>
       <r>   10.6149   -0.0000 </r>
       <r>   10.7293   -0.0000 </r>
      </set>
      <set comment="kpoint 21">
       <r>   -3.0719    1.0000 </r>
       <r>   -2.7194    1.0000 </r>
       <r>   -1.7142    1.0000 </r>
       <r>   -1.1958    1.0000 </r>
       <r>   -1.0112    1.0000 </r>
       <r>   -0.6736    1.0000 </r>
       <r>   -0.4591    1.0000 </r>
       <r>    0.0272    1.0000 </r>
       <r>    0.1728    1.0000 </r>
       <r>    0.7689    1.0000 </r>
       <r>    0.9958    1.0000 </r>
       <r>    1.2241    1.0000 </r>
       <r>    1.3275    1.0000 </r>
       <r>    1.8574    1.0000 </r>
       <r>    2.1653    1.0000 </r>
       <r>    2.2748    1.0000 </r>
       <r>    2.5615    1.0000 </r>
       <r>    2.8494    1.0000 </r>
       <r>    3.0387    1.0000 </r>
       <r>    3.3375    1.0000 </r>
       <r>    3.4948    1.0000 </r>
       <r>    3.6236    1.0000 </r>
       <r>    3.7968    1.0000 </r>
       <r>    3.8963    1.0000 </r>
       <r>    3.9932    1.0000 </r>
       <r>    4.0940    1.0000 </r>
       <r>    4.5911    1.0000 </r>
       <r>    4.7633    1.0000 </r>
       <r>    4.9540    1.0000 </r>
       <r>    5.1151    1.0000 </r>
       <r>    5.3635    1.0000 </r>
       <r>    5.4525    1.0000 </r>
       <r>    5.6378    1.0000 </r>
       <r>    5.7715    1.0000 </r>
       <r>    5.9904    1.0000 </r>
       <r>    6.1013    1.0000 </r>
       <r>    6.2944    1.0000 </r>
       <r>    7.0663    1.0256 </r>
       <r>    7.1376    0.9405 </r>
       <r>    7.2177    0.7027 </r>
       <r>    7.5821   -0.0243 </r>
       <r>    7.8022   -0.0005 </r>
       <r>    7.8796   -0.0001 </r>
       <r>    7.9389   -0.0000 </r>
       <r>    8.1038   -0.0000 </r>
       <r>    8.2242   -0.0000 </r>
       <r>    8.3440   -0.0000 </r>
       <r>    8.6057   -0.0000 </r>
       <r>    8.6961   -0.0000 </r>
       <r>    9.0194   -0.0000 </r>
       <r>    9.1973   -0.0000 </r>
       <r>    9.2697   -0.0000 </r>
       <r>    9.4026   -0.0000 </r>
       <r>    9.4646   -0.0000 </r>
       <r>    9.5634   -0.0000 </r>
       <r>    9.6954   -0.0000 </r>
       <r>    9.7822   -0.0000 </r>
       <r>   10.0168   -0.0000 </r>
       <r>   10.0478   -0.0000 </r>
       <r>   10.1920   -0.0000 </r>
       <r>   10.2423   -0.0000 </r>
       <r>   10.4027   -0.0000 </r>
       <r>   10.5535   -0.0000 </r>
       <r>   10.6868   -0.0000 </r>
      </set>
      <set comment="kpoint 22">
       <r>   -3.2157    1.0000 </r>
       <r>   -2.3918    1.0000 </r>
       <r>   -1.7430    1.0000 </r>
       <r>   -1.3394    1.0000 </r>
       <r>   -1.1893    1.0000 </r>
       <r>   -0.5889    1.0000 </r>
       <r>   -0.4329    1.0000 </r>
       <r>   -0.1065    1.0000 </r>
       <r>    0.2271    1.0000 </r>
       <r>    0.8478    1.0000 </r>
       <r>    0.9612    1.0000 </r>
       <r>    1.1612    1.0000 </r>
       <r>    1.3493    1.0000 </r>
       <r>    1.9825    1.0000 </r>
       <r>    2.2336    1.0000 </r>
       <r>    2.4095    1.0000 </r>
       <r>    2.6002    1.0000 </r>
       <r>    2.7950    1.0000 </r>
       <r>    3.2368    1.0000 </r>
       <r>    3.3515    1.0000 </r>
       <r>    3.4572    1.0000 </r>
       <r>    3.5393    1.0000 </r>
       <r>    3.6599    1.0000 </r>
       <r>    3.8352    1.0000 </r>
       <r>    4.0890    1.0000 </r>
       <r>    4.2969    1.0000 </r>
       <r>    4.3993    1.0000 </r>
       <r>    4.5482    1.0000 </r>
       <r>    5.0744    1.0000 </r>
       <r>    5.1271    1.0000 </r>
       <r>    5.2892    1.0000 </r>
       <r>    5.3540    1.0000 </r>
       <r>    5.5028    1.0000 </r>
       <r>    5.9267    1.0000 </r>
       <r>    5.9964    1.0000 </r>
       <r>    6.0989    1.0000 </r>
       <r>    6.1460    1.0000 </r>
       <r>    6.9788    1.0301 </r>
       <r>    7.1114    0.9845 </r>
       <r>    7.2803    0.4446 </r>
       <r>    7.5236   -0.0350 </r>
       <r>    7.7360   -0.0023 </r>
       <r>    7.8123   -0.0004 </r>
       <r>    7.8761   -0.0001 </r>
       <r>    8.2173   -0.0000 </r>
       <r>    8.3121   -0.0000 </r>
       <r>    8.4005   -0.0000 </r>
       <r>    8.5373   -0.0000 </r>
       <r>    8.8442   -0.0000 </r>
       <r>    9.1174   -0.0000 </r>
       <r>    9.1489   -0.0000 </r>
       <r>    9.3336   -0.0000 </r>
       <r>    9.3872   -0.0000 </r>
       <r>    9.4884   -0.0000 </r>
       <r>    9.6071   -0.0000 </r>
       <r>    9.7128   -0.0000 </r>
       <r>    9.8069   -0.0000 </r>
       <r>    9.9327   -0.0000 </r>
       <r>   10.0320   -0.0000 </r>
       <r>   10.1109   -0.0000 </r>
       <r>   10.2941   -0.0000 </r>
       <r>   10.5647   -0.0000 </r>
       <r>   10.6355   -0.0000 </r>
       <r>   10.7745   -0.0000 </r>
      </set>
      <set comment="kpoint 23">
       <r>   -3.2193    1.0000 </r>
       <r>   -2.3872    1.0000 </r>
       <r>   -1.6941    1.0000 </r>
       <r>   -1.3852    1.0000 </r>
       <r>   -1.2203    1.0000 </r>
       <r>   -0.6069    1.0000 </r>
       <r>   -0.3323    1.0000 </r>
       <r>   -0.1818    1.0000 </r>
       <r>    0.2411    1.0000 </r>
       <r>    0.8374    1.0000 </r>
       <r>    0.9845    1.0000 </r>
       <r>    1.1280    1.0000 </r>
       <r>    1.4017    1.0000 </r>
       <r>    1.9285    1.0000 </r>
       <r>    2.1767    1.0000 </r>
       <r>    2.5421    1.0000 </r>
       <r>    2.6527    1.0000 </r>
       <r>    2.7523    1.0000 </r>
       <r>    3.1488    1.0000 </r>
       <r>    3.3088    1.0000 </r>
       <r>    3.4914    1.0000 </r>
       <r>    3.6018    1.0000 </r>
       <r>    3.7085    1.0000 </r>
       <r>    3.7820    1.0000 </r>
       <r>    4.0969    1.0000 </r>
       <r>    4.2876    1.0000 </r>
       <r>    4.3887    1.0000 </r>
       <r>    4.5711    1.0000 </r>
       <r>    5.0128    1.0000 </r>
       <r>    5.1105    1.0000 </r>
       <r>    5.2569    1.0000 </r>
       <r>    5.3655    1.0000 </r>
       <r>    5.5623    1.0000 </r>
       <r>    5.8571    1.0000 </r>
       <r>    5.9786    1.0000 </r>
       <r>    6.1342    1.0000 </r>
       <r>    6.2007    1.0000 </r>
       <r>    6.9892    1.0321 </r>
       <r>    7.1343    0.9468 </r>
       <r>    7.2477    0.5821 </r>
       <r>    7.5044   -0.0352 </r>
       <r>    7.7426   -0.0020 </r>
       <r>    7.8306   -0.0003 </r>
       <r>    7.9195   -0.0000 </r>
       <r>    8.0814   -0.0000 </r>
       <r>    8.3426   -0.0000 </r>
       <r>    8.4831   -0.0000 </r>
       <r>    8.5681   -0.0000 </r>
       <r>    8.8155   -0.0000 </r>
       <r>    9.0839   -0.0000 </r>
       <r>    9.2036   -0.0000 </r>
       <r>    9.2735   -0.0000 </r>
       <r>    9.3973   -0.0000 </r>
       <r>    9.5412   -0.0000 </r>
       <r>    9.5718   -0.0000 </r>
       <r>    9.6911   -0.0000 </r>
       <r>    9.8514   -0.0000 </r>
       <r>    9.9742   -0.0000 </r>
       <r>   10.0429   -0.0000 </r>
       <r>   10.1005   -0.0000 </r>
       <r>   10.2682   -0.0000 </r>
       <r>   10.4988   -0.0000 </r>
       <r>   10.6067   -0.0000 </r>
       <r>   10.7782   -0.0000 </r>
      </set>
      <set comment="kpoint 24">
       <r>   -3.0967    1.0000 </r>
       <r>   -2.6802    1.0000 </r>
       <r>   -1.6839    1.0000 </r>
       <r>   -1.2827    1.0000 </r>
       <r>   -0.8851    1.0000 </r>
       <r>   -0.8096    1.0000 </r>
       <r>   -0.4740    1.0000 </r>
       <r>    0.0150    1.0000 </r>
       <r>    0.2699    1.0000 </r>
       <r>    0.7535    1.0000 </r>
       <r>    0.9726    1.0000 </r>
       <r>    1.1883    1.0000 </r>
       <r>    1.4126    1.0000 </r>
       <r>    1.8579    1.0000 </r>
       <r>    2.1013    1.0000 </r>
       <r>    2.4030    1.0000 </r>
       <r>    2.5996    1.0000 </r>
       <r>    2.8023    1.0000 </r>
       <r>    3.0071    1.0000 </r>
       <r>    3.2925    1.0000 </r>
       <r>    3.4139    1.0000 </r>
       <r>    3.5444    1.0000 </r>
       <r>    3.7599    1.0000 </r>
       <r>    3.8957    1.0000 </r>
       <r>    4.0682    1.0000 </r>
       <r>    4.2736    1.0000 </r>
       <r>    4.6366    1.0000 </r>
       <r>    4.7302    1.0000 </r>
       <r>    4.9386    1.0000 </r>
       <r>    5.0604    1.0000 </r>
       <r>    5.3490    1.0000 </r>
       <r>    5.4610    1.0000 </r>
       <r>    5.6285    1.0000 </r>
       <r>    5.7964    1.0000 </r>
       <r>    6.0240    1.0000 </r>
       <r>    6.0931    1.0000 </r>
       <r>    6.1760    1.0000 </r>
       <r>    7.1070    0.9903 </r>
       <r>    7.1646    0.8771 </r>
       <r>    7.2735    0.4735 </r>
       <r>    7.5235   -0.0350 </r>
       <r>    7.6973   -0.0048 </r>
       <r>    7.8206   -0.0003 </r>
       <r>    7.9963   -0.0000 </r>
       <r>    8.1854   -0.0000 </r>
       <r>    8.2872   -0.0000 </r>
       <r>    8.4115   -0.0000 </r>
       <r>    8.5436   -0.0000 </r>
       <r>    8.6616   -0.0000 </r>
       <r>    9.0284   -0.0000 </r>
       <r>    9.2413   -0.0000 </r>
       <r>    9.2752   -0.0000 </r>
       <r>    9.3931   -0.0000 </r>
       <r>    9.4942   -0.0000 </r>
       <r>    9.6170   -0.0000 </r>
       <r>    9.6940   -0.0000 </r>
       <r>    9.8095   -0.0000 </r>
       <r>    9.9595   -0.0000 </r>
       <r>   10.0376   -0.0000 </r>
       <r>   10.1063   -0.0000 </r>
       <r>   10.2341   -0.0000 </r>
       <r>   10.3618   -0.0000 </r>
       <r>   10.5980   -0.0000 </r>
       <r>   10.6926   -0.0000 </r>
      </set>
      <set comment="kpoint 25">
       <r>   -3.0617    1.0000 </r>
       <r>   -2.7351    1.0000 </r>
       <r>   -1.7086    1.0000 </r>
       <r>   -1.2260    1.0000 </r>
       <r>   -0.9923    1.0000 </r>
       <r>   -0.6549    1.0000 </r>
       <r>   -0.4527    1.0000 </r>
       <r>    0.0291    1.0000 </r>
       <r>    0.2008    1.0000 </r>
       <r>    0.7648    1.0000 </r>
       <r>    0.9530    1.0000 </r>
       <r>    1.1308    1.0000 </r>
       <r>    1.3675    1.0000 </r>
       <r>    1.9081    1.0000 </r>
       <r>    2.1628    1.0000 </r>
       <r>    2.3310    1.0000 </r>
       <r>    2.5700    1.0000 </r>
       <r>    2.8128    1.0000 </r>
       <r>    3.0353    1.0000 </r>
       <r>    3.3404    1.0000 </r>
       <r>    3.4404    1.0000 </r>
       <r>    3.6303    1.0000 </r>
       <r>    3.7310    1.0000 </r>
       <r>    3.8378    1.0000 </r>
       <r>    3.9995    1.0000 </r>
       <r>    4.2468    1.0000 </r>
       <r>    4.6214    1.0000 </r>
       <r>    4.7837    1.0000 </r>
       <r>    4.9204    1.0000 </r>
       <r>    5.0345    1.0000 </r>
       <r>    5.4674    1.0000 </r>
       <r>    5.5026    1.0000 </r>
       <r>    5.6131    1.0000 </r>
       <r>    5.7466    1.0000 </r>
       <r>    6.0533    1.0000 </r>
       <r>    6.0998    1.0000 </r>
       <r>    6.1821    1.0000 </r>
       <r>    7.1009    0.9977 </r>
       <r>    7.1188    0.9736 </r>
       <r>    7.2255    0.6724 </r>
       <r>    7.5581   -0.0296 </r>
       <r>    7.7835   -0.0008 </r>
       <r>    7.8509   -0.0001 </r>
       <r>    7.9541   -0.0000 </r>
       <r>    8.1213   -0.0000 </r>
       <r>    8.2189   -0.0000 </r>
       <r>    8.3770   -0.0000 </r>
       <r>    8.5575   -0.0000 </r>
       <r>    8.6871   -0.0000 </r>
       <r>    9.0947   -0.0000 </r>
       <r>    9.2329   -0.0000 </r>
       <r>    9.3326   -0.0000 </r>
       <r>    9.3549   -0.0000 </r>
       <r>    9.4850   -0.0000 </r>
       <r>    9.5286   -0.0000 </r>
       <r>    9.6508   -0.0000 </r>
       <r>    9.7778   -0.0000 </r>
       <r>    9.9521   -0.0000 </r>
       <r>   10.0260   -0.0000 </r>
       <r>   10.1434   -0.0000 </r>
       <r>   10.2698   -0.0000 </r>
       <r>   10.4189   -0.0000 </r>
       <r>   10.6024   -0.0000 </r>
       <r>   10.6902   -0.0000 </r>
      </set>
      <set comment="kpoint 26">
       <r>   -3.0566    1.0000 </r>
       <r>   -2.7502    1.0000 </r>
       <r>   -1.6081    1.0000 </r>
       <r>   -1.3601    1.0000 </r>
       <r>   -1.0117    1.0000 </r>
       <r>   -0.6433    1.0000 </r>
       <r>   -0.3433    1.0000 </r>
       <r>   -0.0571    1.0000 </r>
       <r>    0.3958    1.0000 </r>
       <r>    0.5624    1.0000 </r>
       <r>    0.9061    1.0000 </r>
       <r>    1.1147    1.0000 </r>
       <r>    1.4439    1.0000 </r>
       <r>    1.8666    1.0000 </r>
       <r>    2.1757    1.0000 </r>
       <r>    2.4384    1.0000 </r>
       <r>    2.5627    1.0000 </r>
       <r>    2.7116    1.0000 </r>
       <r>    3.1010    1.0000 </r>
       <r>    3.3064    1.0000 </r>
       <r>    3.4724    1.0000 </r>
       <r>    3.5685    1.0000 </r>
       <r>    3.7044    1.0000 </r>
       <r>    3.9528    1.0000 </r>
       <r>    4.0741    1.0000 </r>
       <r>    4.5010    1.0000 </r>
       <r>    4.5545    1.0000 </r>
       <r>    4.6471    1.0000 </r>
       <r>    4.7925    1.0000 </r>
       <r>    4.9758    1.0000 </r>
       <r>    5.2541    1.0000 </r>
       <r>    5.4576    1.0000 </r>
       <r>    5.6632    1.0000 </r>
       <r>    5.8213    1.0000 </r>
       <r>    6.0561    1.0000 </r>
       <r>    6.1968    1.0000 </r>
       <r>    6.2534    1.0000 </r>
       <r>    7.0611    1.0280 </r>
       <r>    7.1833    0.8226 </r>
       <r>    7.2958    0.3802 </r>
       <r>    7.5520   -0.0309 </r>
       <r>    7.6495   -0.0105 </r>
       <r>    7.8121   -0.0004 </r>
       <r>    7.9364   -0.0000 </r>
       <r>    8.1091   -0.0000 </r>
       <r>    8.1889   -0.0000 </r>
       <r>    8.4169   -0.0000 </r>
       <r>    8.6536   -0.0000 </r>
       <r>    8.7598   -0.0000 </r>
       <r>    8.9876   -0.0000 </r>
       <r>    9.2644   -0.0000 </r>
       <r>    9.2998   -0.0000 </r>
       <r>    9.3733   -0.0000 </r>
       <r>    9.5377   -0.0000 </r>
       <r>    9.6203   -0.0000 </r>
       <r>    9.6977   -0.0000 </r>
       <r>    9.8164   -0.0000 </r>
       <r>    9.9240   -0.0000 </r>
       <r>    9.9508   -0.0000 </r>
       <r>   10.0017   -0.0000 </r>
       <r>   10.1902   -0.0000 </r>
       <r>   10.4622   -0.0000 </r>
       <r>   10.5334   -0.0000 </r>
       <r>   10.7291   -0.0000 </r>
      </set>
      <set comment="kpoint 27">
       <r>   -3.1386    1.0000 </r>
       <r>   -2.5951    1.0000 </r>
       <r>   -1.6009    1.0000 </r>
       <r>   -1.3978    1.0000 </r>
       <r>   -1.2011    1.0000 </r>
       <r>   -0.5165    1.0000 </r>
       <r>   -0.3153    1.0000 </r>
       <r>   -0.1946    1.0000 </r>
       <r>    0.4268    1.0000 </r>
       <r>    0.7233    1.0000 </r>
       <r>    0.9603    1.0000 </r>
       <r>    1.0799    1.0000 </r>
       <r>    1.3631    1.0000 </r>
       <r>    1.9329    1.0000 </r>
       <r>    2.3021    1.0000 </r>
       <r>    2.4088    1.0000 </r>
       <r>    2.4758    1.0000 </r>
       <r>    2.6088    1.0000 </r>
       <r>    3.2311    1.0000 </r>
       <r>    3.3247    1.0000 </r>
       <r>    3.4292    1.0000 </r>
       <r>    3.5337    1.0000 </r>
       <r>    3.7452    1.0000 </r>
       <r>    3.9361    1.0000 </r>
       <r>    4.1135    1.0000 </r>
       <r>    4.3194    1.0000 </r>
       <r>    4.5000    1.0000 </r>
       <r>    4.5221    1.0000 </r>
       <r>    4.8688    1.0000 </r>
       <r>    5.0181    1.0000 </r>
       <r>    5.3716    1.0000 </r>
       <r>    5.4088    1.0000 </r>
       <r>    5.6531    1.0000 </r>
       <r>    5.9237    1.0000 </r>
       <r>    6.0825    1.0000 </r>
       <r>    6.1060    1.0000 </r>
       <r>    6.2694    1.0000 </r>
       <r>    7.0265    1.0354 </r>
       <r>    7.0850    1.0133 </r>
       <r>    7.2912    0.3992 </r>
       <r>    7.5235   -0.0350 </r>
       <r>    7.8339   -0.0002 </r>
       <r>    7.8783   -0.0001 </r>
       <r>    7.9844   -0.0000 </r>
       <r>    8.1553   -0.0000 </r>
       <r>    8.2613   -0.0000 </r>
       <r>    8.3535   -0.0000 </r>
       <r>    8.5604   -0.0000 </r>
       <r>    8.8587   -0.0000 </r>
       <r>    9.0428   -0.0000 </r>
       <r>    9.1267   -0.0000 </r>
       <r>    9.2788   -0.0000 </r>
       <r>    9.3676   -0.0000 </r>
       <r>    9.4919   -0.0000 </r>
       <r>    9.5514   -0.0000 </r>
       <r>    9.6756   -0.0000 </r>
       <r>    9.7547   -0.0000 </r>
       <r>    9.8694   -0.0000 </r>
       <r>   10.0001   -0.0000 </r>
       <r>   10.0312   -0.0000 </r>
       <r>   10.1019   -0.0000 </r>
       <r>   10.5735   -0.0000 </r>
       <r>   10.6306   -0.0000 </r>
       <r>   10.8114   -0.0000 </r>
      </set>
      <set comment="kpoint 28">
       <r>   -3.0927    1.0000 </r>
       <r>   -2.6934    1.0000 </r>
       <r>   -1.5308    1.0000 </r>
       <r>   -1.3296    1.0000 </r>
       <r>   -1.2537    1.0000 </r>
       <r>   -0.4800    1.0000 </r>
       <r>   -0.4328    1.0000 </r>
       <r>   -0.1369    1.0000 </r>
       <r>    0.3956    1.0000 </r>
       <r>    0.8291    1.0000 </r>
       <r>    0.9301    1.0000 </r>
       <r>    1.1575    1.0000 </r>
       <r>    1.2005    1.0000 </r>
       <r>    1.9756    1.0000 </r>
       <r>    2.2847    1.0000 </r>
       <r>    2.3985    1.0000 </r>
       <r>    2.4896    1.0000 </r>
       <r>    2.5805    1.0000 </r>
       <r>    3.1925    1.0000 </r>
       <r>    3.3335    1.0000 </r>
       <r>    3.4390    1.0000 </r>
       <r>    3.5830    1.0000 </r>
       <r>    3.7211    1.0000 </r>
       <r>    3.7686    1.0000 </r>
       <r>    4.2148    1.0000 </r>
       <r>    4.2768    1.0000 </r>
       <r>    4.5970    1.0000 </r>
       <r>    4.6494    1.0000 </r>
       <r>    4.8917    1.0000 </r>
       <r>    4.9425    1.0000 </r>
       <r>    5.4165    1.0000 </r>
       <r>    5.5163    1.0000 </r>
       <r>    5.5846    1.0000 </r>
       <r>    5.8600    1.0000 </r>
       <r>    6.0261    1.0000 </r>
       <r>    6.1316    1.0000 </r>
       <r>    6.2248    1.0000 </r>
       <r>    7.0608    1.0281 </r>
       <r>    7.1218    0.9690 </r>
       <r>    7.3487    0.1849 </r>
       <r>    7.5522   -0.0308 </r>
       <r>    7.7657   -0.0012 </r>
       <r>    7.8226   -0.0003 </r>
       <r>    7.9588   -0.0000 </r>
       <r>    8.1330   -0.0000 </r>
       <r>    8.1759   -0.0000 </r>
       <r>    8.4937   -0.0000 </r>
       <r>    8.5510   -0.0000 </r>
       <r>    8.7929   -0.0000 </r>
       <r>    9.0464   -0.0000 </r>
       <r>    9.1739   -0.0000 </r>
       <r>    9.2689   -0.0000 </r>
       <r>    9.4272   -0.0000 </r>
       <r>    9.4692   -0.0000 </r>
       <r>    9.5804   -0.0000 </r>
       <r>    9.7004   -0.0000 </r>
       <r>    9.8075   -0.0000 </r>
       <r>    9.9193   -0.0000 </r>
       <r>    9.9369   -0.0000 </r>
       <r>    9.9859   -0.0000 </r>
       <r>   10.0829   -0.0000 </r>
       <r>   10.5071   -0.0000 </r>
       <r>   10.5753   -0.0000 </r>
       <r>   10.7835   -0.0000 </r>
      </set>
      <set comment="kpoint 29">
       <r>   -3.4722    1.0000 </r>
       <r>   -1.8941    1.0000 </r>
       <r>   -1.5208    1.0000 </r>
       <r>   -1.2805    1.0000 </r>
       <r>   -0.8481    1.0000 </r>
       <r>   -0.7158    1.0000 </r>
       <r>   -0.4756    1.0000 </r>
       <r>    0.0100    1.0000 </r>
       <r>    0.1441    1.0000 </r>
       <r>    0.2987    1.0000 </r>
       <r>    0.4509    1.0000 </r>
       <r>    0.6994    1.0000 </r>
       <r>    1.0104    1.0000 </r>
       <r>    1.2687    1.0000 </r>
       <r>    1.9802    1.0000 </r>
       <r>    2.2835    1.0000 </r>
       <r>    2.4814    1.0000 </r>
       <r>    3.1141    1.0000 </r>
       <r>    3.1840    1.0000 </r>
       <r>    3.4363    1.0000 </r>
       <r>    4.1228    1.0000 </r>
       <r>    4.2509    1.0000 </r>
       <r>    4.3780    1.0000 </r>
       <r>    4.6635    1.0000 </r>
       <r>    4.8169    1.0000 </r>
       <r>    4.9251    1.0000 </r>
       <r>    5.0266    1.0000 </r>
       <r>    5.1089    1.0000 </r>
       <r>    5.1773    1.0000 </r>
       <r>    5.2785    1.0000 </r>
       <r>    5.3779    1.0000 </r>
       <r>    5.6752    1.0000 </r>
       <r>    5.7317    1.0000 </r>
       <r>    5.9643    1.0000 </r>
       <r>    6.0075    1.0000 </r>
       <r>    6.1523    1.0000 </r>
       <r>    6.4090    1.0000 </r>
       <r>    6.5897    1.0000 </r>
       <r>    6.6550    1.0001 </r>
       <r>    6.7373    1.0006 </r>
       <r>    6.9882    1.0320 </r>
       <r>    7.0755    1.0203 </r>
       <r>    7.1825    0.8252 </r>
       <r>    7.1943    0.7868 </r>
       <r>    7.3070    0.3352 </r>
       <r>    7.5511   -0.0310 </r>
       <r>    7.8203   -0.0003 </r>
       <r>    8.1973   -0.0000 </r>
       <r>    8.3658   -0.0000 </r>
       <r>    8.4600   -0.0000 </r>
       <r>    8.6316   -0.0000 </r>
       <r>    8.7914   -0.0000 </r>
       <r>    8.9045   -0.0000 </r>
       <r>    9.0070   -0.0000 </r>
       <r>    9.0990   -0.0000 </r>
       <r>    9.2346   -0.0000 </r>
       <r>    9.4773   -0.0000 </r>
       <r>    9.5420   -0.0000 </r>
       <r>    9.8630   -0.0000 </r>
       <r>   10.1996   -0.0000 </r>
       <r>   10.6368   -0.0000 </r>
       <r>   10.7166   -0.0000 </r>
       <r>   10.9545   -0.0000 </r>
       <r>   11.1077   -0.0000 </r>
      </set>
      <set comment="kpoint 30">
       <r>   -3.4791    1.0000 </r>
       <r>   -1.7755    1.0000 </r>
       <r>   -1.6733    1.0000 </r>
       <r>   -1.1525    1.0000 </r>
       <r>   -0.9370    1.0000 </r>
       <r>   -0.6650    1.0000 </r>
       <r>   -0.4765    1.0000 </r>
       <r>   -0.1254    1.0000 </r>
       <r>    0.1123    1.0000 </r>
       <r>    0.2469    1.0000 </r>
       <r>    0.5819    1.0000 </r>
       <r>    0.7326    1.0000 </r>
       <r>    0.9509    1.0000 </r>
       <r>    1.3391    1.0000 </r>
       <r>    1.9112    1.0000 </r>
       <r>    2.2267    1.0000 </r>
       <r>    2.6787    1.0000 </r>
       <r>    2.9944    1.0000 </r>
       <r>    3.3816    1.0000 </r>
       <r>    3.4963    1.0000 </r>
       <r>    4.0229    1.0000 </r>
       <r>    4.2239    1.0000 </r>
       <r>    4.3281    1.0000 </r>
       <r>    4.5750    1.0000 </r>
       <r>    4.7196    1.0000 </r>
       <r>    4.9709    1.0000 </r>
       <r>    5.0862    1.0000 </r>
       <r>    5.1001    1.0000 </r>
       <r>    5.1707    1.0000 </r>
       <r>    5.3891    1.0000 </r>
       <r>    5.4506    1.0000 </r>
       <r>    5.6643    1.0000 </r>
       <r>    5.7799    1.0000 </r>
       <r>    5.8424    1.0000 </r>
       <r>    5.9971    1.0000 </r>
       <r>    6.2448    1.0000 </r>
       <r>    6.3315    1.0000 </r>
       <r>    6.4331    1.0000 </r>
       <r>    6.5288    1.0000 </r>
       <r>    6.8254    1.0038 </r>
       <r>    6.9281    1.0187 </r>
       <r>    7.1138    0.9812 </r>
       <r>    7.1601    0.8890 </r>
       <r>    7.2681    0.4963 </r>
       <r>    7.3354    0.2293 </r>
       <r>    7.5287   -0.0345 </r>
       <r>    7.8637   -0.0001 </r>
       <r>    8.1405   -0.0000 </r>
       <r>    8.3579   -0.0000 </r>
       <r>    8.4744   -0.0000 </r>
       <r>    8.6974   -0.0000 </r>
       <r>    8.8186   -0.0000 </r>
       <r>    8.8660   -0.0000 </r>
       <r>    9.0563   -0.0000 </r>
       <r>    9.1694   -0.0000 </r>
       <r>    9.2701   -0.0000 </r>
       <r>    9.3736   -0.0000 </r>
       <r>    9.5246   -0.0000 </r>
       <r>    9.7838   -0.0000 </r>
       <r>   10.2043   -0.0000 </r>
       <r>   10.6051   -0.0000 </r>
       <r>   10.8009   -0.0000 </r>
       <r>   10.9014   -0.0000 </r>
       <r>   11.1390   -0.0000 </r>
      </set>
      <set comment="kpoint 31">
       <r>   -3.4714    1.0000 </r>
       <r>   -1.8824    1.0000 </r>
       <r>   -1.5686    1.0000 </r>
       <r>   -1.2693    1.0000 </r>
       <r>   -0.8356    1.0000 </r>
       <r>   -0.6860    1.0000 </r>
       <r>   -0.4603    1.0000 </r>
       <r>    0.0102    1.0000 </r>
       <r>    0.1301    1.0000 </r>
       <r>    0.2641    1.0000 </r>
       <r>    0.4728    1.0000 </r>
       <r>    0.6866    1.0000 </r>
       <r>    1.0082    1.0000 </r>
       <r>    1.2769    1.0000 </r>
       <r>    1.9864    1.0000 </r>
       <r>    2.2803    1.0000 </r>
       <r>    2.4714    1.0000 </r>
       <r>    3.0682    1.0000 </r>
       <r>    3.2526    1.0000 </r>
       <r>    3.3908    1.0000 </r>
       <r>    4.1138    1.0000 </r>
       <r>    4.2849    1.0000 </r>
       <r>    4.3499    1.0000 </r>
       <r>    4.6959    1.0000 </r>
       <r>    4.8667    1.0000 </r>
       <r>    4.9368    1.0000 </r>
       <r>    4.9697    1.0000 </r>
       <r>    5.0733    1.0000 </r>
       <r>    5.1585    1.0000 </r>
       <r>    5.2825    1.0000 </r>
       <r>    5.4495    1.0000 </r>
       <r>    5.7234    1.0000 </r>
       <r>    5.7487    1.0000 </r>
       <r>    5.9751    1.0000 </r>
       <r>    6.0101    1.0000 </r>
       <r>    6.1417    1.0000 </r>
       <r>    6.3656    1.0000 </r>
       <r>    6.5521    1.0000 </r>
       <r>    6.6511    1.0001 </r>
       <r>    6.7237    1.0004 </r>
       <r>    6.9868    1.0317 </r>
       <r>    7.0419    1.0338 </r>
       <r>    7.1850    0.8173 </r>
       <r>    7.2239    0.6785 </r>
       <r>    7.3288    0.2525 </r>
       <r>    7.5616   -0.0289 </r>
       <r>    7.7728   -0.0010 </r>
       <r>    8.2398   -0.0000 </r>
       <r>    8.3476   -0.0000 </r>
       <r>    8.4444   -0.0000 </r>
       <r>    8.6409   -0.0000 </r>
       <r>    8.7368   -0.0000 </r>
       <r>    8.9229   -0.0000 </r>
       <r>    9.0166   -0.0000 </r>
       <r>    9.0962   -0.0000 </r>
       <r>    9.2568   -0.0000 </r>
       <r>    9.4512   -0.0000 </r>
       <r>    9.5720   -0.0000 </r>
       <r>    9.8573   -0.0000 </r>
       <r>   10.1831   -0.0000 </r>
       <r>   10.6474   -0.0000 </r>
       <r>   10.7118   -0.0000 </r>
       <r>   10.9559   -0.0000 </r>
       <r>   11.0090   -0.0000 </r>
      </set>
      <set comment="kpoint 32">
       <r>   -3.4705    1.0000 </r>
       <r>   -1.9184    1.0000 </r>
       <r>   -1.5888    1.0000 </r>
       <r>   -1.1381    1.0000 </r>
       <r>   -0.7911    1.0000 </r>
       <r>   -0.7104    1.0000 </r>
       <r>   -0.5449    1.0000 </r>
       <r>   -0.0722    1.0000 </r>
       <r>    0.1747    1.0000 </r>
       <r>    0.2647    1.0000 </r>
       <r>    0.4608    1.0000 </r>
       <r>    0.6859    1.0000 </r>
       <r>    0.9969    1.0000 </r>
       <r>    1.3617    1.0000 </r>
       <r>    1.9589    1.0000 </r>
       <r>    2.1183    1.0000 </r>
       <r>    2.5507    1.0000 </r>
       <r>    3.1683    1.0000 </r>
       <r>    3.2908    1.0000 </r>
       <r>    3.5051    1.0000 </r>
       <r>    4.0503    1.0000 </r>
       <r>    4.2259    1.0000 </r>
       <r>    4.3993    1.0000 </r>
       <r>    4.6249    1.0000 </r>
       <r>    4.7588    1.0000 </r>
       <r>    4.8733    1.0000 </r>
       <r>    5.0377    1.0000 </r>
       <r>    5.0742    1.0000 </r>
       <r>    5.2010    1.0000 </r>
       <r>    5.2737    1.0000 </r>
       <r>    5.4970    1.0000 </r>
       <r>    5.6824    1.0000 </r>
       <r>    5.7584    1.0000 </r>
       <r>    5.8987    1.0000 </r>
       <r>    5.9712    1.0000 </r>
       <r>    6.2353    1.0000 </r>
       <r>    6.3941    1.0000 </r>
       <r>    6.4984    1.0000 </r>
       <r>    6.5950    1.0000 </r>
       <r>    6.7903    1.0019 </r>
       <r>    6.9821    1.0308 </r>
       <r>    7.0879    1.0107 </r>
       <r>    7.1269    0.9605 </r>
       <r>    7.2073    0.7411 </r>
       <r>    7.4200    0.0198 </r>
       <r>    7.5131   -0.0355 </r>
       <r>    7.8598   -0.0001 </r>
       <r>    8.2307   -0.0000 </r>
       <r>    8.3718   -0.0000 </r>
       <r>    8.4243   -0.0000 </r>
       <r>    8.6196   -0.0000 </r>
       <r>    8.7632   -0.0000 </r>
       <r>    8.8755   -0.0000 </r>
       <r>    9.0651   -0.0000 </r>
       <r>    9.1657   -0.0000 </r>
       <r>    9.2042   -0.0000 </r>
       <r>    9.3742   -0.0000 </r>
       <r>    9.6132   -0.0000 </r>
       <r>    9.8559   -0.0000 </r>
       <r>   10.1833   -0.0000 </r>
       <r>   10.5570   -0.0000 </r>
       <r>   10.7064   -0.0000 </r>
       <r>   10.7985   -0.0000 </r>
       <r>   11.0516   -0.0000 </r>
      </set>
      <set comment="kpoint 33">
       <r>   -3.4696    1.0000 </r>
       <r>   -1.9415    1.0000 </r>
       <r>   -1.4805    1.0000 </r>
       <r>   -1.2378    1.0000 </r>
       <r>   -0.9139    1.0000 </r>
       <r>   -0.7220    1.0000 </r>
       <r>   -0.4023    1.0000 </r>
       <r>   -0.0078    1.0000 </r>
       <r>    0.1545    1.0000 </r>
       <r>    0.3163    1.0000 </r>
       <r>    0.4230    1.0000 </r>
       <r>    0.7096    1.0000 </r>
       <r>    0.9500    1.0000 </r>
       <r>    1.2868    1.0000 </r>
       <r>    1.9730    1.0000 </r>
       <r>    2.1921    1.0000 </r>
       <r>    2.5278    1.0000 </r>
       <r>    3.1871    1.0000 </r>
       <r>    3.2592    1.0000 </r>
       <r>    3.3854    1.0000 </r>
       <r>    4.1231    1.0000 </r>
       <r>    4.2892    1.0000 </r>
       <r>    4.3640    1.0000 </r>
       <r>    4.6778    1.0000 </r>
       <r>    4.7866    1.0000 </r>
       <r>    4.9148    1.0000 </r>
       <r>    4.9930    1.0000 </r>
       <r>    5.0305    1.0000 </r>
       <r>    5.1666    1.0000 </r>
       <r>    5.3080    1.0000 </r>
       <r>    5.4956    1.0000 </r>
       <r>    5.6654    1.0000 </r>
       <r>    5.7674    1.0000 </r>
       <r>    5.8664    1.0000 </r>
       <r>    5.9799    1.0000 </r>
       <r>    6.1061    1.0000 </r>
       <r>    6.4902    1.0000 </r>
       <r>    6.5426    1.0000 </r>
       <r>    6.6605    1.0001 </r>
       <r>    6.8174    1.0033 </r>
       <r>    6.9998    1.0338 </r>
       <r>    7.0588    1.0289 </r>
       <r>    7.1345    0.9464 </r>
       <r>    7.1794    0.8349 </r>
       <r>    7.3728    0.1150 </r>
       <r>    7.4796   -0.0304 </r>
       <r>    7.8660   -0.0001 </r>
       <r>    8.2106   -0.0000 </r>
       <r>    8.3853   -0.0000 </r>
       <r>    8.4573   -0.0000 </r>
       <r>    8.5740   -0.0000 </r>
       <r>    8.8162   -0.0000 </r>
       <r>    8.9170   -0.0000 </r>
       <r>    9.0092   -0.0000 </r>
       <r>    9.1424   -0.0000 </r>
       <r>    9.2161   -0.0000 </r>
       <r>    9.4003   -0.0000 </r>
       <r>    9.6398   -0.0000 </r>
       <r>    9.8249   -0.0000 </r>
       <r>   10.2230   -0.0000 </r>
       <r>   10.5954   -0.0000 </r>
       <r>   10.7184   -0.0000 </r>
       <r>   10.8346   -0.0000 </r>
       <r>   11.0604   -0.0000 </r>
      </set>
      <set comment="kpoint 34">
       <r>   -3.4784    1.0000 </r>
       <r>   -1.8124    1.0000 </r>
       <r>   -1.5384    1.0000 </r>
       <r>   -1.3053    1.0000 </r>
       <r>   -1.0386    1.0000 </r>
       <r>   -0.5205    1.0000 </r>
       <r>   -0.4150    1.0000 </r>
       <r>   -0.0994    1.0000 </r>
       <r>   -0.0071    1.0000 </r>
       <r>    0.3766    1.0000 </r>
       <r>    0.5411    1.0000 </r>
       <r>    0.7538    1.0000 </r>
       <r>    0.9637    1.0000 </r>
       <r>    1.2081    1.0000 </r>
       <r>    1.9605    1.0000 </r>
       <r>    2.3828    1.0000 </r>
       <r>    2.4920    1.0000 </r>
       <r>    3.0764    1.0000 </r>
       <r>    3.2439    1.0000 </r>
       <r>    3.4645    1.0000 </r>
       <r>    4.0619    1.0000 </r>
       <r>    4.1534    1.0000 </r>
       <r>    4.3758    1.0000 </r>
       <r>    4.7030    1.0000 </r>
       <r>    4.8005    1.0000 </r>
       <r>    4.9628    1.0000 </r>
       <r>    5.0456    1.0000 </r>
       <r>    5.1023    1.0000 </r>
       <r>    5.1832    1.0000 </r>
       <r>    5.3110    1.0000 </r>
       <r>    5.5141    1.0000 </r>
       <r>    5.6519    1.0000 </r>
       <r>    5.7802    1.0000 </r>
       <r>    5.8704    1.0000 </r>
       <r>    5.9972    1.0000 </r>
       <r>    6.1117    1.0000 </r>
       <r>    6.4177    1.0000 </r>
       <r>    6.4676    1.0000 </r>
       <r>    6.6002    1.0000 </r>
       <r>    6.6771    1.0001 </r>
       <r>    6.9913    1.0325 </r>
       <r>    7.1117    0.9840 </r>
       <r>    7.1358    0.9439 </r>
       <r>    7.2271    0.6661 </r>
       <r>    7.3915    0.0705 </r>
       <r>    7.5942   -0.0215 </r>
       <r>    7.7308   -0.0025 </r>
       <r>    8.1186   -0.0000 </r>
       <r>    8.3576   -0.0000 </r>
       <r>    8.4631   -0.0000 </r>
       <r>    8.7109   -0.0000 </r>
       <r>    8.7893   -0.0000 </r>
       <r>    8.9452   -0.0000 </r>
       <r>    9.1151   -0.0000 </r>
       <r>    9.1736   -0.0000 </r>
       <r>    9.2374   -0.0000 </r>
       <r>    9.3432   -0.0000 </r>
       <r>    9.5010   -0.0000 </r>
       <r>    9.8137   -0.0000 </r>
       <r>   10.2183   -0.0000 </r>
       <r>   10.7161   -0.0000 </r>
       <r>   10.7881   -0.0000 </r>
       <r>   10.9701   -0.0000 </r>
       <r>   11.0251   -0.0000 </r>
      </set>
      <set comment="kpoint 35">
       <r>   -3.4806    1.0000 </r>
       <r>   -1.7685    1.0000 </r>
       <r>   -1.5678    1.0000 </r>
       <r>   -1.2740    1.0000 </r>
       <r>   -1.1075    1.0000 </r>
       <r>   -0.5471    1.0000 </r>
       <r>   -0.3559    1.0000 </r>
       <r>   -0.1536    1.0000 </r>
       <r>    0.0293    1.0000 </r>
       <r>    0.3660    1.0000 </r>
       <r>    0.5894    1.0000 </r>
       <r>    0.7317    1.0000 </r>
       <r>    1.0288    1.0000 </r>
       <r>    1.1169    1.0000 </r>
       <r>    1.9756    1.0000 </r>
       <r>    2.3115    1.0000 </r>
       <r>    2.5996    1.0000 </r>
       <r>    3.0766    1.0000 </r>
       <r>    3.3260    1.0000 </r>
       <r>    3.4269    1.0000 </r>
       <r>    3.9901    1.0000 </r>
       <r>    4.1038    1.0000 </r>
       <r>    4.3725    1.0000 </r>
       <r>    4.6622    1.0000 </r>
       <r>    4.8864    1.0000 </r>
       <r>    4.9458    1.0000 </r>
       <r>    5.0328    1.0000 </r>
       <r>    5.1648    1.0000 </r>
       <r>    5.2577    1.0000 </r>
       <r>    5.3870    1.0000 </r>
       <r>    5.4333    1.0000 </r>
       <r>    5.5907    1.0000 </r>
       <r>    5.6952    1.0000 </r>
       <r>    5.8484    1.0000 </r>
       <r>    5.9167    1.0000 </r>
       <r>    6.1866    1.0000 </r>
       <r>    6.3403    1.0000 </r>
       <r>    6.4534    1.0000 </r>
       <r>    6.5836    1.0000 </r>
       <r>    6.7982    1.0022 </r>
       <r>    7.0323    1.0350 </r>
       <r>    7.0772    1.0191 </r>
       <r>    7.2027    0.7579 </r>
       <r>    7.2576    0.5405 </r>
       <r>    7.4071    0.0403 </r>
       <r>    7.6046   -0.0191 </r>
       <r>    7.7183   -0.0032 </r>
       <r>    8.0925   -0.0000 </r>
       <r>    8.3442   -0.0000 </r>
       <r>    8.4805   -0.0000 </r>
       <r>    8.6987   -0.0000 </r>
       <r>    8.7847   -0.0000 </r>
       <r>    8.9039   -0.0000 </r>
       <r>    9.1168   -0.0000 </r>
       <r>    9.1941   -0.0000 </r>
       <r>    9.2715   -0.0000 </r>
       <r>    9.3638   -0.0000 </r>
       <r>    9.5090   -0.0000 </r>
       <r>    9.7513   -0.0000 </r>
       <r>   10.2347   -0.0000 </r>
       <r>   10.6859   -0.0000 </r>
       <r>   10.8002   -0.0000 </r>
       <r>   10.9262   -0.0000 </r>
       <r>   11.0840   -0.0000 </r>
      </set>
      <set comment="kpoint 36">
       <r>   -3.4672    1.0000 </r>
       <r>   -1.9912    1.0000 </r>
       <r>   -1.4710    1.0000 </r>
       <r>   -1.1737    1.0000 </r>
       <r>   -0.8060    1.0000 </r>
       <r>   -0.7223    1.0000 </r>
       <r>   -0.4577    1.0000 </r>
       <r>   -0.1754    1.0000 </r>
       <r>    0.1443    1.0000 </r>
       <r>    0.3220    1.0000 </r>
       <r>    0.4282    1.0000 </r>
       <r>    0.7208    1.0000 </r>
       <r>    0.9992    1.0000 </r>
       <r>    1.3760    1.0000 </r>
       <r>    1.9541    1.0000 </r>
       <r>    2.1512    1.0000 </r>
       <r>    2.4862    1.0000 </r>
       <r>    3.1697    1.0000 </r>
       <r>    3.2510    1.0000 </r>
       <r>    3.5485    1.0000 </r>
       <r>    4.0733    1.0000 </r>
       <r>    4.2321    1.0000 </r>
       <r>    4.3445    1.0000 </r>
       <r>    4.6111    1.0000 </r>
       <r>    4.7888    1.0000 </r>
       <r>    4.8984    1.0000 </r>
       <r>    5.0211    1.0000 </r>
       <r>    5.0697    1.0000 </r>
       <r>    5.2010    1.0000 </r>
       <r>    5.3001    1.0000 </r>
       <r>    5.5425    1.0000 </r>
       <r>    5.6911    1.0000 </r>
       <r>    5.8016    1.0000 </r>
       <r>    5.8384    1.0000 </r>
       <r>    5.9731    1.0000 </r>
       <r>    6.1888    1.0000 </r>
       <r>    6.4519    1.0000 </r>
       <r>    6.4910    1.0000 </r>
       <r>    6.6120    1.0000 </r>
       <r>    6.7327    1.0005 </r>
       <r>    6.9592    1.0258 </r>
       <r>    7.0301    1.0352 </r>
       <r>    7.0963    1.0028 </r>
       <r>    7.2719    0.4802 </r>
       <r>    7.4145    0.0281 </r>
       <r>    7.6375   -0.0125 </r>
       <r>    7.8307   -0.0002 </r>
       <r>    8.2733   -0.0000 </r>
       <r>    8.3256   -0.0000 </r>
       <r>    8.3991   -0.0000 </r>
       <r>    8.5617   -0.0000 </r>
       <r>    8.7047   -0.0000 </r>
       <r>    8.9406   -0.0000 </r>
       <r>    9.0455   -0.0000 </r>
       <r>    9.0839   -0.0000 </r>
       <r>    9.3366   -0.0000 </r>
       <r>    9.4434   -0.0000 </r>
       <r>    9.5823   -0.0000 </r>
       <r>    9.8031   -0.0000 </r>
       <r>   10.1902   -0.0000 </r>
       <r>   10.4687   -0.0000 </r>
       <r>   10.7105   -0.0000 </r>
       <r>   10.9595   -0.0000 </r>
       <r>   11.1233   -0.0000 </r>
      </set>
      <set comment="kpoint 37">
       <r>   -3.4654    1.0000 </r>
       <r>   -1.9980    1.0000 </r>
       <r>   -1.4094    1.0000 </r>
       <r>   -1.2505    1.0000 </r>
       <r>   -0.9087    1.0000 </r>
       <r>   -0.7109    1.0000 </r>
       <r>   -0.3525    1.0000 </r>
       <r>   -0.0605    1.0000 </r>
       <r>    0.1175    1.0000 </r>
       <r>    0.2920    1.0000 </r>
       <r>    0.4394    1.0000 </r>
       <r>    0.7250    1.0000 </r>
       <r>    0.9653    1.0000 </r>
       <r>    1.2918    1.0000 </r>
       <r>    1.9938    1.0000 </r>
       <r>    2.1735    1.0000 </r>
       <r>    2.4943    1.0000 </r>
       <r>    3.1738    1.0000 </r>
       <r>    3.2896    1.0000 </r>
       <r>    3.3535    1.0000 </r>
       <r>    4.1216    1.0000 </r>
       <r>    4.2776    1.0000 </r>
       <r>    4.3663    1.0000 </r>
       <r>    4.6013    1.0000 </r>
       <r>    4.7516    1.0000 </r>
       <r>    4.9539    1.0000 </r>
       <r>    5.0455    1.0000 </r>
       <r>    5.0625    1.0000 </r>
       <r>    5.2424    1.0000 </r>
       <r>    5.3542    1.0000 </r>
       <r>    5.5189    1.0000 </r>
       <r>    5.6629    1.0000 </r>
       <r>    5.7818    1.0000 </r>
       <r>    5.9148    1.0000 </r>
       <r>    6.0266    1.0000 </r>
       <r>    6.0673    1.0000 </r>
       <r>    6.4476    1.0000 </r>
       <r>    6.4832    1.0000 </r>
       <r>    6.6068    1.0000 </r>
       <r>    6.7383    1.0006 </r>
       <r>    6.8895    1.0113 </r>
       <r>    7.0567    1.0297 </r>
       <r>    7.1473    0.9197 </r>
       <r>    7.2690    0.4922 </r>
       <r>    7.4296    0.0070 </r>
       <r>    7.5769   -0.0255 </r>
       <r>    7.8196   -0.0003 </r>
       <r>    8.2295   -0.0000 </r>
       <r>    8.3826   -0.0000 </r>
       <r>    8.4385   -0.0000 </r>
       <r>    8.5563   -0.0000 </r>
       <r>    8.6619   -0.0000 </r>
       <r>    8.8729   -0.0000 </r>
       <r>    9.0989   -0.0000 </r>
       <r>    9.1659   -0.0000 </r>
       <r>    9.2472   -0.0000 </r>
       <r>    9.4229   -0.0000 </r>
       <r>    9.6493   -0.0000 </r>
       <r>    9.8049   -0.0000 </r>
       <r>   10.2384   -0.0000 </r>
       <r>   10.5829   -0.0000 </r>
       <r>   10.6885   -0.0000 </r>
       <r>   10.8705   -0.0000 </r>
       <r>   11.0439   -0.0000 </r>
      </set>
      <set comment="kpoint 38">
       <r>   -3.4619    1.0000 </r>
       <r>   -2.0320    1.0000 </r>
       <r>   -1.4982    1.0000 </r>
       <r>   -1.0485    1.0000 </r>
       <r>   -0.8433    1.0000 </r>
       <r>   -0.7652    1.0000 </r>
       <r>   -0.3502    1.0000 </r>
       <r>   -0.2255    1.0000 </r>
       <r>    0.0820    1.0000 </r>
       <r>    0.3771    1.0000 </r>
       <r>    0.4445    1.0000 </r>
       <r>    0.7441    1.0000 </r>
       <r>    0.9223    1.0000 </r>
       <r>    1.3726    1.0000 </r>
       <r>    1.9773    1.0000 </r>
       <r>    2.0406    1.0000 </r>
       <r>    2.5536    1.0000 </r>
       <r>    3.1445    1.0000 </r>
       <r>    3.2932    1.0000 </r>
       <r>    3.6263    1.0000 </r>
       <r>    4.0491    1.0000 </r>
       <r>    4.2359    1.0000 </r>
       <r>    4.2727    1.0000 </r>
       <r>    4.4738    1.0000 </r>
       <r>    4.7919    1.0000 </r>
       <r>    4.9521    1.0000 </r>
       <r>    5.0235    1.0000 </r>
       <r>    5.1825    1.0000 </r>
       <r>    5.3673    1.0000 </r>
       <r>    5.3850    1.0000 </r>
       <r>    5.4981    1.0000 </r>
       <r>    5.6233    1.0000 </r>
       <r>    5.7016    1.0000 </r>
       <r>    5.7763    1.0000 </r>
       <r>    5.9493    1.0000 </r>
       <r>    6.2196    1.0000 </r>
       <r>    6.3405    1.0000 </r>
       <r>    6.5050    1.0000 </r>
       <r>    6.6243    1.0000 </r>
       <r>    6.7726    1.0013 </r>
       <r>    6.9125    1.0155 </r>
       <r>    7.0095    1.0349 </r>
       <r>    7.1810    0.8298 </r>
       <r>    7.3013    0.3579 </r>
       <r>    7.5628   -0.0286 </r>
       <r>    7.6219   -0.0155 </r>
       <r>    7.8692   -0.0001 </r>
       <r>    8.1748   -0.0000 </r>
       <r>    8.3079   -0.0000 </r>
       <r>    8.4186   -0.0000 </r>
       <r>    8.4700   -0.0000 </r>
       <r>    8.7778   -0.0000 </r>
       <r>    8.9114   -0.0000 </r>
       <r>    8.9981   -0.0000 </r>
       <r>    9.2084   -0.0000 </r>
       <r>    9.3261   -0.0000 </r>
       <r>    9.3848   -0.0000 </r>
       <r>    9.6234   -0.0000 </r>
       <r>    9.7158   -0.0000 </r>
       <r>   10.2571   -0.0000 </r>
       <r>   10.3739   -0.0000 </r>
       <r>   10.7182   -0.0000 </r>
       <r>   10.8294   -0.0000 </r>
       <r>   11.0895   -0.0000 </r>
      </set>
      <set comment="kpoint 39">
       <r>   -3.4695    1.0000 </r>
       <r>   -1.9201    1.0000 </r>
       <r>   -1.4926    1.0000 </r>
       <r>   -1.2937    1.0000 </r>
       <r>   -0.9013    1.0000 </r>
       <r>   -0.7333    1.0000 </r>
       <r>   -0.2834    1.0000 </r>
       <r>   -0.0030    1.0000 </r>
       <r>    0.0970    1.0000 </r>
       <r>    0.2439    1.0000 </r>
       <r>    0.4243    1.0000 </r>
       <r>    0.7659    1.0000 </r>
       <r>    1.0105    1.0000 </r>
       <r>    1.2253    1.0000 </r>
       <r>    1.9681    1.0000 </r>
       <r>    2.2145    1.0000 </r>
       <r>    2.4737    1.0000 </r>
       <r>    3.2050    1.0000 </r>
       <r>    3.3509    1.0000 </r>
       <r>    3.4470    1.0000 </r>
       <r>    4.0223    1.0000 </r>
       <r>    4.0846    1.0000 </r>
       <r>    4.2593    1.0000 </r>
       <r>    4.6233    1.0000 </r>
       <r>    4.8063    1.0000 </r>
       <r>    4.9868    1.0000 </r>
       <r>    5.1181    1.0000 </r>
       <r>    5.2100    1.0000 </r>
       <r>    5.2457    1.0000 </r>
       <r>    5.3510    1.0000 </r>
       <r>    5.4739    1.0000 </r>
       <r>    5.6219    1.0000 </r>
       <r>    5.7290    1.0000 </r>
       <r>    5.8506    1.0000 </r>
       <r>    5.9652    1.0000 </r>
       <r>    6.1275    1.0000 </r>
       <r>    6.4278    1.0000 </r>
       <r>    6.5265    1.0000 </r>
       <r>    6.6558    1.0001 </r>
       <r>    6.7167    1.0003 </r>
       <r>    6.8817    1.0100 </r>
       <r>    6.9813    1.0306 </r>
       <r>    7.3144    0.3062 </r>
       <r>    7.3273    0.2581 </r>
       <r>    7.4747   -0.0286 </r>
       <r>    7.6190   -0.0161 </r>
       <r>    7.7050   -0.0041 </r>
       <r>    8.2222   -0.0000 </r>
       <r>    8.3086   -0.0000 </r>
       <r>    8.3942   -0.0000 </r>
       <r>    8.6379   -0.0000 </r>
       <r>    8.7678   -0.0000 </r>
       <r>    8.9082   -0.0000 </r>
       <r>    8.9805   -0.0000 </r>
       <r>    9.1475   -0.0000 </r>
       <r>    9.3215   -0.0000 </r>
       <r>    9.3455   -0.0000 </r>
       <r>    9.6214   -0.0000 </r>
       <r>    9.7430   -0.0000 </r>
       <r>   10.2899   -0.0000 </r>
       <r>   10.5932   -0.0000 </r>
       <r>   10.7544   -0.0000 </r>
       <r>   10.9033   -0.0000 </r>
       <r>   11.0033   -0.0000 </r>
      </set>
      <set comment="kpoint 40">
       <r>   -3.4639    1.0000 </r>
       <r>   -2.0052    1.0000 </r>
       <r>   -1.3848    1.0000 </r>
       <r>   -1.2741    1.0000 </r>
       <r>   -0.9328    1.0000 </r>
       <r>   -0.7221    1.0000 </r>
       <r>   -0.2632    1.0000 </r>
       <r>   -0.0354    1.0000 </r>
       <r>    0.1145    1.0000 </r>
       <r>    0.2147    1.0000 </r>
       <r>    0.3696    1.0000 </r>
       <r>    0.7933    1.0000 </r>
       <r>    1.0929    1.0000 </r>
       <r>    1.1780    1.0000 </r>
       <r>    2.0289    1.0000 </r>
       <r>    2.2097    1.0000 </r>
       <r>    2.3655    1.0000 </r>
       <r>    3.2289    1.0000 </r>
       <r>    3.3380    1.0000 </r>
       <r>    3.3754    1.0000 </r>
       <r>    4.1051    1.0000 </r>
       <r>    4.1183    1.0000 </r>
       <r>    4.2388    1.0000 </r>
       <r>    4.5754    1.0000 </r>
       <r>    4.8252    1.0000 </r>
       <r>    5.0393    1.0000 </r>
       <r>    5.1409    1.0000 </r>
       <r>    5.1709    1.0000 </r>
       <r>    5.2661    1.0000 </r>
       <r>    5.3456    1.0000 </r>
       <r>    5.5406    1.0000 </r>
       <r>    5.6411    1.0000 </r>
       <r>    5.7120    1.0000 </r>
       <r>    5.9052    1.0000 </r>
       <r>    5.9993    1.0000 </r>
       <r>    6.0270    1.0000 </r>
       <r>    6.4634    1.0000 </r>
       <r>    6.4995    1.0000 </r>
       <r>    6.5675    1.0000 </r>
       <r>    6.7624    1.0010 </r>
       <r>    6.8496    1.0060 </r>
       <r>    6.9948    1.0331 </r>
       <r>    7.3011    0.3589 </r>
       <r>    7.3469    0.1906 </r>
       <r>    7.4363   -0.0007 </r>
       <r>    7.6148   -0.0169 </r>
       <r>    7.7822   -0.0008 </r>
       <r>    8.1435   -0.0000 </r>
       <r>    8.3136   -0.0000 </r>
       <r>    8.3888   -0.0000 </r>
       <r>    8.6209   -0.0000 </r>
       <r>    8.6862   -0.0000 </r>
       <r>    8.8586   -0.0000 </r>
       <r>    9.0968   -0.0000 </r>
       <r>    9.2134   -0.0000 </r>
       <r>    9.2911   -0.0000 </r>
       <r>    9.4262   -0.0000 </r>
       <r>    9.5227   -0.0000 </r>
       <r>    9.7800   -0.0000 </r>
       <r>   10.2859   -0.0000 </r>
       <r>   10.6000   -0.0000 </r>
       <r>   10.6488   -0.0000 </r>
       <r>   10.9237   -0.0000 </r>
       <r>   11.0090   -0.0000 </r>
      </set>
      <set comment="kpoint 41">
       <r>   -3.2555    1.0000 </r>
       <r>   -2.2737    1.0000 </r>
       <r>   -1.7269    1.0000 </r>
       <r>   -1.4582    1.0000 </r>
       <r>   -1.2243    1.0000 </r>
       <r>   -0.9408    1.0000 </r>
       <r>    0.0548    1.0000 </r>
       <r>    0.1786    1.0000 </r>
       <r>    0.5484    1.0000 </r>
       <r>    0.7992    1.0000 </r>
       <r>    0.9341    1.0000 </r>
       <r>    1.1204    1.0000 </r>
       <r>    1.3333    1.0000 </r>
       <r>    1.5346    1.0000 </r>
       <r>    1.7084    1.0000 </r>
       <r>    1.8823    1.0000 </r>
       <r>    2.5120    1.0000 </r>
       <r>    2.7161    1.0000 </r>
       <r>    3.0931    1.0000 </r>
       <r>    3.2249    1.0000 </r>
       <r>    3.4813    1.0000 </r>
       <r>    3.6174    1.0000 </r>
       <r>    3.8399    1.0000 </r>
       <r>    4.2292    1.0000 </r>
       <r>    4.4753    1.0000 </r>
       <r>    4.5698    1.0000 </r>
       <r>    4.6631    1.0000 </r>
       <r>    5.0232    1.0000 </r>
       <r>    5.2344    1.0000 </r>
       <r>    5.3507    1.0000 </r>
       <r>    5.4498    1.0000 </r>
       <r>    5.5794    1.0000 </r>
       <r>    5.8686    1.0000 </r>
       <r>    6.0391    1.0000 </r>
       <r>    6.1694    1.0000 </r>
       <r>    6.2421    1.0000 </r>
       <r>    6.5176    1.0000 </r>
       <r>    6.6831    1.0001 </r>
       <r>    6.9116    1.0153 </r>
       <r>    7.0074    1.0347 </r>
       <r>    7.1543    0.9034 </r>
       <r>    7.1959    0.7814 </r>
       <r>    7.2914    0.3986 </r>
       <r>    7.4167    0.0246 </r>
       <r>    7.5309   -0.0343 </r>
       <r>    7.5711   -0.0268 </r>
       <r>    7.8420   -0.0002 </r>
       <r>    7.9336   -0.0000 </r>
       <r>    8.9219   -0.0000 </r>
       <r>    9.0749   -0.0000 </r>
       <r>    9.3404   -0.0000 </r>
       <r>    9.4143   -0.0000 </r>
       <r>    9.5071   -0.0000 </r>
       <r>    9.6430   -0.0000 </r>
       <r>    9.8357   -0.0000 </r>
       <r>   10.0057   -0.0000 </r>
       <r>   10.0991   -0.0000 </r>
       <r>   10.2931   -0.0000 </r>
       <r>   10.3523   -0.0000 </r>
       <r>   10.5265   -0.0000 </r>
       <r>   10.6151   -0.0000 </r>
       <r>   10.6566   -0.0000 </r>
       <r>   10.7772   -0.0000 </r>
       <r>   10.8778   -0.0000 </r>
      </set>
      <set comment="kpoint 42">
       <r>   -3.2718    1.0000 </r>
       <r>   -2.1686    1.0000 </r>
       <r>   -1.8215    1.0000 </r>
       <r>   -1.4253    1.0000 </r>
       <r>   -1.2221    1.0000 </r>
       <r>   -1.0037    1.0000 </r>
       <r>   -0.0127    1.0000 </r>
       <r>    0.1966    1.0000 </r>
       <r>    0.6625    1.0000 </r>
       <r>    0.7665    1.0000 </r>
       <r>    0.9813    1.0000 </r>
       <r>    1.1196    1.0000 </r>
       <r>    1.2857    1.0000 </r>
       <r>    1.5089    1.0000 </r>
       <r>    1.7343    1.0000 </r>
       <r>    1.8902    1.0000 </r>
       <r>    2.5458    1.0000 </r>
       <r>    2.7187    1.0000 </r>
       <r>    3.1088    1.0000 </r>
       <r>    3.2711    1.0000 </r>
       <r>    3.4312    1.0000 </r>
       <r>    3.6810    1.0000 </r>
       <r>    3.8042    1.0000 </r>
       <r>    4.2397    1.0000 </r>
       <r>    4.4317    1.0000 </r>
       <r>    4.5342    1.0000 </r>
       <r>    4.6905    1.0000 </r>
       <r>    5.0118    1.0000 </r>
       <r>    5.1261    1.0000 </r>
       <r>    5.3110    1.0000 </r>
       <r>    5.4690    1.0000 </r>
       <r>    5.5870    1.0000 </r>
       <r>    5.8607    1.0000 </r>
       <r>    5.8780    1.0000 </r>
       <r>    6.1420    1.0000 </r>
       <r>    6.3741    1.0000 </r>
       <r>    6.5569    1.0000 </r>
       <r>    6.7519    1.0008 </r>
       <r>    6.8915    1.0116 </r>
       <r>    7.0554    1.0302 </r>
       <r>    7.1723    0.8557 </r>
       <r>    7.2173    0.7041 </r>
       <r>    7.3148    0.3046 </r>
       <r>    7.4321    0.0040 </r>
       <r>    7.5169   -0.0354 </r>
       <r>    7.5791   -0.0249 </r>
       <r>    7.8330   -0.0002 </r>
       <r>    7.8756   -0.0001 </r>
       <r>    8.9728   -0.0000 </r>
       <r>    9.1122   -0.0000 </r>
       <r>    9.3343   -0.0000 </r>
       <r>    9.4054   -0.0000 </r>
       <r>    9.4989   -0.0000 </r>
       <r>    9.6590   -0.0000 </r>
       <r>    9.9062   -0.0000 </r>
       <r>    9.9556   -0.0000 </r>
       <r>   10.1154   -0.0000 </r>
       <r>   10.2124   -0.0000 </r>
       <r>   10.4266   -0.0000 </r>
       <r>   10.4638   -0.0000 </r>
       <r>   10.5846   -0.0000 </r>
       <r>   10.6849   -0.0000 </r>
       <r>   10.7363   -0.0000 </r>
       <r>   10.9671   -0.0000 </r>
      </set>
      <set comment="kpoint 43">
       <r>   -3.2483    1.0000 </r>
       <r>   -2.3228    1.0000 </r>
       <r>   -1.6988    1.0000 </r>
       <r>   -1.4745    1.0000 </r>
       <r>   -1.1698    1.0000 </r>
       <r>   -0.8735    1.0000 </r>
       <r>   -0.0668    1.0000 </r>
       <r>    0.2549    1.0000 </r>
       <r>    0.4186    1.0000 </r>
       <r>    0.7441    1.0000 </r>
       <r>    0.9799    1.0000 </r>
       <r>    1.1619    1.0000 </r>
       <r>    1.3214    1.0000 </r>
       <r>    1.5351    1.0000 </r>
       <r>    1.7142    1.0000 </r>
       <r>    1.8891    1.0000 </r>
       <r>    2.4985    1.0000 </r>
       <r>    2.8834    1.0000 </r>
       <r>    3.0608    1.0000 </r>
       <r>    3.1506    1.0000 </r>
       <r>    3.4657    1.0000 </r>
       <r>    3.6866    1.0000 </r>
       <r>    4.0012    1.0000 </r>
       <r>    4.2688    1.0000 </r>
       <r>    4.3392    1.0000 </r>
       <r>    4.4883    1.0000 </r>
       <r>    4.7968    1.0000 </r>
       <r>    4.9664    1.0000 </r>
       <r>    5.0754    1.0000 </r>
       <r>    5.3832    1.0000 </r>
       <r>    5.4229    1.0000 </r>
       <r>    5.5457    1.0000 </r>
       <r>    5.8981    1.0000 </r>
       <r>    5.9496    1.0000 </r>
       <r>    6.1113    1.0000 </r>
       <r>    6.4225    1.0000 </r>
       <r>    6.5359    1.0000 </r>
       <r>    6.6096    1.0000 </r>
       <r>    6.8360    1.0047 </r>
       <r>    6.9192    1.0168 </r>
       <r>    7.1518    0.9094 </r>
       <r>    7.2290    0.6584 </r>
       <r>    7.3196    0.2866 </r>
       <r>    7.4604   -0.0212 </r>
       <r>    7.5392   -0.0331 </r>
       <r>    7.6339   -0.0132 </r>
       <r>    7.9542   -0.0000 </r>
       <r>    8.0471   -0.0000 </r>
       <r>    8.8428   -0.0000 </r>
       <r>    9.0055   -0.0000 </r>
       <r>    9.2718   -0.0000 </r>
       <r>    9.3432   -0.0000 </r>
       <r>    9.4480   -0.0000 </r>
       <r>    9.7169   -0.0000 </r>
       <r>    9.8804   -0.0000 </r>
       <r>   10.0583   -0.0000 </r>
       <r>   10.1737   -0.0000 </r>
       <r>   10.2818   -0.0000 </r>
       <r>   10.3771   -0.0000 </r>
       <r>   10.4549   -0.0000 </r>
       <r>   10.4852   -0.0000 </r>
       <r>   10.5234   -0.0000 </r>
       <r>   10.7339   -0.0000 </r>
       <r>   10.8832   -0.0000 </r>
      </set>
      <set comment="kpoint 44">
       <r>   -3.2520    1.0000 </r>
       <r>   -2.3013    1.0000 </r>
       <r>   -1.5811    1.0000 </r>
       <r>   -1.4825    1.0000 </r>
       <r>   -1.4029    1.0000 </r>
       <r>   -0.8789    1.0000 </r>
       <r>    0.1427    1.0000 </r>
       <r>    0.2122    1.0000 </r>
       <r>    0.4695    1.0000 </r>
       <r>    0.7124    1.0000 </r>
       <r>    0.8812    1.0000 </r>
       <r>    1.3227    1.0000 </r>
       <r>    1.4580    1.0000 </r>
       <r>    1.5186    1.0000 </r>
       <r>    1.6016    1.0000 </r>
       <r>    1.7276    1.0000 </r>
       <r>    2.5784    1.0000 </r>
       <r>    2.7063    1.0000 </r>
       <r>    3.1388    1.0000 </r>
       <r>    3.1723    1.0000 </r>
       <r>    3.4568    1.0000 </r>
       <r>    3.7224    1.0000 </r>
       <r>    3.8529    1.0000 </r>
       <r>    4.2299    1.0000 </r>
       <r>    4.3567    1.0000 </r>
       <r>    4.4260    1.0000 </r>
       <r>    4.8266    1.0000 </r>
       <r>    5.0600    1.0000 </r>
       <r>    5.1808    1.0000 </r>
       <r>    5.3233    1.0000 </r>
       <r>    5.4169    1.0000 </r>
       <r>    5.5312    1.0000 </r>
       <r>    5.9387    1.0000 </r>
       <r>    6.0405    1.0000 </r>
       <r>    6.2124    1.0000 </r>
       <r>    6.3349    1.0000 </r>
       <r>    6.6393    1.0000 </r>
       <r>    6.6914    1.0002 </r>
       <r>    6.7866    1.0018 </r>
       <r>    7.0177    1.0354 </r>
       <r>    7.0989    0.9999 </r>
       <r>    7.2379    0.6225 </r>
       <r>    7.2594    0.5330 </r>
       <r>    7.4181    0.0225 </r>
       <r>    7.4498   -0.0136 </r>
       <r>    7.6338   -0.0132 </r>
       <r>    7.8894   -0.0000 </r>
       <r>    7.9916   -0.0000 </r>
       <r>    8.8518   -0.0000 </r>
       <r>    9.0052   -0.0000 </r>
       <r>    9.3582   -0.0000 </r>
       <r>    9.3839   -0.0000 </r>
       <r>    9.5014   -0.0000 </r>
       <r>    9.6548   -0.0000 </r>
       <r>    9.7778   -0.0000 </r>
       <r>   10.1275   -0.0000 </r>
       <r>   10.1999   -0.0000 </r>
       <r>   10.2658   -0.0000 </r>
       <r>   10.3448   -0.0000 </r>
       <r>   10.4429   -0.0000 </r>
       <r>   10.5229   -0.0000 </r>
       <r>   10.5911   -0.0000 </r>
       <r>   10.7017   -0.0000 </r>
       <r>   10.8043   -0.0000 </r>
      </set>
      <set comment="kpoint 45">
       <r>   -3.2595    1.0000 </r>
       <r>   -2.2625    1.0000 </r>
       <r>   -1.7589    1.0000 </r>
       <r>   -1.5045    1.0000 </r>
       <r>   -1.0807    1.0000 </r>
       <r>   -0.8919    1.0000 </r>
       <r>   -0.1843    1.0000 </r>
       <r>    0.1770    1.0000 </r>
       <r>    0.6387    1.0000 </r>
       <r>    0.7057    1.0000 </r>
       <r>    0.9629    1.0000 </r>
       <r>    1.1130    1.0000 </r>
       <r>    1.4106    1.0000 </r>
       <r>    1.5080    1.0000 </r>
       <r>    1.7658    1.0000 </r>
       <r>    1.8614    1.0000 </r>
       <r>    2.5271    1.0000 </r>
       <r>    2.8518    1.0000 </r>
       <r>    3.0300    1.0000 </r>
       <r>    3.2207    1.0000 </r>
       <r>    3.4404    1.0000 </r>
       <r>    3.5983    1.0000 </r>
       <r>    3.8850    1.0000 </r>
       <r>    4.3097    1.0000 </r>
       <r>    4.4697    1.0000 </r>
       <r>    4.5856    1.0000 </r>
       <r>    4.6853    1.0000 </r>
       <r>    4.9618    1.0000 </r>
       <r>    5.1932    1.0000 </r>
       <r>    5.3471    1.0000 </r>
       <r>    5.4326    1.0000 </r>
       <r>    5.5778    1.0000 </r>
       <r>    5.8461    1.0000 </r>
       <r>    5.9209    1.0000 </r>
       <r>    5.9951    1.0000 </r>
       <r>    6.3368    1.0000 </r>
       <r>    6.5666    1.0000 </r>
       <r>    6.6612    1.0001 </r>
       <r>    6.8130    1.0030 </r>
       <r>    7.0577    1.0294 </r>
       <r>    7.1370    0.9416 </r>
       <r>    7.2510    0.5684 </r>
       <r>    7.3016    0.3566 </r>
       <r>    7.4923   -0.0337 </r>
       <r>    7.5706   -0.0269 </r>
       <r>    7.6299   -0.0139 </r>
       <r>    7.8503   -0.0001 </r>
       <r>    7.9040   -0.0000 </r>
       <r>    8.9540   -0.0000 </r>
       <r>    9.0380   -0.0000 </r>
       <r>    9.3283   -0.0000 </r>
       <r>    9.4178   -0.0000 </r>
       <r>    9.5430   -0.0000 </r>
       <r>    9.6022   -0.0000 </r>
       <r>    9.8042   -0.0000 </r>
       <r>   10.0627   -0.0000 </r>
       <r>   10.1147   -0.0000 </r>
       <r>   10.2413   -0.0000 </r>
       <r>   10.3377   -0.0000 </r>
       <r>   10.4371   -0.0000 </r>
       <r>   10.6105   -0.0000 </r>
       <r>   10.6918   -0.0000 </r>
       <r>   10.7450   -0.0000 </r>
       <r>   10.9684   -0.0000 </r>
      </set>
      <set comment="kpoint 46">
       <r>   -3.2770    1.0000 </r>
       <r>   -2.0959    1.0000 </r>
       <r>   -1.8974    1.0000 </r>
       <r>   -1.4530    1.0000 </r>
       <r>   -1.1797    1.0000 </r>
       <r>   -0.9907    1.0000 </r>
       <r>   -0.1102    1.0000 </r>
       <r>    0.1979    1.0000 </r>
       <r>    0.6922    1.0000 </r>
       <r>    0.8243    1.0000 </r>
       <r>    1.0131    1.0000 </r>
       <r>    1.1274    1.0000 </r>
       <r>    1.2325    1.0000 </r>
       <r>    1.6067    1.0000 </r>
       <r>    1.7362    1.0000 </r>
       <r>    1.8482    1.0000 </r>
       <r>    2.4587    1.0000 </r>
       <r>    2.7648    1.0000 </r>
       <r>    3.0937    1.0000 </r>
       <r>    3.2847    1.0000 </r>
       <r>    3.3583    1.0000 </r>
       <r>    3.6879    1.0000 </r>
       <r>    3.8657    1.0000 </r>
       <r>    4.2158    1.0000 </r>
       <r>    4.4637    1.0000 </r>
       <r>    4.5228    1.0000 </r>
       <r>    4.6588    1.0000 </r>
       <r>    4.9053    1.0000 </r>
       <r>    5.2445    1.0000 </r>
       <r>    5.3366    1.0000 </r>
       <r>    5.4648    1.0000 </r>
       <r>    5.6579    1.0000 </r>
       <r>    5.8155    1.0000 </r>
       <r>    5.9279    1.0000 </r>
       <r>    6.1355    1.0000 </r>
       <r>    6.2844    1.0000 </r>
       <r>    6.4995    1.0000 </r>
       <r>    6.8131    1.0030 </r>
       <r>    6.8700    1.0084 </r>
       <r>    7.0633    1.0270 </r>
       <r>    7.1284    0.9578 </r>
       <r>    7.2435    0.5997 </r>
       <r>    7.3719    0.1172 </r>
       <r>    7.4298    0.0066 </r>
       <r>    7.5102   -0.0354 </r>
       <r>    7.6158   -0.0167 </r>
       <r>    7.7700   -0.0011 </r>
       <r>    7.8989   -0.0000 </r>
       <r>    8.9683   -0.0000 </r>
       <r>    9.0912   -0.0000 </r>
       <r>    9.2859   -0.0000 </r>
       <r>    9.3804   -0.0000 </r>
       <r>    9.5527   -0.0000 </r>
       <r>    9.8045   -0.0000 </r>
       <r>    9.9416   -0.0000 </r>
       <r>   10.0330   -0.0000 </r>
       <r>   10.0738   -0.0000 </r>
       <r>   10.1773   -0.0000 </r>
       <r>   10.2859   -0.0000 </r>
       <r>   10.4362   -0.0000 </r>
       <r>   10.5401   -0.0000 </r>
       <r>   10.7059   -0.0000 </r>
       <r>   10.8356   -0.0000 </r>
       <r>   10.9201   -0.0000 </r>
      </set>
      <set comment="kpoint 47">
       <r>   -3.2681    1.0000 </r>
       <r>   -2.1446    1.0000 </r>
       <r>   -1.8976    1.0000 </r>
       <r>   -1.4453    1.0000 </r>
       <r>   -1.1849    1.0000 </r>
       <r>   -0.9166    1.0000 </r>
       <r>   -0.1041    1.0000 </r>
       <r>    0.2039    1.0000 </r>
       <r>    0.6581    1.0000 </r>
       <r>    0.8674    1.0000 </r>
       <r>    0.9542    1.0000 </r>
       <r>    1.0242    1.0000 </r>
       <r>    1.3685    1.0000 </r>
       <r>    1.5699    1.0000 </r>
       <r>    1.7163    1.0000 </r>
       <r>    1.9085    1.0000 </r>
       <r>    2.3811    1.0000 </r>
       <r>    2.7162    1.0000 </r>
       <r>    3.0615    1.0000 </r>
       <r>    3.2617    1.0000 </r>
       <r>    3.4653    1.0000 </r>
       <r>    3.6467    1.0000 </r>
       <r>    3.9159    1.0000 </r>
       <r>    4.2118    1.0000 </r>
       <r>    4.4712    1.0000 </r>
       <r>    4.5585    1.0000 </r>
       <r>    4.6754    1.0000 </r>
       <r>    4.9466    1.0000 </r>
       <r>    5.2388    1.0000 </r>
       <r>    5.3452    1.0000 </r>
       <r>    5.5158    1.0000 </r>
       <r>    5.6187    1.0000 </r>
       <r>    5.8041    1.0000 </r>
       <r>    5.9976    1.0000 </r>
       <r>    6.1105    1.0000 </r>
       <r>    6.2131    1.0000 </r>
       <r>    6.5296    1.0000 </r>
       <r>    6.7813    1.0016 </r>
       <r>    6.8726    1.0087 </r>
       <r>    7.0129    1.0351 </r>
       <r>    7.1773    0.8412 </r>
       <r>    7.2226    0.6834 </r>
       <r>    7.3530    0.1714 </r>
       <r>    7.3994    0.0544 </r>
       <r>    7.5477   -0.0317 </r>
       <r>    7.6283   -0.0142 </r>
       <r>    7.7382   -0.0022 </r>
       <r>    7.9028   -0.0000 </r>
       <r>    8.9735   -0.0000 </r>
       <r>    9.0708   -0.0000 </r>
       <r>    9.2492   -0.0000 </r>
       <r>    9.4224   -0.0000 </r>
       <r>    9.5406   -0.0000 </r>
       <r>    9.7021   -0.0000 </r>
       <r>    9.9006   -0.0000 </r>
       <r>   10.0422   -0.0000 </r>
       <r>   10.1023   -0.0000 </r>
       <r>   10.2468   -0.0000 </r>
       <r>   10.3414   -0.0000 </r>
       <r>   10.4237   -0.0000 </r>
       <r>   10.5313   -0.0000 </r>
       <r>   10.6691   -0.0000 </r>
       <r>   10.7252   -0.0000 </r>
       <r>   10.8898   -0.0000 </r>
      </set>
      <set comment="kpoint 48">
       <r>   -3.2713    1.0000 </r>
       <r>   -2.1897    1.0000 </r>
       <r>   -1.6730    1.0000 </r>
       <r>   -1.5550    1.0000 </r>
       <r>   -1.3228    1.0000 </r>
       <r>   -0.9250    1.0000 </r>
       <r>    0.0601    1.0000 </r>
       <r>    0.3352    1.0000 </r>
       <r>    0.4529    1.0000 </r>
       <r>    0.6988    1.0000 </r>
       <r>    0.9152    1.0000 </r>
       <r>    1.3286    1.0000 </r>
       <r>    1.3927    1.0000 </r>
       <r>    1.4606    1.0000 </r>
       <r>    1.6417    1.0000 </r>
       <r>    1.8449    1.0000 </r>
       <r>    2.5535    1.0000 </r>
       <r>    2.7374    1.0000 </r>
       <r>    3.0795    1.0000 </r>
       <r>    3.2414    1.0000 </r>
       <r>    3.5561    1.0000 </r>
       <r>    3.7238    1.0000 </r>
       <r>    3.8515    1.0000 </r>
       <r>    4.1840    1.0000 </r>
       <r>    4.2562    1.0000 </r>
       <r>    4.3411    1.0000 </r>
       <r>    4.8220    1.0000 </r>
       <r>    5.0949    1.0000 </r>
       <r>    5.1872    1.0000 </r>
       <r>    5.3109    1.0000 </r>
       <r>    5.4456    1.0000 </r>
       <r>    5.5008    1.0000 </r>
       <r>    5.8996    1.0000 </r>
       <r>    6.0160    1.0000 </r>
       <r>    6.1510    1.0000 </r>
       <r>    6.3514    1.0000 </r>
       <r>    6.5741    1.0000 </r>
       <r>    6.7378    1.0006 </r>
       <r>    6.8126    1.0030 </r>
       <r>    7.0449    1.0332 </r>
       <r>    7.2223    0.6848 </r>
       <r>    7.2548    0.5522 </r>
       <r>    7.2983    0.3701 </r>
       <r>    7.3924    0.0687 </r>
       <r>    7.4374   -0.0019 </r>
       <r>    7.6642   -0.0084 </r>
       <r>    7.8775   -0.0001 </r>
       <r>    7.9359   -0.0000 </r>
       <r>    8.9055   -0.0000 </r>
       <r>    9.0161   -0.0000 </r>
       <r>    9.3219   -0.0000 </r>
       <r>    9.4480   -0.0000 </r>
       <r>    9.5291   -0.0000 </r>
       <r>    9.5867   -0.0000 </r>
       <r>    9.8717   -0.0000 </r>
       <r>   10.0708   -0.0000 </r>
       <r>   10.1497   -0.0000 </r>
       <r>   10.2419   -0.0000 </r>
       <r>   10.3750   -0.0000 </r>
       <r>   10.4448   -0.0000 </r>
       <r>   10.4961   -0.0000 </r>
       <r>   10.6334   -0.0000 </r>
       <r>   10.7520   -0.0000 </r>
       <r>   10.8986   -0.0000 </r>
      </set>
      <set comment="kpoint 49">
       <r>   -3.2667    1.0000 </r>
       <r>   -2.1809    1.0000 </r>
       <r>   -1.8911    1.0000 </r>
       <r>   -1.4444    1.0000 </r>
       <r>   -1.0964    1.0000 </r>
       <r>   -0.8690    1.0000 </r>
       <r>   -0.2341    1.0000 </r>
       <r>    0.1950    1.0000 </r>
       <r>    0.6465    1.0000 </r>
       <r>    0.7961    1.0000 </r>
       <r>    0.9482    1.0000 </r>
       <r>    1.0698    1.0000 </r>
       <r>    1.4014    1.0000 </r>
       <r>    1.4931    1.0000 </r>
       <r>    1.6602    1.0000 </r>
       <r>    1.9853    1.0000 </r>
       <r>    2.5294    1.0000 </r>
       <r>    2.8385    1.0000 </r>
       <r>    3.0151    1.0000 </r>
       <r>    3.2025    1.0000 </r>
       <r>    3.4636    1.0000 </r>
       <r>    3.6093    1.0000 </r>
       <r>    3.9578    1.0000 </r>
       <r>    4.3044    1.0000 </r>
       <r>    4.4648    1.0000 </r>
       <r>    4.5837    1.0000 </r>
       <r>    4.6188    1.0000 </r>
       <r>    4.9726    1.0000 </r>
       <r>    5.1790    1.0000 </r>
       <r>    5.2772    1.0000 </r>
       <r>    5.4696    1.0000 </r>
       <r>    5.6547    1.0000 </r>
       <r>    5.8103    1.0000 </r>
       <r>    5.8878    1.0000 </r>
       <r>    6.0033    1.0000 </r>
       <r>    6.2903    1.0000 </r>
       <r>    6.5274    1.0000 </r>
       <r>    6.7127    1.0003 </r>
       <r>    6.8700    1.0084 </r>
       <r>    7.0469    1.0327 </r>
       <r>    7.1463    0.9221 </r>
       <r>    7.2391    0.6177 </r>
       <r>    7.3749    0.1094 </r>
       <r>    7.4570   -0.0190 </r>
       <r>    7.5269   -0.0347 </r>
       <r>    7.6821   -0.0062 </r>
       <r>    7.7779   -0.0009 </r>
       <r>    7.9296   -0.0000 </r>
       <r>    8.9413   -0.0000 </r>
       <r>    9.0682   -0.0000 </r>
       <r>    9.3025   -0.0000 </r>
       <r>    9.4251   -0.0000 </r>
       <r>    9.5554   -0.0000 </r>
       <r>    9.6650   -0.0000 </r>
       <r>    9.8775   -0.0000 </r>
       <r>   10.0004   -0.0000 </r>
       <r>   10.0889   -0.0000 </r>
       <r>   10.2655   -0.0000 </r>
       <r>   10.3321   -0.0000 </r>
       <r>   10.3704   -0.0000 </r>
       <r>   10.5370   -0.0000 </r>
       <r>   10.6770   -0.0000 </r>
       <r>   10.7472   -0.0000 </r>
       <r>   10.9819   -0.0000 </r>
      </set>
      <set comment="kpoint 50">
       <r>   -3.2810    1.0000 </r>
       <r>   -2.1001    1.0000 </r>
       <r>   -1.8047    1.0000 </r>
       <r>   -1.5142    1.0000 </r>
       <r>   -1.3623    1.0000 </r>
       <r>   -0.7939    1.0000 </r>
       <r>   -0.0418    1.0000 </r>
       <r>    0.1656    1.0000 </r>
       <r>    0.5330    1.0000 </r>
       <r>    0.8387    1.0000 </r>
       <r>    0.9660    1.0000 </r>
       <r>    1.1152    1.0000 </r>
       <r>    1.2674    1.0000 </r>
       <r>    1.6474    1.0000 </r>
       <r>    1.8375    1.0000 </r>
       <r>    1.9018    1.0000 </r>
       <r>    2.4280    1.0000 </r>
       <r>    2.5603    1.0000 </r>
       <r>    2.9706    1.0000 </r>
       <r>    3.3541    1.0000 </r>
       <r>    3.6906    1.0000 </r>
       <r>    3.7654    1.0000 </r>
       <r>    3.8346    1.0000 </r>
       <r>    4.1939    1.0000 </r>
       <r>    4.3154    1.0000 </r>
       <r>    4.3864    1.0000 </r>
       <r>    4.8526    1.0000 </r>
       <r>    4.9773    1.0000 </r>
       <r>    5.1752    1.0000 </r>
       <r>    5.3957    1.0000 </r>
       <r>    5.5160    1.0000 </r>
       <r>    5.5896    1.0000 </r>
       <r>    5.7616    1.0000 </r>
       <r>    5.8730    1.0000 </r>
       <r>    6.1148    1.0000 </r>
       <r>    6.1970    1.0000 </r>
       <r>    6.5792    1.0000 </r>
       <r>    6.7399    1.0006 </r>
       <r>    6.8806    1.0099 </r>
       <r>    7.0620    1.0276 </r>
       <r>    7.1784    0.8377 </r>
       <r>    7.2675    0.4986 </r>
       <r>    7.3755    0.1079 </r>
       <r>    7.4023    0.0490 </r>
       <r>    7.5559   -0.0301 </r>
       <r>    7.6026   -0.0196 </r>
       <r>    7.7286   -0.0026 </r>
       <r>    7.8483   -0.0002 </r>
       <r>    9.0065   -0.0000 </r>
       <r>    9.0451   -0.0000 </r>
       <r>    9.2276   -0.0000 </r>
       <r>    9.3574   -0.0000 </r>
       <r>    9.5561   -0.0000 </r>
       <r>    9.8156   -0.0000 </r>
       <r>    9.8900   -0.0000 </r>
       <r>   10.0806   -0.0000 </r>
       <r>   10.2185   -0.0000 </r>
       <r>   10.2358   -0.0000 </r>
       <r>   10.3644   -0.0000 </r>
       <r>   10.4539   -0.0000 </r>
       <r>   10.5796   -0.0000 </r>
       <r>   10.6715   -0.0000 </r>
       <r>   10.7318   -0.0000 </r>
       <r>   10.9431   -0.0000 </r>
      </set>
      <set comment="kpoint 51">
       <r>   -3.2829    1.0000 </r>
       <r>   -2.0571    1.0000 </r>
       <r>   -1.9189    1.0000 </r>
       <r>   -1.5344    1.0000 </r>
       <r>   -1.1688    1.0000 </r>
       <r>   -0.7632    1.0000 </r>
       <r>   -0.3064    1.0000 </r>
       <r>    0.3075    1.0000 </r>
       <r>    0.5289    1.0000 </r>
       <r>    0.7549    1.0000 </r>
       <r>    0.8453    1.0000 </r>
       <r>    1.2163    1.0000 </r>
       <r>    1.3285    1.0000 </r>
       <r>    1.6048    1.0000 </r>
       <r>    1.7357    1.0000 </r>
       <r>    2.1095    1.0000 </r>
       <r>    2.3470    1.0000 </r>
       <r>    2.7938    1.0000 </r>
       <r>    2.9310    1.0000 </r>
       <r>    3.2798    1.0000 </r>
       <r>    3.5369    1.0000 </r>
       <r>    3.7606    1.0000 </r>
       <r>    4.0841    1.0000 </r>
       <r>    4.1844    1.0000 </r>
       <r>    4.2988    1.0000 </r>
       <r>    4.4641    1.0000 </r>
       <r>    4.6936    1.0000 </r>
       <r>    4.9400    1.0000 </r>
       <r>    5.2363    1.0000 </r>
       <r>    5.4072    1.0000 </r>
       <r>    5.4609    1.0000 </r>
       <r>    5.6438    1.0000 </r>
       <r>    5.7191    1.0000 </r>
       <r>    5.8001    1.0000 </r>
       <r>    5.9001    1.0000 </r>
       <r>    6.3711    1.0000 </r>
       <r>    6.5638    1.0000 </r>
       <r>    6.7516    1.0008 </r>
       <r>    6.8749    1.0090 </r>
       <r>    7.0412    1.0339 </r>
       <r>    7.0660    1.0258 </r>
       <r>    7.2664    0.5033 </r>
       <r>    7.3552    0.1646 </r>
       <r>    7.4547   -0.0174 </r>
       <r>    7.6003   -0.0201 </r>
       <r>    7.6948   -0.0050 </r>
       <r>    7.7628   -0.0013 </r>
       <r>    7.8719   -0.0001 </r>
       <r>    8.9959   -0.0000 </r>
       <r>    9.0623   -0.0000 </r>
       <r>    9.2269   -0.0000 </r>
       <r>    9.3249   -0.0000 </r>
       <r>    9.6093   -0.0000 </r>
       <r>    9.7426   -0.0000 </r>
       <r>    9.9508   -0.0000 </r>
       <r>   10.0977   -0.0000 </r>
       <r>   10.1382   -0.0000 </r>
       <r>   10.2330   -0.0000 </r>
       <r>   10.3220   -0.0000 </r>
       <r>   10.4162   -0.0000 </r>
       <r>   10.5018   -0.0000 </r>
       <r>   10.6345   -0.0000 </r>
       <r>   10.8375   -0.0000 </r>
       <r>   10.9563   -0.0000 </r>
      </set>
      <set comment="kpoint 52">
       <r>   -3.2919    1.0000 </r>
       <r>   -2.0099    1.0000 </r>
       <r>   -1.8050    1.0000 </r>
       <r>   -1.5810    1.0000 </r>
       <r>   -1.3765    1.0000 </r>
       <r>   -0.8360    1.0000 </r>
       <r>   -0.0661    1.0000 </r>
       <r>    0.2460    1.0000 </r>
       <r>    0.5002    1.0000 </r>
       <r>    0.8230    1.0000 </r>
       <r>    0.9816    1.0000 </r>
       <r>    1.1273    1.0000 </r>
       <r>    1.3708    1.0000 </r>
       <r>    1.4673    1.0000 </r>
       <r>    1.8229    1.0000 </r>
       <r>    2.0063    1.0000 </r>
       <r>    2.4070    1.0000 </r>
       <r>    2.6566    1.0000 </r>
       <r>    3.0343    1.0000 </r>
       <r>    3.3353    1.0000 </r>
       <r>    3.6124    1.0000 </r>
       <r>    3.7579    1.0000 </r>
       <r>    3.9147    1.0000 </r>
       <r>    4.1423    1.0000 </r>
       <r>    4.2093    1.0000 </r>
       <r>    4.3412    1.0000 </r>
       <r>    4.8473    1.0000 </r>
       <r>    5.0724    1.0000 </r>
       <r>    5.2338    1.0000 </r>
       <r>    5.3476    1.0000 </r>
       <r>    5.4286    1.0000 </r>
       <r>    5.5618    1.0000 </r>
       <r>    5.7343    1.0000 </r>
       <r>    5.8645    1.0000 </r>
       <r>    6.0548    1.0000 </r>
       <r>    6.3086    1.0000 </r>
       <r>    6.5984    1.0000 </r>
       <r>    6.7841    1.0017 </r>
       <r>    6.8695    1.0083 </r>
       <r>    7.0678    1.0248 </r>
       <r>    7.1909    0.7983 </r>
       <r>    7.2476    0.5823 </r>
       <r>    7.2926    0.3937 </r>
       <r>    7.4290    0.0077 </r>
       <r>    7.5363   -0.0336 </r>
       <r>    7.6731   -0.0073 </r>
       <r>    7.8087   -0.0004 </r>
       <r>    7.8554   -0.0001 </r>
       <r>    9.0049   -0.0000 </r>
       <r>    9.0772   -0.0000 </r>
       <r>    9.2503   -0.0000 </r>
       <r>    9.2788   -0.0000 </r>
       <r>    9.5429   -0.0000 </r>
       <r>    9.7967   -0.0000 </r>
       <r>    9.9674   -0.0000 </r>
       <r>   10.0907   -0.0000 </r>
       <r>   10.1817   -0.0000 </r>
       <r>   10.2646   -0.0000 </r>
       <r>   10.3635   -0.0000 </r>
       <r>   10.4902   -0.0000 </r>
       <r>   10.5737   -0.0000 </r>
       <r>   10.6017   -0.0000 </r>
       <r>   10.7401   -0.0000 </r>
       <r>   10.8948   -0.0000 </r>
      </set>
      <set comment="kpoint 53">
       <r>   -2.9487    1.0000 </r>
       <r>   -2.5899    1.0000 </r>
       <r>   -1.9583    1.0000 </r>
       <r>   -1.8575    1.0000 </r>
       <r>   -1.0860    1.0000 </r>
       <r>   -0.4974    1.0000 </r>
       <r>   -0.1927    1.0000 </r>
       <r>    0.1401    1.0000 </r>
       <r>    0.6603    1.0000 </r>
       <r>    0.9787    1.0000 </r>
       <r>    1.1801    1.0000 </r>
       <r>    1.3385    1.0000 </r>
       <r>    1.7580    1.0000 </r>
       <r>    1.8715    1.0000 </r>
       <r>    2.0316    1.0000 </r>
       <r>    2.1876    1.0000 </r>
       <r>    2.4044    1.0000 </r>
       <r>    2.7247    1.0000 </r>
       <r>    2.9293    1.0000 </r>
       <r>    2.9946    1.0000 </r>
       <r>    3.1575    1.0000 </r>
       <r>    3.3499    1.0000 </r>
       <r>    3.5896    1.0000 </r>
       <r>    3.7522    1.0000 </r>
       <r>    3.8861    1.0000 </r>
       <r>    4.0224    1.0000 </r>
       <r>    4.1750    1.0000 </r>
       <r>    4.3769    1.0000 </r>
       <r>    4.6737    1.0000 </r>
       <r>    4.7922    1.0000 </r>
       <r>    5.6162    1.0000 </r>
       <r>    5.8579    1.0000 </r>
       <r>    6.1522    1.0000 </r>
       <r>    6.2082    1.0000 </r>
       <r>    6.4801    1.0000 </r>
       <r>    6.5959    1.0000 </r>
       <r>    6.8306    1.0042 </r>
       <r>    6.9633    1.0268 </r>
       <r>    7.1292    0.9563 </r>
       <r>    7.3546    0.1664 </r>
       <r>    7.5303   -0.0343 </r>
       <r>    7.5980   -0.0206 </r>
       <r>    7.7607   -0.0013 </r>
       <r>    7.8373   -0.0002 </r>
       <r>    7.9611   -0.0000 </r>
       <r>    8.2134   -0.0000 </r>
       <r>    8.3585   -0.0000 </r>
       <r>    8.4399   -0.0000 </r>
       <r>    8.5911   -0.0000 </r>
       <r>    8.6745   -0.0000 </r>
       <r>    9.0937   -0.0000 </r>
       <r>    9.1905   -0.0000 </r>
       <r>    9.3563   -0.0000 </r>
       <r>    9.4231   -0.0000 </r>
       <r>    9.5981   -0.0000 </r>
       <r>    9.7329   -0.0000 </r>
       <r>    9.8745   -0.0000 </r>
       <r>   10.0494   -0.0000 </r>
       <r>   10.1245   -0.0000 </r>
       <r>   10.4060   -0.0000 </r>
       <r>   10.5097   -0.0000 </r>
       <r>   10.5996   -0.0000 </r>
       <r>   10.8740   -0.0000 </r>
       <r>   10.9588   -0.0000 </r>
      </set>
      <set comment="kpoint 54">
       <r>   -3.0490    1.0000 </r>
       <r>   -2.2505    1.0000 </r>
       <r>   -2.1487    1.0000 </r>
       <r>   -1.9072    1.0000 </r>
       <r>   -1.1029    1.0000 </r>
       <r>   -0.4944    1.0000 </r>
       <r>   -0.2495    1.0000 </r>
       <r>    0.2356    1.0000 </r>
       <r>    0.5912    1.0000 </r>
       <r>    0.9318    1.0000 </r>
       <r>    1.1746    1.0000 </r>
       <r>    1.4145    1.0000 </r>
       <r>    1.5231    1.0000 </r>
       <r>    1.9757    1.0000 </r>
       <r>    2.0941    1.0000 </r>
       <r>    2.3815    1.0000 </r>
       <r>    2.5453    1.0000 </r>
       <r>    2.6616    1.0000 </r>
       <r>    2.8949    1.0000 </r>
       <r>    2.9871    1.0000 </r>
       <r>    3.1038    1.0000 </r>
       <r>    3.4486    1.0000 </r>
       <r>    3.5347    1.0000 </r>
       <r>    3.6876    1.0000 </r>
       <r>    3.7501    1.0000 </r>
       <r>    4.0748    1.0000 </r>
       <r>    4.4000    1.0000 </r>
       <r>    4.4508    1.0000 </r>
       <r>    4.5707    1.0000 </r>
       <r>    4.7899    1.0000 </r>
       <r>    5.3887    1.0000 </r>
       <r>    5.9855    1.0000 </r>
       <r>    6.0952    1.0000 </r>
       <r>    6.1602    1.0000 </r>
       <r>    6.3572    1.0000 </r>
       <r>    6.4347    1.0000 </r>
       <r>    6.6992    1.0002 </r>
       <r>    7.0538    1.0308 </r>
       <r>    7.1908    0.7987 </r>
       <r>    7.2748    0.4680 </r>
       <r>    7.4651   -0.0240 </r>
       <r>    7.6643   -0.0084 </r>
       <r>    7.8178   -0.0003 </r>
       <r>    7.9150   -0.0000 </r>
       <r>    8.0633   -0.0000 </r>
       <r>    8.2602   -0.0000 </r>
       <r>    8.4066   -0.0000 </r>
       <r>    8.5072   -0.0000 </r>
       <r>    8.5612   -0.0000 </r>
       <r>    8.7496   -0.0000 </r>
       <r>    8.9437   -0.0000 </r>
       <r>    9.2849   -0.0000 </r>
       <r>    9.3568   -0.0000 </r>
       <r>    9.4807   -0.0000 </r>
       <r>    9.5924   -0.0000 </r>
       <r>    9.7261   -0.0000 </r>
       <r>    9.9056   -0.0000 </r>
       <r>   10.0083   -0.0000 </r>
       <r>   10.2286   -0.0000 </r>
       <r>   10.3872   -0.0000 </r>
       <r>   10.5324   -0.0000 </r>
       <r>   10.7755   -0.0000 </r>
       <r>   10.8568   -0.0000 </r>
       <r>   10.9674   -0.0000 </r>
      </set>
      <set comment="kpoint 55">
       <r>   -2.9512    1.0000 </r>
       <r>   -2.4893    1.0000 </r>
       <r>   -2.2585    1.0000 </r>
       <r>   -1.6982    1.0000 </r>
       <r>   -0.8708    1.0000 </r>
       <r>   -0.5247    1.0000 </r>
       <r>   -0.3097    1.0000 </r>
       <r>    0.1380    1.0000 </r>
       <r>    0.4305    1.0000 </r>
       <r>    1.0682    1.0000 </r>
       <r>    1.3285    1.0000 </r>
       <r>    1.4318    1.0000 </r>
       <r>    1.6195    1.0000 </r>
       <r>    1.8506    1.0000 </r>
       <r>    2.0328    1.0000 </r>
       <r>    2.2771    1.0000 </r>
       <r>    2.3426    1.0000 </r>
       <r>    2.5639    1.0000 </r>
       <r>    2.9632    1.0000 </r>
       <r>    3.0244    1.0000 </r>
       <r>    3.2611    1.0000 </r>
       <r>    3.3445    1.0000 </r>
       <r>    3.5418    1.0000 </r>
       <r>    3.8297    1.0000 </r>
       <r>    3.9354    1.0000 </r>
       <r>    4.0386    1.0000 </r>
       <r>    4.2651    1.0000 </r>
       <r>    4.3497    1.0000 </r>
       <r>    4.6189    1.0000 </r>
       <r>    4.7082    1.0000 </r>
       <r>    5.6924    1.0000 </r>
       <r>    6.0215    1.0000 </r>
       <r>    6.1512    1.0000 </r>
       <r>    6.2569    1.0000 </r>
       <r>    6.4009    1.0000 </r>
       <r>    6.5419    1.0000 </r>
       <r>    6.6092    1.0000 </r>
       <r>    6.9332    1.0199 </r>
       <r>    7.1156    0.9785 </r>
       <r>    7.2218    0.6867 </r>
       <r>    7.4803   -0.0307 </r>
       <r>    7.6543   -0.0098 </r>
       <r>    7.6998   -0.0046 </r>
       <r>    7.8018   -0.0005 </r>
       <r>    8.0351   -0.0000 </r>
       <r>    8.1489   -0.0000 </r>
       <r>    8.3726   -0.0000 </r>
       <r>    8.4523   -0.0000 </r>
       <r>    8.6816   -0.0000 </r>
       <r>    8.8101   -0.0000 </r>
       <r>    9.0464   -0.0000 </r>
       <r>    9.1884   -0.0000 </r>
       <r>    9.2472   -0.0000 </r>
       <r>    9.5470   -0.0000 </r>
       <r>    9.6358   -0.0000 </r>
       <r>    9.8203   -0.0000 </r>
       <r>    9.8845   -0.0000 </r>
       <r>   10.0381   -0.0000 </r>
       <r>   10.0922   -0.0000 </r>
       <r>   10.3624   -0.0000 </r>
       <r>   10.6071   -0.0000 </r>
       <r>   10.6868   -0.0000 </r>
       <r>   10.8711   -0.0000 </r>
       <r>   11.0039   -0.0000 </r>
      </set>
      <set comment="kpoint 56">
       <r>   -2.9504    1.0000 </r>
       <r>   -2.4812    1.0000 </r>
       <r>   -2.2693    1.0000 </r>
       <r>   -1.6775    1.0000 </r>
       <r>   -0.9577    1.0000 </r>
       <r>   -0.5401    1.0000 </r>
       <r>   -0.2336    1.0000 </r>
       <r>    0.1881    1.0000 </r>
       <r>    0.4126    1.0000 </r>
       <r>    1.0955    1.0000 </r>
       <r>    1.2906    1.0000 </r>
       <r>    1.4834    1.0000 </r>
       <r>    1.6202    1.0000 </r>
       <r>    1.8102    1.0000 </r>
       <r>    2.0789    1.0000 </r>
       <r>    2.2535    1.0000 </r>
       <r>    2.3791    1.0000 </r>
       <r>    2.4780    1.0000 </r>
       <r>    2.9431    1.0000 </r>
       <r>    3.0304    1.0000 </r>
       <r>    3.1979    1.0000 </r>
       <r>    3.3171    1.0000 </r>
       <r>    3.5493    1.0000 </r>
       <r>    3.7516    1.0000 </r>
       <r>    3.9786    1.0000 </r>
       <r>    4.0728    1.0000 </r>
       <r>    4.3028    1.0000 </r>
       <r>    4.4290    1.0000 </r>
       <r>    4.5770    1.0000 </r>
       <r>    4.7219    1.0000 </r>
       <r>    5.7783    1.0000 </r>
       <r>    5.9834    1.0000 </r>
       <r>    6.1759    1.0000 </r>
       <r>    6.2085    1.0000 </r>
       <r>    6.3569    1.0000 </r>
       <r>    6.5080    1.0000 </r>
       <r>    6.6679    1.0001 </r>
       <r>    6.9814    1.0307 </r>
       <r>    7.0793    1.0176 </r>
       <r>    7.2561    0.5468 </r>
       <r>    7.4244    0.0136 </r>
       <r>    7.6709   -0.0075 </r>
       <r>    7.7765   -0.0009 </r>
       <r>    7.8508   -0.0001 </r>
       <r>    8.0449   -0.0000 </r>
       <r>    8.1760   -0.0000 </r>
       <r>    8.3534   -0.0000 </r>
       <r>    8.4721   -0.0000 </r>
       <r>    8.6272   -0.0000 </r>
       <r>    8.7724   -0.0000 </r>
       <r>    9.0645   -0.0000 </r>
       <r>    9.1468   -0.0000 </r>
       <r>    9.2685   -0.0000 </r>
       <r>    9.4962   -0.0000 </r>
       <r>    9.6091   -0.0000 </r>
       <r>    9.7303   -0.0000 </r>
       <r>    9.8764   -0.0000 </r>
       <r>    9.9806   -0.0000 </r>
       <r>   10.1164   -0.0000 </r>
       <r>   10.4989   -0.0000 </r>
       <r>   10.6252   -0.0000 </r>
       <r>   10.6609   -0.0000 </r>
       <r>   10.8407   -0.0000 </r>
       <r>   11.0103   -0.0000 </r>
      </set>
      <set comment="kpoint 57">
       <r>   -2.9361    1.0000 </r>
       <r>   -2.6166    1.0000 </r>
       <r>   -1.9553    1.0000 </r>
       <r>   -1.8732    1.0000 </r>
       <r>   -0.9747    1.0000 </r>
       <r>   -0.4403    1.0000 </r>
       <r>   -0.3348    1.0000 </r>
       <r>    0.1240    1.0000 </r>
       <r>    0.6991    1.0000 </r>
       <r>    0.8807    1.0000 </r>
       <r>    1.1939    1.0000 </r>
       <r>    1.3197    1.0000 </r>
       <r>    1.7418    1.0000 </r>
       <r>    1.8533    1.0000 </r>
       <r>    2.0429    1.0000 </r>
       <r>    2.2026    1.0000 </r>
       <r>    2.4119    1.0000 </r>
       <r>    2.7409    1.0000 </r>
       <r>    2.9180    1.0000 </r>
       <r>    3.1291    1.0000 </r>
       <r>    3.1678    1.0000 </r>
       <r>    3.4525    1.0000 </r>
       <r>    3.5897    1.0000 </r>
       <r>    3.7365    1.0000 </r>
       <r>    3.9160    1.0000 </r>
       <r>    3.9847    1.0000 </r>
       <r>    4.0904    1.0000 </r>
       <r>    4.3689    1.0000 </r>
       <r>    4.6538    1.0000 </r>
       <r>    4.8805    1.0000 </r>
       <r>    5.5833    1.0000 </r>
       <r>    5.8607    1.0000 </r>
       <r>    6.0991    1.0000 </r>
       <r>    6.2821    1.0000 </r>
       <r>    6.4108    1.0000 </r>
       <r>    6.4709    1.0000 </r>
       <r>    6.7442    1.0007 </r>
       <r>    6.9344    1.0201 </r>
       <r>    7.1255    0.9628 </r>
       <r>    7.3815    0.0932 </r>
       <r>    7.4601   -0.0211 </r>
       <r>    7.5581   -0.0296 </r>
       <r>    7.7423   -0.0020 </r>
       <r>    7.9027   -0.0000 </r>
       <r>    8.0543   -0.0000 </r>
       <r>    8.1763   -0.0000 </r>
       <r>    8.3228   -0.0000 </r>
       <r>    8.4434   -0.0000 </r>
       <r>    8.6164   -0.0000 </r>
       <r>    8.6861   -0.0000 </r>
       <r>    9.1258   -0.0000 </r>
       <r>    9.2965   -0.0000 </r>
       <r>    9.3622   -0.0000 </r>
       <r>    9.4363   -0.0000 </r>
       <r>    9.6840   -0.0000 </r>
       <r>    9.7708   -0.0000 </r>
       <r>    9.9065   -0.0000 </r>
       <r>   10.0037   -0.0000 </r>
       <r>   10.1169   -0.0000 </r>
       <r>   10.4009   -0.0000 </r>
       <r>   10.5675   -0.0000 </r>
       <r>   10.7083   -0.0000 </r>
       <r>   10.7763   -0.0000 </r>
       <r>   10.9762   -0.0000 </r>
      </set>
      <set comment="kpoint 58">
       <r>   -3.0511    1.0000 </r>
       <r>   -2.2200    1.0000 </r>
       <r>   -2.1339    1.0000 </r>
       <r>   -1.9680    1.0000 </r>
       <r>   -1.0611    1.0000 </r>
       <r>   -0.5188    1.0000 </r>
       <r>   -0.3072    1.0000 </r>
       <r>    0.2686    1.0000 </r>
       <r>    0.6570    1.0000 </r>
       <r>    0.9282    1.0000 </r>
       <r>    1.1314    1.0000 </r>
       <r>    1.3915    1.0000 </r>
       <r>    1.6350    1.0000 </r>
       <r>    1.9616    1.0000 </r>
       <r>    2.0529    1.0000 </r>
       <r>    2.3584    1.0000 </r>
       <r>    2.5610    1.0000 </r>
       <r>    2.6566    1.0000 </r>
       <r>    2.8770    1.0000 </r>
       <r>    3.0255    1.0000 </r>
       <r>    3.1071    1.0000 </r>
       <r>    3.4667    1.0000 </r>
       <r>    3.5431    1.0000 </r>
       <r>    3.6329    1.0000 </r>
       <r>    3.7198    1.0000 </r>
       <r>    3.9844    1.0000 </r>
       <r>    4.4109    1.0000 </r>
       <r>    4.4830    1.0000 </r>
       <r>    4.5200    1.0000 </r>
       <r>    4.7756    1.0000 </r>
       <r>    5.5019    1.0000 </r>
       <r>    6.0223    1.0000 </r>
       <r>    6.1384    1.0000 </r>
       <r>    6.1931    1.0000 </r>
       <r>    6.3042    1.0000 </r>
       <r>    6.4424    1.0000 </r>
       <r>    6.7204    1.0004 </r>
       <r>    7.0969    1.0021 </r>
       <r>    7.1765    0.8434 </r>
       <r>    7.3195    0.2869 </r>
       <r>    7.3976    0.0580 </r>
       <r>    7.7337   -0.0024 </r>
       <r>    7.7708   -0.0011 </r>
       <r>    7.9207   -0.0000 </r>
       <r>    8.0081   -0.0000 </r>
       <r>    8.2800   -0.0000 </r>
       <r>    8.3438   -0.0000 </r>
       <r>    8.5152   -0.0000 </r>
       <r>    8.5805   -0.0000 </r>
       <r>    8.7383   -0.0000 </r>
       <r>    8.9876   -0.0000 </r>
       <r>    9.2545   -0.0000 </r>
       <r>    9.4049   -0.0000 </r>
       <r>    9.4579   -0.0000 </r>
       <r>    9.6179   -0.0000 </r>
       <r>    9.6890   -0.0000 </r>
       <r>    9.8934   -0.0000 </r>
       <r>   10.0840   -0.0000 </r>
       <r>   10.1613   -0.0000 </r>
       <r>   10.3104   -0.0000 </r>
       <r>   10.4436   -0.0000 </r>
       <r>   10.6984   -0.0000 </r>
       <r>   10.8734   -0.0000 </r>
       <r>   10.9763   -0.0000 </r>
      </set>
      <set comment="kpoint 59">
       <r>   -3.0328    1.0000 </r>
       <r>   -2.3290    1.0000 </r>
       <r>   -2.1059    1.0000 </r>
       <r>   -1.9068    1.0000 </r>
       <r>   -1.0648    1.0000 </r>
       <r>   -0.4842    1.0000 </r>
       <r>   -0.2885    1.0000 </r>
       <r>    0.2079    1.0000 </r>
       <r>    0.7104    1.0000 </r>
       <r>    0.8993    1.0000 </r>
       <r>    1.1131    1.0000 </r>
       <r>    1.4227    1.0000 </r>
       <r>    1.6525    1.0000 </r>
       <r>    1.9229    1.0000 </r>
       <r>    2.0491    1.0000 </r>
       <r>    2.3072    1.0000 </r>
       <r>    2.5179    1.0000 </r>
       <r>    2.6720    1.0000 </r>
       <r>    2.8673    1.0000 </r>
       <r>    3.0107    1.0000 </r>
       <r>    3.1484    1.0000 </r>
       <r>    3.4303    1.0000 </r>
       <r>    3.6109    1.0000 </r>
       <r>    3.6799    1.0000 </r>
       <r>    3.7484    1.0000 </r>
       <r>    3.9644    1.0000 </r>
       <r>    4.3291    1.0000 </r>
       <r>    4.4541    1.0000 </r>
       <r>    4.6170    1.0000 </r>
       <r>    4.7943    1.0000 </r>
       <r>    5.5435    1.0000 </r>
       <r>    5.9369    1.0000 </r>
       <r>    6.1240    1.0000 </r>
       <r>    6.2489    1.0000 </r>
       <r>    6.3219    1.0000 </r>
       <r>    6.4444    1.0000 </r>
       <r>    6.7605    1.0010 </r>
       <r>    7.0468    1.0327 </r>
       <r>    7.2069    0.7426 </r>
       <r>    7.2807    0.4429 </r>
       <r>    7.3637    0.1397 </r>
       <r>    7.6116   -0.0176 </r>
       <r>    7.8051   -0.0005 </r>
       <r>    7.9515   -0.0000 </r>
       <r>    8.0817   -0.0000 </r>
       <r>    8.2367   -0.0000 </r>
       <r>    8.4275   -0.0000 </r>
       <r>    8.5352   -0.0000 </r>
       <r>    8.6066   -0.0000 </r>
       <r>    8.7064   -0.0000 </r>
       <r>    8.9550   -0.0000 </r>
       <r>    9.2391   -0.0000 </r>
       <r>    9.3093   -0.0000 </r>
       <r>    9.4430   -0.0000 </r>
       <r>    9.5514   -0.0000 </r>
       <r>    9.7279   -0.0000 </r>
       <r>    9.9419   -0.0000 </r>
       <r>   10.0653   -0.0000 </r>
       <r>   10.1983   -0.0000 </r>
       <r>   10.3470   -0.0000 </r>
       <r>   10.4408   -0.0000 </r>
       <r>   10.6853   -0.0000 </r>
       <r>   10.8267   -0.0000 </r>
       <r>   10.9091   -0.0000 </r>
      </set>
      <set comment="kpoint 60">
       <r>   -2.9750    1.0000 </r>
       <r>   -2.4519    1.0000 </r>
       <r>   -2.2448    1.0000 </r>
       <r>   -1.6724    1.0000 </r>
       <r>   -0.9758    1.0000 </r>
       <r>   -0.5937    1.0000 </r>
       <r>   -0.2698    1.0000 </r>
       <r>    0.1454    1.0000 </r>
       <r>    0.4923    1.0000 </r>
       <r>    1.1481    1.0000 </r>
       <r>    1.2993    1.0000 </r>
       <r>    1.4881    1.0000 </r>
       <r>    1.6367    1.0000 </r>
       <r>    1.8569    1.0000 </r>
       <r>    2.0408    1.0000 </r>
       <r>    2.2660    1.0000 </r>
       <r>    2.3505    1.0000 </r>
       <r>    2.5575    1.0000 </r>
       <r>    2.8246    1.0000 </r>
       <r>    3.0751    1.0000 </r>
       <r>    3.1516    1.0000 </r>
       <r>    3.3261    1.0000 </r>
       <r>    3.5382    1.0000 </r>
       <r>    3.7458    1.0000 </r>
       <r>    3.9725    1.0000 </r>
       <r>    4.0156    1.0000 </r>
       <r>    4.3153    1.0000 </r>
       <r>    4.4688    1.0000 </r>
       <r>    4.6435    1.0000 </r>
       <r>    4.7320    1.0000 </r>
       <r>    5.6419    1.0000 </r>
       <r>    5.9233    1.0000 </r>
       <r>    6.1076    1.0000 </r>
       <r>    6.2492    1.0000 </r>
       <r>    6.4132    1.0000 </r>
       <r>    6.5265    1.0000 </r>
       <r>    6.6630    1.0001 </r>
       <r>    6.9628    1.0267 </r>
       <r>    7.1015    0.9969 </r>
       <r>    7.3571    0.1588 </r>
       <r>    7.4859   -0.0323 </r>
       <r>    7.6323   -0.0135 </r>
       <r>    7.7651   -0.0012 </r>
       <r>    7.8069   -0.0005 </r>
       <r>    8.0587   -0.0000 </r>
       <r>    8.1962   -0.0000 </r>
       <r>    8.3525   -0.0000 </r>
       <r>    8.4777   -0.0000 </r>
       <r>    8.6691   -0.0000 </r>
       <r>    8.7078   -0.0000 </r>
       <r>    9.1136   -0.0000 </r>
       <r>    9.1910   -0.0000 </r>
       <r>    9.3389   -0.0000 </r>
       <r>    9.4488   -0.0000 </r>
       <r>    9.6062   -0.0000 </r>
       <r>    9.6991   -0.0000 </r>
       <r>    9.8928   -0.0000 </r>
       <r>   10.0158   -0.0000 </r>
       <r>   10.2134   -0.0000 </r>
       <r>   10.3953   -0.0000 </r>
       <r>   10.5773   -0.0000 </r>
       <r>   10.6266   -0.0000 </r>
       <r>   10.8812   -0.0000 </r>
       <r>   11.0040   -0.0000 </r>
      </set>
      <set comment="kpoint 61">
       <r>   -2.9278    1.0000 </r>
       <r>   -2.6185    1.0000 </r>
       <r>   -1.9830    1.0000 </r>
       <r>   -1.8791    1.0000 </r>
       <r>   -0.9273    1.0000 </r>
       <r>   -0.4884    1.0000 </r>
       <r>   -0.2739    1.0000 </r>
       <r>    0.1383    1.0000 </r>
       <r>    0.7101    1.0000 </r>
       <r>    0.8775    1.0000 </r>
       <r>    1.1025    1.0000 </r>
       <r>    1.2583    1.0000 </r>
       <r>    1.7949    1.0000 </r>
       <r>    1.8512    1.0000 </r>
       <r>    2.0671    1.0000 </r>
       <r>    2.2238    1.0000 </r>
       <r>    2.4242    1.0000 </r>
       <r>    2.7393    1.0000 </r>
       <r>    2.9024    1.0000 </r>
       <r>    3.1220    1.0000 </r>
       <r>    3.2452    1.0000 </r>
       <r>    3.3551    1.0000 </r>
       <r>    3.6144    1.0000 </r>
       <r>    3.7677    1.0000 </r>
       <r>    3.8440    1.0000 </r>
       <r>    3.9488    1.0000 </r>
       <r>    4.1450    1.0000 </r>
       <r>    4.4415    1.0000 </r>
       <r>    4.7242    1.0000 </r>
       <r>    4.7681    1.0000 </r>
       <r>    5.6196    1.0000 </r>
       <r>    5.8274    1.0000 </r>
       <r>    6.0290    1.0000 </r>
       <r>    6.2517    1.0000 </r>
       <r>    6.4905    1.0000 </r>
       <r>    6.5319    1.0000 </r>
       <r>    6.7591    1.0010 </r>
       <r>    6.8884    1.0111 </r>
       <r>    7.1805    0.8314 </r>
       <r>    7.4118    0.0323 </r>
       <r>    7.5038   -0.0352 </r>
       <r>    7.5754   -0.0258 </r>
       <r>    7.7098   -0.0038 </r>
       <r>    7.8488   -0.0002 </r>
       <r>    7.9945   -0.0000 </r>
       <r>    8.1658   -0.0000 </r>
       <r>    8.3017   -0.0000 </r>
       <r>    8.4578   -0.0000 </r>
       <r>    8.5617   -0.0000 </r>
       <r>    8.6650   -0.0000 </r>
       <r>    9.1479   -0.0000 </r>
       <r>    9.2151   -0.0000 </r>
       <r>    9.3710   -0.0000 </r>
       <r>    9.4869   -0.0000 </r>
       <r>    9.5962   -0.0000 </r>
       <r>    9.8357   -0.0000 </r>
       <r>    9.9431   -0.0000 </r>
       <r>   10.0421   -0.0000 </r>
       <r>   10.1767   -0.0000 </r>
       <r>   10.4238   -0.0000 </r>
       <r>   10.5220   -0.0000 </r>
       <r>   10.6423   -0.0000 </r>
       <r>   10.7924   -0.0000 </r>
       <r>   11.0067   -0.0000 </r>
      </set>
      <set comment="kpoint 62">
       <r>   -2.9359    1.0000 </r>
       <r>   -2.5802    1.0000 </r>
       <r>   -2.1050    1.0000 </r>
       <r>   -1.7744    1.0000 </r>
       <r>   -0.9342    1.0000 </r>
       <r>   -0.5838    1.0000 </r>
       <r>   -0.2009    1.0000 </r>
       <r>    0.1485    1.0000 </r>
       <r>    0.7478    1.0000 </r>
       <r>    0.8583    1.0000 </r>
       <r>    1.1365    1.0000 </r>
       <r>    1.2956    1.0000 </r>
       <r>    1.6687    1.0000 </r>
       <r>    1.8984    1.0000 </r>
       <r>    2.0703    1.0000 </r>
       <r>    2.3364    1.0000 </r>
       <r>    2.4947    1.0000 </r>
       <r>    2.7581    1.0000 </r>
       <r>    2.8546    1.0000 </r>
       <r>    2.9970    1.0000 </r>
       <r>    3.0521    1.0000 </r>
       <r>    3.2496    1.0000 </r>
       <r>    3.5280    1.0000 </r>
       <r>    3.8248    1.0000 </r>
       <r>    3.8833    1.0000 </r>
       <r>    4.0346    1.0000 </r>
       <r>    4.3255    1.0000 </r>
       <r>    4.4987    1.0000 </r>
       <r>    4.6439    1.0000 </r>
       <r>    4.7741    1.0000 </r>
       <r>    5.7035    1.0000 </r>
       <r>    5.8536    1.0000 </r>
       <r>    6.0454    1.0000 </r>
       <r>    6.2857    1.0000 </r>
       <r>    6.4371    1.0000 </r>
       <r>    6.5638    1.0000 </r>
       <r>    6.6253    1.0000 </r>
       <r>    6.8554    1.0066 </r>
       <r>    7.0461    1.0329 </r>
       <r>    7.4178    0.0229 </r>
       <r>    7.5290   -0.0345 </r>
       <r>    7.7137   -0.0035 </r>
       <r>    7.7398   -0.0021 </r>
       <r>    7.8893   -0.0000 </r>
       <r>    8.0641   -0.0000 </r>
       <r>    8.2234   -0.0000 </r>
       <r>    8.3071   -0.0000 </r>
       <r>    8.4228   -0.0000 </r>
       <r>    8.5272   -0.0000 </r>
       <r>    8.6800   -0.0000 </r>
       <r>    9.0019   -0.0000 </r>
       <r>    9.1616   -0.0000 </r>
       <r>    9.3669   -0.0000 </r>
       <r>    9.4610   -0.0000 </r>
       <r>    9.5764   -0.0000 </r>
       <r>    9.8853   -0.0000 </r>
       <r>    9.9930   -0.0000 </r>
       <r>   10.0380   -0.0000 </r>
       <r>   10.2327   -0.0000 </r>
       <r>   10.4516   -0.0000 </r>
       <r>   10.4697   -0.0000 </r>
       <r>   10.5565   -0.0000 </r>
       <r>   10.8570   -0.0000 </r>
       <r>   10.9802   -0.0000 </r>
      </set>
      <set comment="kpoint 63">
       <r>   -2.9966    1.0000 </r>
       <r>   -2.4138    1.0000 </r>
       <r>   -2.1978    1.0000 </r>
       <r>   -1.7852    1.0000 </r>
       <r>   -0.8990    1.0000 </r>
       <r>   -0.5393    1.0000 </r>
       <r>   -0.3572    1.0000 </r>
       <r>    0.1203    1.0000 </r>
       <r>    0.7418    1.0000 </r>
       <r>    0.9549    1.0000 </r>
       <r>    1.1340    1.0000 </r>
       <r>    1.3905    1.0000 </r>
       <r>    1.5819    1.0000 </r>
       <r>    1.9432    1.0000 </r>
       <r>    2.0255    1.0000 </r>
       <r>    2.3324    1.0000 </r>
       <r>    2.4979    1.0000 </r>
       <r>    2.7184    1.0000 </r>
       <r>    2.8590    1.0000 </r>
       <r>    3.0328    1.0000 </r>
       <r>    3.1666    1.0000 </r>
       <r>    3.3807    1.0000 </r>
       <r>    3.4959    1.0000 </r>
       <r>    3.7137    1.0000 </r>
       <r>    3.8383    1.0000 </r>
       <r>    4.0077    1.0000 </r>
       <r>    4.2579    1.0000 </r>
       <r>    4.5456    1.0000 </r>
       <r>    4.6421    1.0000 </r>
       <r>    4.8117    1.0000 </r>
       <r>    5.6568    1.0000 </r>
       <r>    5.8381    1.0000 </r>
       <r>    6.0768    1.0000 </r>
       <r>    6.2025    1.0000 </r>
       <r>    6.3627    1.0000 </r>
       <r>    6.5464    1.0000 </r>
       <r>    6.6221    1.0000 </r>
       <r>    6.8822    1.0101 </r>
       <r>    7.1840    0.8205 </r>
       <r>    7.2810    0.4418 </r>
       <r>    7.5751   -0.0259 </r>
       <r>    7.6197   -0.0159 </r>
       <r>    7.7553   -0.0015 </r>
       <r>    7.8276   -0.0003 </r>
       <r>    8.0784   -0.0000 </r>
       <r>    8.2737   -0.0000 </r>
       <r>    8.3416   -0.0000 </r>
       <r>    8.5489   -0.0000 </r>
       <r>    8.5779   -0.0000 </r>
       <r>    8.7065   -0.0000 </r>
       <r>    9.0915   -0.0000 </r>
       <r>    9.1862   -0.0000 </r>
       <r>    9.2664   -0.0000 </r>
       <r>    9.4491   -0.0000 </r>
       <r>    9.5987   -0.0000 </r>
       <r>    9.9787   -0.0000 </r>
       <r>   10.0041   -0.0000 </r>
       <r>   10.0951   -0.0000 </r>
       <r>   10.1745   -0.0000 </r>
       <r>   10.3183   -0.0000 </r>
       <r>   10.3759   -0.0000 </r>
       <r>   10.6638   -0.0000 </r>
       <r>   10.7849   -0.0000 </r>
       <r>   10.9367   -0.0000 </r>
      </set>
      <set comment="kpoint 64">
       <r>   -2.9903    1.0000 </r>
       <r>   -2.4484    1.0000 </r>
       <r>   -2.1646    1.0000 </r>
       <r>   -1.7672    1.0000 </r>
       <r>   -0.9268    1.0000 </r>
       <r>   -0.6240    1.0000 </r>
       <r>   -0.3291    1.0000 </r>
       <r>    0.1382    1.0000 </r>
       <r>    0.7551    1.0000 </r>
       <r>    1.0250    1.0000 </r>
       <r>    1.2466    1.0000 </r>
       <r>    1.3856    1.0000 </r>
       <r>    1.5492    1.0000 </r>
       <r>    1.9240    1.0000 </r>
       <r>    2.0969    1.0000 </r>
       <r>    2.2896    1.0000 </r>
       <r>    2.4215    1.0000 </r>
       <r>    2.7374    1.0000 </r>
       <r>    2.7834    1.0000 </r>
       <r>    2.9688    1.0000 </r>
       <r>    3.1518    1.0000 </r>
       <r>    3.2590    1.0000 </r>
       <r>    3.6185    1.0000 </r>
       <r>    3.7628    1.0000 </r>
       <r>    3.8573    1.0000 </r>
       <r>    3.9884    1.0000 </r>
       <r>    4.2217    1.0000 </r>
       <r>    4.5242    1.0000 </r>
       <r>    4.6603    1.0000 </r>
       <r>    4.7392    1.0000 </r>
       <r>    5.6335    1.0000 </r>
       <r>    5.9454    1.0000 </r>
       <r>    6.0721    1.0000 </r>
       <r>    6.2336    1.0000 </r>
       <r>    6.4788    1.0000 </r>
       <r>    6.6205    1.0000 </r>
       <r>    6.6894    1.0002 </r>
       <r>    6.7914    1.0020 </r>
       <r>    7.1700    0.8623 </r>
       <r>    7.3847    0.0857 </r>
       <r>    7.5120   -0.0355 </r>
       <r>    7.7290   -0.0026 </r>
       <r>    7.7456   -0.0019 </r>
       <r>    7.8640   -0.0001 </r>
       <r>    8.0242   -0.0000 </r>
       <r>    8.1594   -0.0000 </r>
       <r>    8.3639   -0.0000 </r>
       <r>    8.5095   -0.0000 </r>
       <r>    8.6130   -0.0000 </r>
       <r>    8.7014   -0.0000 </r>
       <r>    9.0787   -0.0000 </r>
       <r>    9.1254   -0.0000 </r>
       <r>    9.2803   -0.0000 </r>
       <r>    9.4334   -0.0000 </r>
       <r>    9.5398   -0.0000 </r>
       <r>    9.8335   -0.0000 </r>
       <r>    9.9818   -0.0000 </r>
       <r>   10.0974   -0.0000 </r>
       <r>   10.2027   -0.0000 </r>
       <r>   10.3273   -0.0000 </r>
       <r>   10.4340   -0.0000 </r>
       <r>   10.5291   -0.0000 </r>
       <r>   10.8476   -0.0000 </r>
       <r>   10.8951   -0.0000 </r>
      </set>
      <set comment="kpoint 65">
       <r>   -3.0123    1.0000 </r>
       <r>   -2.4314    1.0000 </r>
       <r>   -2.0316    1.0000 </r>
       <r>   -1.8808    1.0000 </r>
       <r>   -1.0968    1.0000 </r>
       <r>   -0.5006    1.0000 </r>
       <r>   -0.2366    1.0000 </r>
       <r>    0.2237    1.0000 </r>
       <r>    0.6714    1.0000 </r>
       <r>    0.9293    1.0000 </r>
       <r>    1.0986    1.0000 </r>
       <r>    1.3271    1.0000 </r>
       <r>    1.7705    1.0000 </r>
       <r>    1.8570    1.0000 </r>
       <r>    2.1734    1.0000 </r>
       <r>    2.2097    1.0000 </r>
       <r>    2.4962    1.0000 </r>
       <r>    2.7372    1.0000 </r>
       <r>    2.8577    1.0000 </r>
       <r>    3.0217    1.0000 </r>
       <r>    3.0654    1.0000 </r>
       <r>    3.4518    1.0000 </r>
       <r>    3.4884    1.0000 </r>
       <r>    3.6669    1.0000 </r>
       <r>    3.8856    1.0000 </r>
       <r>    4.0271    1.0000 </r>
       <r>    4.2558    1.0000 </r>
       <r>    4.5168    1.0000 </r>
       <r>    4.6260    1.0000 </r>
       <r>    4.8093    1.0000 </r>
       <r>    5.4566    1.0000 </r>
       <r>    5.9027    1.0000 </r>
       <r>    6.0996    1.0000 </r>
       <r>    6.2010    1.0000 </r>
       <r>    6.3861    1.0000 </r>
       <r>    6.5196    1.0000 </r>
       <r>    6.7672    1.0012 </r>
       <r>    6.9840    1.0312 </r>
       <r>    7.1766    0.8433 </r>
       <r>    7.4185    0.0219 </r>
       <r>    7.5025   -0.0351 </r>
       <r>    7.5576   -0.0297 </r>
       <r>    7.7715   -0.0011 </r>
       <r>    7.9054   -0.0000 </r>
       <r>    8.0756   -0.0000 </r>
       <r>    8.2070   -0.0000 </r>
       <r>    8.3561   -0.0000 </r>
       <r>    8.4716   -0.0000 </r>
       <r>    8.5700   -0.0000 </r>
       <r>    8.6822   -0.0000 </r>
       <r>    9.1448   -0.0000 </r>
       <r>    9.1939   -0.0000 </r>
       <r>    9.3800   -0.0000 </r>
       <r>    9.4422   -0.0000 </r>
       <r>    9.5925   -0.0000 </r>
       <r>    9.7444   -0.0000 </r>
       <r>    9.8304   -0.0000 </r>
       <r>   10.0409   -0.0000 </r>
       <r>   10.1680   -0.0000 </r>
       <r>   10.3735   -0.0000 </r>
       <r>   10.6053   -0.0000 </r>
       <r>   10.7325   -0.0000 </r>
       <r>   10.8239   -0.0000 </r>
       <r>   10.9919   -0.0000 </r>
      </set>
      <set comment="kpoint 66">
       <r>   -3.0166    1.0000 </r>
       <r>   -2.3748    1.0000 </r>
       <r>   -2.1402    1.0000 </r>
       <r>   -1.8769    1.0000 </r>
       <r>   -0.9307    1.0000 </r>
       <r>   -0.4679    1.0000 </r>
       <r>   -0.3577    1.0000 </r>
       <r>    0.2121    1.0000 </r>
       <r>    0.5510    1.0000 </r>
       <r>    0.9710    1.0000 </r>
       <r>    1.1610    1.0000 </r>
       <r>    1.3883    1.0000 </r>
       <r>    1.5198    1.0000 </r>
       <r>    1.9104    1.0000 </r>
       <r>    2.0367    1.0000 </r>
       <r>    2.3792    1.0000 </r>
       <r>    2.5772    1.0000 </r>
       <r>    2.6531    1.0000 </r>
       <r>    3.0087    1.0000 </r>
       <r>    3.0331    1.0000 </r>
       <r>    3.1233    1.0000 </r>
       <r>    3.4872    1.0000 </r>
       <r>    3.5778    1.0000 </r>
       <r>    3.6699    1.0000 </r>
       <r>    3.7936    1.0000 </r>
       <r>    3.9270    1.0000 </r>
       <r>    4.3935    1.0000 </r>
       <r>    4.4823    1.0000 </r>
       <r>    4.5662    1.0000 </r>
       <r>    4.7256    1.0000 </r>
       <r>    5.5365    1.0000 </r>
       <r>    5.9188    1.0000 </r>
       <r>    6.1639    1.0000 </r>
       <r>    6.2357    1.0000 </r>
       <r>    6.3024    1.0000 </r>
       <r>    6.3635    1.0000 </r>
       <r>    6.7436    1.0007 </r>
       <r>    7.0160    1.0353 </r>
       <r>    7.1621    0.8839 </r>
       <r>    7.2946    0.3854 </r>
       <r>    7.4036    0.0465 </r>
       <r>    7.6397   -0.0121 </r>
       <r>    7.7631   -0.0013 </r>
       <r>    7.9372   -0.0000 </r>
       <r>    8.0670   -0.0000 </r>
       <r>    8.2382   -0.0000 </r>
       <r>    8.3126   -0.0000 </r>
       <r>    8.5375   -0.0000 </r>
       <r>    8.5817   -0.0000 </r>
       <r>    8.7102   -0.0000 </r>
       <r>    9.0000   -0.0000 </r>
       <r>    9.1883   -0.0000 </r>
       <r>    9.3795   -0.0000 </r>
       <r>    9.4562   -0.0000 </r>
       <r>    9.6224   -0.0000 </r>
       <r>    9.8148   -0.0000 </r>
       <r>    9.9395   -0.0000 </r>
       <r>   10.0515   -0.0000 </r>
       <r>   10.1392   -0.0000 </r>
       <r>   10.4284   -0.0000 </r>
       <r>   10.5095   -0.0000 </r>
       <r>   10.7389   -0.0000 </r>
       <r>   10.8262   -0.0000 </r>
       <r>   11.0315   -0.0000 </r>
      </set>
      <set comment="kpoint 67">
       <r>   -2.9157    1.0000 </r>
       <r>   -2.6042    1.0000 </r>
       <r>   -2.1592    1.0000 </r>
       <r>   -1.6773    1.0000 </r>
       <r>   -0.9891    1.0000 </r>
       <r>   -0.5493    1.0000 </r>
       <r>   -0.2333    1.0000 </r>
       <r>    0.1264    1.0000 </r>
       <r>    0.5348    1.0000 </r>
       <r>    1.0224    1.0000 </r>
       <r>    1.2751    1.0000 </r>
       <r>    1.5013    1.0000 </r>
       <r>    1.7379    1.0000 </r>
       <r>    1.9096    1.0000 </r>
       <r>    1.9770    1.0000 </r>
       <r>    2.1499    1.0000 </r>
       <r>    2.3386    1.0000 </r>
       <r>    2.5874    1.0000 </r>
       <r>    2.9577    1.0000 </r>
       <r>    2.9981    1.0000 </r>
       <r>    3.1698    1.0000 </r>
       <r>    3.3529    1.0000 </r>
       <r>    3.4679    1.0000 </r>
       <r>    3.7970    1.0000 </r>
       <r>    3.9274    1.0000 </r>
       <r>    4.0530    1.0000 </r>
       <r>    4.2114    1.0000 </r>
       <r>    4.4455    1.0000 </r>
       <r>    4.6323    1.0000 </r>
       <r>    4.7518    1.0000 </r>
       <r>    5.8027    1.0000 </r>
       <r>    5.9688    1.0000 </r>
       <r>    6.0963    1.0000 </r>
       <r>    6.2772    1.0000 </r>
       <r>    6.4189    1.0000 </r>
       <r>    6.5594    1.0000 </r>
       <r>    6.6954    1.0002 </r>
       <r>    6.9861    1.0316 </r>
       <r>    7.1507    0.9120 </r>
       <r>    7.2409    0.6103 </r>
       <r>    7.5486   -0.0315 </r>
       <r>    7.5716   -0.0267 </r>
       <r>    7.6803   -0.0064 </r>
       <r>    7.8049   -0.0005 </r>
       <r>    8.0209   -0.0000 </r>
       <r>    8.1799   -0.0000 </r>
       <r>    8.3139   -0.0000 </r>
       <r>    8.5484   -0.0000 </r>
       <r>    8.6474   -0.0000 </r>
       <r>    8.7380   -0.0000 </r>
       <r>    9.0749   -0.0000 </r>
       <r>    9.1221   -0.0000 </r>
       <r>    9.3151   -0.0000 </r>
       <r>    9.4799   -0.0000 </r>
       <r>    9.5902   -0.0000 </r>
       <r>    9.7431   -0.0000 </r>
       <r>    9.9252   -0.0000 </r>
       <r>   10.0614   -0.0000 </r>
       <r>   10.0780   -0.0000 </r>
       <r>   10.3310   -0.0000 </r>
       <r>   10.5589   -0.0000 </r>
       <r>   10.6419   -0.0000 </r>
       <r>   10.8659   -0.0000 </r>
       <r>   10.9291   -0.0000 </r>
      </set>
      <set comment="kpoint 68">
       <r>   -2.9569    1.0000 </r>
       <r>   -2.5105    1.0000 </r>
       <r>   -2.2049    1.0000 </r>
       <r>   -1.6808    1.0000 </r>
       <r>   -0.9558    1.0000 </r>
       <r>   -0.6132    1.0000 </r>
       <r>   -0.2556    1.0000 </r>
       <r>    0.1271    1.0000 </r>
       <r>    0.5546    1.0000 </r>
       <r>    1.0917    1.0000 </r>
       <r>    1.2577    1.0000 </r>
       <r>    1.4973    1.0000 </r>
       <r>    1.6671    1.0000 </r>
       <r>    1.9334    1.0000 </r>
       <r>    2.0066    1.0000 </r>
       <r>    2.2504    1.0000 </r>
       <r>    2.3232    1.0000 </r>
       <r>    2.5675    1.0000 </r>
       <r>    2.8555    1.0000 </r>
       <r>    3.0332    1.0000 </r>
       <r>    3.1849    1.0000 </r>
       <r>    3.3354    1.0000 </r>
       <r>    3.5072    1.0000 </r>
       <r>    3.7739    1.0000 </r>
       <r>    3.8783    1.0000 </r>
       <r>    4.0859    1.0000 </r>
       <r>    4.2578    1.0000 </r>
       <r>    4.4532    1.0000 </r>
       <r>    4.6127    1.0000 </r>
       <r>    4.7248    1.0000 </r>
       <r>    5.6450    1.0000 </r>
       <r>    5.9962    1.0000 </r>
       <r>    6.1531    1.0000 </r>
       <r>    6.2507    1.0000 </r>
       <r>    6.4360    1.0000 </r>
       <r>    6.5774    1.0000 </r>
       <r>    6.7179    1.0004 </r>
       <r>    7.0213    1.0355 </r>
       <r>    7.1133    0.9819 </r>
       <r>    7.3348    0.2313 </r>
       <r>    7.4157    0.0261 </r>
       <r>    7.6174   -0.0164 </r>
       <r>    7.7300   -0.0026 </r>
       <r>    7.8244   -0.0003 </r>
       <r>    8.0573   -0.0000 </r>
       <r>    8.1410   -0.0000 </r>
       <r>    8.3499   -0.0000 </r>
       <r>    8.4989   -0.0000 </r>
       <r>    8.6163   -0.0000 </r>
       <r>    8.7309   -0.0000 </r>
       <r>    9.0486   -0.0000 </r>
       <r>    9.2108   -0.0000 </r>
       <r>    9.3167   -0.0000 </r>
       <r>    9.4057   -0.0000 </r>
       <r>    9.6275   -0.0000 </r>
       <r>    9.7442   -0.0000 </r>
       <r>    9.8866   -0.0000 </r>
       <r>   10.0123   -0.0000 </r>
       <r>   10.1927   -0.0000 </r>
       <r>   10.3407   -0.0000 </r>
       <r>   10.5221   -0.0000 </r>
       <r>   10.6652   -0.0000 </r>
       <r>   10.8708   -0.0000 </r>
       <r>   11.0356   -0.0000 </r>
      </set>
      <set comment="kpoint 69">
       <r>   -2.9501    1.0000 </r>
       <r>   -2.5800    1.0000 </r>
       <r>   -1.9541    1.0000 </r>
       <r>   -1.8933    1.0000 </r>
       <r>   -1.0644    1.0000 </r>
       <r>   -0.4798    1.0000 </r>
       <r>   -0.1871    1.0000 </r>
       <r>    0.2035    1.0000 </r>
       <r>    0.6942    1.0000 </r>
       <r>    0.8622    1.0000 </r>
       <r>    1.0439    1.0000 </r>
       <r>    1.3490    1.0000 </r>
       <r>    1.7960    1.0000 </r>
       <r>    1.8923    1.0000 </r>
       <r>    2.0359    1.0000 </r>
       <r>    2.2243    1.0000 </r>
       <r>    2.4191    1.0000 </r>
       <r>    2.7163    1.0000 </r>
       <r>    2.9118    1.0000 </r>
       <r>    3.0940    1.0000 </r>
       <r>    3.1559    1.0000 </r>
       <r>    3.3326    1.0000 </r>
       <r>    3.5232    1.0000 </r>
       <r>    3.7459    1.0000 </r>
       <r>    3.8988    1.0000 </r>
       <r>    3.9866    1.0000 </r>
       <r>    4.2554    1.0000 </r>
       <r>    4.4437    1.0000 </r>
       <r>    4.6709    1.0000 </r>
       <r>    4.8004    1.0000 </r>
       <r>    5.5988    1.0000 </r>
       <r>    5.8362    1.0000 </r>
       <r>    6.0857    1.0000 </r>
       <r>    6.1836    1.0000 </r>
       <r>    6.4320    1.0000 </r>
       <r>    6.6358    1.0000 </r>
       <r>    6.7495    1.0008 </r>
       <r>    6.9454    1.0227 </r>
       <r>    7.1946    0.7858 </r>
       <r>    7.3826    0.0906 </r>
       <r>    7.5173   -0.0354 </r>
       <r>    7.6381   -0.0124 </r>
       <r>    7.7215   -0.0030 </r>
       <r>    7.8001   -0.0005 </r>
       <r>    8.0206   -0.0000 </r>
       <r>    8.2236   -0.0000 </r>
       <r>    8.3013   -0.0000 </r>
       <r>    8.4705   -0.0000 </r>
       <r>    8.5604   -0.0000 </r>
       <r>    8.6548   -0.0000 </r>
       <r>    9.1081   -0.0000 </r>
       <r>    9.2431   -0.0000 </r>
       <r>    9.3389   -0.0000 </r>
       <r>    9.4086   -0.0000 </r>
       <r>    9.5253   -0.0000 </r>
       <r>    9.8565   -0.0000 </r>
       <r>    9.9250   -0.0000 </r>
       <r>   10.0274   -0.0000 </r>
       <r>   10.0821   -0.0000 </r>
       <r>   10.4826   -0.0000 </r>
       <r>   10.5352   -0.0000 </r>
       <r>   10.6801   -0.0000 </r>
       <r>   10.8215   -0.0000 </r>
       <r>   10.9584   -0.0000 </r>
      </set>
      <set comment="kpoint 70">
       <r>   -3.0329    1.0000 </r>
       <r>   -2.3117    1.0000 </r>
       <r>   -2.1669    1.0000 </r>
       <r>   -1.8779    1.0000 </r>
       <r>   -0.9704    1.0000 </r>
       <r>   -0.4558    1.0000 </r>
       <r>   -0.3807    1.0000 </r>
       <r>    0.1719    1.0000 </r>
       <r>    0.6653    1.0000 </r>
       <r>    0.8945    1.0000 </r>
       <r>    1.2147    1.0000 </r>
       <r>    1.4048    1.0000 </r>
       <r>    1.4988    1.0000 </r>
       <r>    1.9170    1.0000 </r>
       <r>    2.0962    1.0000 </r>
       <r>    2.3262    1.0000 </r>
       <r>    2.5596    1.0000 </r>
       <r>    2.6434    1.0000 </r>
       <r>    2.9613    1.0000 </r>
       <r>    3.0542    1.0000 </r>
       <r>    3.1192    1.0000 </r>
       <r>    3.4845    1.0000 </r>
       <r>    3.6428    1.0000 </r>
       <r>    3.7015    1.0000 </r>
       <r>    3.8149    1.0000 </r>
       <r>    3.9036    1.0000 </r>
       <r>    4.2748    1.0000 </r>
       <r>    4.4004    1.0000 </r>
       <r>    4.6173    1.0000 </r>
       <r>    4.8633    1.0000 </r>
       <r>    5.4921    1.0000 </r>
       <r>    5.9578    1.0000 </r>
       <r>    6.1013    1.0000 </r>
       <r>    6.1427    1.0000 </r>
       <r>    6.3361    1.0000 </r>
       <r>    6.3875    1.0000 </r>
       <r>    6.6925    1.0002 </r>
       <r>    6.9857    1.0315 </r>
       <r>    7.2119    0.7244 </r>
       <r>    7.3658    0.1338 </r>
       <r>    7.4346    0.0010 </r>
       <r>    7.6234   -0.0152 </r>
       <r>    7.7130   -0.0036 </r>
       <r>    7.9670   -0.0000 </r>
       <r>    8.0116   -0.0000 </r>
       <r>    8.1648   -0.0000 </r>
       <r>    8.4071   -0.0000 </r>
       <r>    8.5168   -0.0000 </r>
       <r>    8.6262   -0.0000 </r>
       <r>    8.8345   -0.0000 </r>
       <r>    9.0087   -0.0000 </r>
       <r>    9.2220   -0.0000 </r>
       <r>    9.3719   -0.0000 </r>
       <r>    9.5041   -0.0000 </r>
       <r>    9.6286   -0.0000 </r>
       <r>    9.7415   -0.0000 </r>
       <r>    9.8989   -0.0000 </r>
       <r>   10.0728   -0.0000 </r>
       <r>   10.1208   -0.0000 </r>
       <r>   10.3478   -0.0000 </r>
       <r>   10.5186   -0.0000 </r>
       <r>   10.7422   -0.0000 </r>
       <r>   10.8706   -0.0000 </r>
       <r>   10.9761   -0.0000 </r>
      </set>
      <set comment="kpoint 71">
       <r>   -2.9613    1.0000 </r>
       <r>   -2.5309    1.0000 </r>
       <r>   -2.1065    1.0000 </r>
       <r>   -1.8138    1.0000 </r>
       <r>   -0.8394    1.0000 </r>
       <r>   -0.5889    1.0000 </r>
       <r>   -0.3182    1.0000 </r>
       <r>    0.1543    1.0000 </r>
       <r>    0.7072    1.0000 </r>
       <r>    0.9481    1.0000 </r>
       <r>    1.0564    1.0000 </r>
       <r>    1.3670    1.0000 </r>
       <r>    1.6414    1.0000 </r>
       <r>    1.9366    1.0000 </r>
       <r>    2.0373    1.0000 </r>
       <r>    2.2854    1.0000 </r>
       <r>    2.5530    1.0000 </r>
       <r>    2.7534    1.0000 </r>
       <r>    2.8967    1.0000 </r>
       <r>    2.9726    1.0000 </r>
       <r>    3.1689    1.0000 </r>
       <r>    3.2331    1.0000 </r>
       <r>    3.5748    1.0000 </r>
       <r>    3.7912    1.0000 </r>
       <r>    3.9039    1.0000 </r>
       <r>    3.9883    1.0000 </r>
       <r>    4.1879    1.0000 </r>
       <r>    4.5757    1.0000 </r>
       <r>    4.6402    1.0000 </r>
       <r>    4.7482    1.0000 </r>
       <r>    5.6430    1.0000 </r>
       <r>    5.9085    1.0000 </r>
       <r>    6.0481    1.0000 </r>
       <r>    6.2753    1.0000 </r>
       <r>    6.4212    1.0000 </r>
       <r>    6.5161    1.0000 </r>
       <r>    6.6820    1.0001 </r>
       <r>    6.8857    1.0107 </r>
       <r>    7.0915    1.0075 </r>
       <r>    7.2751    0.4666 </r>
       <r>    7.4875   -0.0327 </r>
       <r>    7.6562   -0.0095 </r>
       <r>    7.7825   -0.0008 </r>
       <r>    7.8949   -0.0000 </r>
       <r>    8.0791   -0.0000 </r>
       <r>    8.2187   -0.0000 </r>
       <r>    8.3324   -0.0000 </r>
       <r>    8.5046   -0.0000 </r>
       <r>    8.5416   -0.0000 </r>
       <r>    8.6476   -0.0000 </r>
       <r>    9.1283   -0.0000 </r>
       <r>    9.1653   -0.0000 </r>
       <r>    9.3297   -0.0000 </r>
       <r>    9.4343   -0.0000 </r>
       <r>    9.5846   -0.0000 </r>
       <r>    9.8666   -0.0000 </r>
       <r>   10.0413   -0.0000 </r>
       <r>   10.0764   -0.0000 </r>
       <r>   10.2425   -0.0000 </r>
       <r>   10.2740   -0.0000 </r>
       <r>   10.4646   -0.0000 </r>
       <r>   10.6111   -0.0000 </r>
       <r>   10.7714   -0.0000 </r>
       <r>   10.9563   -0.0000 </r>
      </set>
      <set comment="kpoint 72">
       <r>   -2.9894    1.0000 </r>
       <r>   -2.4133    1.0000 </r>
       <r>   -2.2187    1.0000 </r>
       <r>   -1.7629    1.0000 </r>
       <r>   -0.9430    1.0000 </r>
       <r>   -0.6024    1.0000 </r>
       <r>   -0.2729    1.0000 </r>
       <r>    0.1363    1.0000 </r>
       <r>    0.7649    1.0000 </r>
       <r>    0.9573    1.0000 </r>
       <r>    1.1812    1.0000 </r>
       <r>    1.3965    1.0000 </r>
       <r>    1.6330    1.0000 </r>
       <r>    1.9265    1.0000 </r>
       <r>    2.0052    1.0000 </r>
       <r>    2.3163    1.0000 </r>
       <r>    2.4411    1.0000 </r>
       <r>    2.7035    1.0000 </r>
       <r>    2.8800    1.0000 </r>
       <r>    2.9583    1.0000 </r>
       <r>    3.1318    1.0000 </r>
       <r>    3.2703    1.0000 </r>
       <r>    3.5342    1.0000 </r>
       <r>    3.7540    1.0000 </r>
       <r>    3.8437    1.0000 </r>
       <r>    3.9827    1.0000 </r>
       <r>    4.3403    1.0000 </r>
       <r>    4.5768    1.0000 </r>
       <r>    4.5964    1.0000 </r>
       <r>    4.7883    1.0000 </r>
       <r>    5.6936    1.0000 </r>
       <r>    5.8842    1.0000 </r>
       <r>    6.0673    1.0000 </r>
       <r>    6.2538    1.0000 </r>
       <r>    6.3229    1.0000 </r>
       <r>    6.5666    1.0000 </r>
       <r>    6.6944    1.0002 </r>
       <r>    6.9127    1.0155 </r>
       <r>    7.1737    0.8518 </r>
       <r>    7.4005    0.0524 </r>
       <r>    7.4806   -0.0308 </r>
       <r>    7.6884   -0.0056 </r>
       <r>    7.7667   -0.0012 </r>
       <r>    7.9076   -0.0000 </r>
       <r>    8.0430   -0.0000 </r>
       <r>    8.2273   -0.0000 </r>
       <r>    8.3501   -0.0000 </r>
       <r>    8.5046   -0.0000 </r>
       <r>    8.5550   -0.0000 </r>
       <r>    8.6485   -0.0000 </r>
       <r>    9.0716   -0.0000 </r>
       <r>    9.1293   -0.0000 </r>
       <r>    9.2815   -0.0000 </r>
       <r>    9.3719   -0.0000 </r>
       <r>    9.5521   -0.0000 </r>
       <r>    9.9683   -0.0000 </r>
       <r>   10.0129   -0.0000 </r>
       <r>   10.0911   -0.0000 </r>
       <r>   10.1315   -0.0000 </r>
       <r>   10.3435   -0.0000 </r>
       <r>   10.4130   -0.0000 </r>
       <r>   10.5128   -0.0000 </r>
       <r>   10.8228   -0.0000 </r>
       <r>   10.9565   -0.0000 </r>
      </set>
      <set comment="kpoint 73">
       <r>   -2.9780    1.0000 </r>
       <r>   -2.4998    1.0000 </r>
       <r>   -2.1274    1.0000 </r>
       <r>   -1.7569    1.0000 </r>
       <r>   -0.9544    1.0000 </r>
       <r>   -0.6249    1.0000 </r>
       <r>   -0.2508    1.0000 </r>
       <r>    0.1344    1.0000 </r>
       <r>    0.7008    1.0000 </r>
       <r>    0.9950    1.0000 </r>
       <r>    1.2267    1.0000 </r>
       <r>    1.3380    1.0000 </r>
       <r>    1.5891    1.0000 </r>
       <r>    1.8846    1.0000 </r>
       <r>    2.1025    1.0000 </r>
       <r>    2.3095    1.0000 </r>
       <r>    2.4743    1.0000 </r>
       <r>    2.8072    1.0000 </r>
       <r>    2.8203    1.0000 </r>
       <r>    2.9054    1.0000 </r>
       <r>    3.1183    1.0000 </r>
       <r>    3.2869    1.0000 </r>
       <r>    3.5529    1.0000 </r>
       <r>    3.7864    1.0000 </r>
       <r>    3.9220    1.0000 </r>
       <r>    3.9778    1.0000 </r>
       <r>    4.2405    1.0000 </r>
       <r>    4.5543    1.0000 </r>
       <r>    4.6601    1.0000 </r>
       <r>    4.7785    1.0000 </r>
       <r>    5.6621    1.0000 </r>
       <r>    5.8302    1.0000 </r>
       <r>    6.0382    1.0000 </r>
       <r>    6.2277    1.0000 </r>
       <r>    6.3675    1.0000 </r>
       <r>    6.5998    1.0000 </r>
       <r>    6.6329    1.0000 </r>
       <r>    6.8848    1.0105 </r>
       <r>    7.1476    0.9190 </r>
       <r>    7.3581    0.1560 </r>
       <r>    7.6162   -0.0166 </r>
       <r>    7.6840   -0.0060 </r>
       <r>    7.7602   -0.0014 </r>
       <r>    7.8633   -0.0001 </r>
       <r>    8.1197   -0.0000 </r>
       <r>    8.1939   -0.0000 </r>
       <r>    8.3440   -0.0000 </r>
       <r>    8.4223   -0.0000 </r>
       <r>    8.5829   -0.0000 </r>
       <r>    8.6885   -0.0000 </r>
       <r>    8.9832   -0.0000 </r>
       <r>    9.1785   -0.0000 </r>
       <r>    9.3142   -0.0000 </r>
       <r>    9.3910   -0.0000 </r>
       <r>    9.6295   -0.0000 </r>
       <r>    9.9053   -0.0000 </r>
       <r>    9.9931   -0.0000 </r>
       <r>   10.1207   -0.0000 </r>
       <r>   10.1900   -0.0000 </r>
       <r>   10.3973   -0.0000 </r>
       <r>   10.4683   -0.0000 </r>
       <r>   10.5956   -0.0000 </r>
       <r>   10.8536   -0.0000 </r>
       <r>   10.9739   -0.0000 </r>
      </set>
      <set comment="kpoint 74">
       <r>   -2.9410    1.0000 </r>
       <r>   -2.5607    1.0000 </r>
       <r>   -2.1724    1.0000 </r>
       <r>   -1.6953    1.0000 </r>
       <r>   -0.9241    1.0000 </r>
       <r>   -0.4869    1.0000 </r>
       <r>   -0.3561    1.0000 </r>
       <r>    0.1283    1.0000 </r>
       <r>    0.4609    1.0000 </r>
       <r>    1.0679    1.0000 </r>
       <r>    1.3615    1.0000 </r>
       <r>    1.4028    1.0000 </r>
       <r>    1.7132    1.0000 </r>
       <r>    1.8447    1.0000 </r>
       <r>    2.0455    1.0000 </r>
       <r>    2.1992    1.0000 </r>
       <r>    2.3141    1.0000 </r>
       <r>    2.6184    1.0000 </r>
       <r>    2.9450    1.0000 </r>
       <r>    3.0192    1.0000 </r>
       <r>    3.1931    1.0000 </r>
       <r>    3.3521    1.0000 </r>
       <r>    3.5572    1.0000 </r>
       <r>    3.8286    1.0000 </r>
       <r>    3.9582    1.0000 </r>
       <r>    4.0620    1.0000 </r>
       <r>    4.2250    1.0000 </r>
       <r>    4.3061    1.0000 </r>
       <r>    4.6255    1.0000 </r>
       <r>    4.8162    1.0000 </r>
       <r>    5.6683    1.0000 </r>
       <r>    5.9679    1.0000 </r>
       <r>    6.1355    1.0000 </r>
       <r>    6.2925    1.0000 </r>
       <r>    6.3904    1.0000 </r>
       <r>    6.4732    1.0000 </r>
       <r>    6.6508    1.0001 </r>
       <r>    6.9471    1.0230 </r>
       <r>    7.1072    0.9900 </r>
       <r>    7.2849    0.4254 </r>
       <r>    7.4334    0.0025 </r>
       <r>    7.6253   -0.0148 </r>
       <r>    7.7073   -0.0040 </r>
       <r>    7.8304   -0.0003 </r>
       <r>    8.0063   -0.0000 </r>
       <r>    8.1433   -0.0000 </r>
       <r>    8.4239   -0.0000 </r>
       <r>    8.5070   -0.0000 </r>
       <r>    8.6089   -0.0000 </r>
       <r>    8.8003   -0.0000 </r>
       <r>    9.0600   -0.0000 </r>
       <r>    9.2629   -0.0000 </r>
       <r>    9.3685   -0.0000 </r>
       <r>    9.5185   -0.0000 </r>
       <r>    9.6491   -0.0000 </r>
       <r>    9.7574   -0.0000 </r>
       <r>    9.9221   -0.0000 </r>
       <r>   10.0375   -0.0000 </r>
       <r>   10.1297   -0.0000 </r>
       <r>   10.2815   -0.0000 </r>
       <r>   10.5584   -0.0000 </r>
       <r>   10.6049   -0.0000 </r>
       <r>   10.8163   -0.0000 </r>
       <r>   11.0385   -0.0000 </r>
      </set>
      <set comment="kpoint 75">
       <r>   -3.0139    1.0000 </r>
       <r>   -2.3978    1.0000 </r>
       <r>   -2.1089    1.0000 </r>
       <r>   -1.8576    1.0000 </r>
       <r>   -1.0697    1.0000 </r>
       <r>   -0.4617    1.0000 </r>
       <r>   -0.2065    1.0000 </r>
       <r>    0.2281    1.0000 </r>
       <r>    0.4983    1.0000 </r>
       <r>    0.9926    1.0000 </r>
       <r>    1.1150    1.0000 </r>
       <r>    1.4310    1.0000 </r>
       <r>    1.5556    1.0000 </r>
       <r>    1.8451    1.0000 </r>
       <r>    2.1226    1.0000 </r>
       <r>    2.3821    1.0000 </r>
       <r>    2.5570    1.0000 </r>
       <r>    2.6166    1.0000 </r>
       <r>    2.8970    1.0000 </r>
       <r>    2.9841    1.0000 </r>
       <r>    3.1411    1.0000 </r>
       <r>    3.4216    1.0000 </r>
       <r>    3.6331    1.0000 </r>
       <r>    3.7261    1.0000 </r>
       <r>    3.7614    1.0000 </r>
       <r>    3.9920    1.0000 </r>
       <r>    4.4067    1.0000 </r>
       <r>    4.4990    1.0000 </r>
       <r>    4.5621    1.0000 </r>
       <r>    4.7270    1.0000 </r>
       <r>    5.4940    1.0000 </r>
       <r>    6.0018    1.0000 </r>
       <r>    6.1346    1.0000 </r>
       <r>    6.1783    1.0000 </r>
       <r>    6.3298    1.0000 </r>
       <r>    6.4052    1.0000 </r>
       <r>    6.7231    1.0004 </r>
       <r>    7.0500    1.0319 </r>
       <r>    7.2087    0.7362 </r>
       <r>    7.2604    0.5289 </r>
       <r>    7.4246    0.0134 </r>
       <r>    7.6245   -0.0150 </r>
       <r>    7.8703   -0.0001 </r>
       <r>    7.9214   -0.0000 </r>
       <r>    8.0878   -0.0000 </r>
       <r>    8.2137   -0.0000 </r>
       <r>    8.3217   -0.0000 </r>
       <r>    8.4443   -0.0000 </r>
       <r>    8.5745   -0.0000 </r>
       <r>    8.7286   -0.0000 </r>
       <r>    8.9490   -0.0000 </r>
       <r>    9.2186   -0.0000 </r>
       <r>    9.3570   -0.0000 </r>
       <r>    9.5017   -0.0000 </r>
       <r>    9.5646   -0.0000 </r>
       <r>    9.7307   -0.0000 </r>
       <r>    9.9613   -0.0000 </r>
       <r>   10.0660   -0.0000 </r>
       <r>   10.1632   -0.0000 </r>
       <r>   10.4325   -0.0000 </r>
       <r>   10.5646   -0.0000 </r>
       <r>   10.7604   -0.0000 </r>
       <r>   10.9109   -0.0000 </r>
       <r>   10.9299   -0.0000 </r>
      </set>
      <set comment="kpoint 76">
       <r>   -3.0063    1.0000 </r>
       <r>   -2.4404    1.0000 </r>
       <r>   -2.0427    1.0000 </r>
       <r>   -1.8753    1.0000 </r>
       <r>   -1.0661    1.0000 </r>
       <r>   -0.5628    1.0000 </r>
       <r>   -0.1873    1.0000 </r>
       <r>    0.1985    1.0000 </r>
       <r>    0.6507    1.0000 </r>
       <r>    0.9823    1.0000 </r>
       <r>    1.1740    1.0000 </r>
       <r>    1.2501    1.0000 </r>
       <r>    1.8096    1.0000 </r>
       <r>    1.9146    1.0000 </r>
       <r>    2.1034    1.0000 </r>
       <r>    2.1909    1.0000 </r>
       <r>    2.4389    1.0000 </r>
       <r>    2.7350    1.0000 </r>
       <r>    2.8522    1.0000 </r>
       <r>    3.0103    1.0000 </r>
       <r>    3.1536    1.0000 </r>
       <r>    3.3817    1.0000 </r>
       <r>    3.5741    1.0000 </r>
       <r>    3.6366    1.0000 </r>
       <r>    3.8268    1.0000 </r>
       <r>    4.0413    1.0000 </r>
       <r>    4.2471    1.0000 </r>
       <r>    4.4452    1.0000 </r>
       <r>    4.6909    1.0000 </r>
       <r>    4.7557    1.0000 </r>
       <r>    5.4770    1.0000 </r>
       <r>    5.9397    1.0000 </r>
       <r>    6.0793    1.0000 </r>
       <r>    6.2625    1.0000 </r>
       <r>    6.4563    1.0000 </r>
       <r>    6.5690    1.0000 </r>
       <r>    6.7301    1.0005 </r>
       <r>    6.9465    1.0229 </r>
       <r>    7.2667    0.5021 </r>
       <r>    7.4137    0.0293 </r>
       <r>    7.4857   -0.0323 </r>
       <r>    7.6516   -0.0102 </r>
       <r>    7.7955   -0.0006 </r>
       <r>    7.8575   -0.0001 </r>
       <r>    7.9968   -0.0000 </r>
       <r>    8.1819   -0.0000 </r>
       <r>    8.3227   -0.0000 </r>
       <r>    8.4417   -0.0000 </r>
       <r>    8.5447   -0.0000 </r>
       <r>    8.6948   -0.0000 </r>
       <r>    9.1273   -0.0000 </r>
       <r>    9.1635   -0.0000 </r>
       <r>    9.3237   -0.0000 </r>
       <r>    9.4705   -0.0000 </r>
       <r>    9.5809   -0.0000 </r>
       <r>    9.7311   -0.0000 </r>
       <r>    9.9221   -0.0000 </r>
       <r>   10.0542   -0.0000 </r>
       <r>   10.1302   -0.0000 </r>
       <r>   10.4066   -0.0000 </r>
       <r>   10.4904   -0.0000 </r>
       <r>   10.6590   -0.0000 </r>
       <r>   10.8983   -0.0000 </r>
       <r>   11.0227   -0.0000 </r>
      </set>
      <set comment="kpoint 77">
       <r>   -3.2286    1.0000 </r>
       <r>   -2.1709    1.0000 </r>
       <r>   -1.9614    1.0000 </r>
       <r>   -1.6239    1.0000 </r>
       <r>   -0.9915    1.0000 </r>
       <r>   -0.6399    1.0000 </r>
       <r>   -0.3381    1.0000 </r>
       <r>    0.1417    1.0000 </r>
       <r>    0.3520    1.0000 </r>
       <r>    0.6083    1.0000 </r>
       <r>    0.7863    1.0000 </r>
       <r>    1.3947    1.0000 </r>
       <r>    1.5751    1.0000 </r>
       <r>    1.7795    1.0000 </r>
       <r>    2.0673    1.0000 </r>
       <r>    2.4252    1.0000 </r>
       <r>    2.6117    1.0000 </r>
       <r>    2.6953    1.0000 </r>
       <r>    2.9658    1.0000 </r>
       <r>    3.2288    1.0000 </r>
       <r>    3.4249    1.0000 </r>
       <r>    3.5124    1.0000 </r>
       <r>    3.6703    1.0000 </r>
       <r>    3.9545    1.0000 </r>
       <r>    4.1681    1.0000 </r>
       <r>    4.3526    1.0000 </r>
       <r>    4.5003    1.0000 </r>
       <r>    4.6364    1.0000 </r>
       <r>    4.8023    1.0000 </r>
       <r>    5.0879    1.0000 </r>
       <r>    5.3841    1.0000 </r>
       <r>    5.4144    1.0000 </r>
       <r>    6.1020    1.0000 </r>
       <r>    6.1764    1.0000 </r>
       <r>    6.2409    1.0000 </r>
       <r>    6.3406    1.0000 </r>
       <r>    6.4382    1.0000 </r>
       <r>    6.5990    1.0000 </r>
       <r>    6.8264    1.0039 </r>
       <r>    7.1198    0.9721 </r>
       <r>    7.2913    0.3989 </r>
       <r>    7.3569    0.1593 </r>
       <r>    7.7919   -0.0007 </r>
       <r>    7.9237   -0.0000 </r>
       <r>    8.0868   -0.0000 </r>
       <r>    8.2360   -0.0000 </r>
       <r>    8.3769   -0.0000 </r>
       <r>    8.5558   -0.0000 </r>
       <r>    8.6306   -0.0000 </r>
       <r>    8.6746   -0.0000 </r>
       <r>    8.9219   -0.0000 </r>
       <r>    9.1199   -0.0000 </r>
       <r>    9.2659   -0.0000 </r>
       <r>    9.5453   -0.0000 </r>
       <r>    9.6896   -0.0000 </r>
       <r>    9.8085   -0.0000 </r>
       <r>   10.0032   -0.0000 </r>
       <r>   10.1186   -0.0000 </r>
       <r>   10.3219   -0.0000 </r>
       <r>   10.4191   -0.0000 </r>
       <r>   10.4724   -0.0000 </r>
       <r>   10.6085   -0.0000 </r>
       <r>   10.7108   -0.0000 </r>
       <r>   10.9153   -0.0000 </r>
      </set>
      <set comment="kpoint 78">
       <r>   -3.1998    1.0000 </r>
       <r>   -2.3458    1.0000 </r>
       <r>   -1.8262    1.0000 </r>
       <r>   -1.6408    1.0000 </r>
       <r>   -0.8839    1.0000 </r>
       <r>   -0.6876    1.0000 </r>
       <r>   -0.3059    1.0000 </r>
       <r>    0.1754    1.0000 </r>
       <r>    0.2575    1.0000 </r>
       <r>    0.5866    1.0000 </r>
       <r>    0.9407    1.0000 </r>
       <r>    1.2571    1.0000 </r>
       <r>    1.5411    1.0000 </r>
       <r>    1.7337    1.0000 </r>
       <r>    2.1206    1.0000 </r>
       <r>    2.2565    1.0000 </r>
       <r>    2.6186    1.0000 </r>
       <r>    2.8920    1.0000 </r>
       <r>    2.9847    1.0000 </r>
       <r>    3.1135    1.0000 </r>
       <r>    3.4598    1.0000 </r>
       <r>    3.5709    1.0000 </r>
       <r>    3.8136    1.0000 </r>
       <r>    3.8824    1.0000 </r>
       <r>    4.0058    1.0000 </r>
       <r>    4.3166    1.0000 </r>
       <r>    4.3740    1.0000 </r>
       <r>    4.8581    1.0000 </r>
       <r>    4.9651    1.0000 </r>
       <r>    5.1200    1.0000 </r>
       <r>    5.2894    1.0000 </r>
       <r>    5.4786    1.0000 </r>
       <r>    5.9267    1.0000 </r>
       <r>    6.0901    1.0000 </r>
       <r>    6.2553    1.0000 </r>
       <r>    6.3731    1.0000 </r>
       <r>    6.5449    1.0000 </r>
       <r>    6.6260    1.0000 </r>
       <r>    6.8417    1.0052 </r>
       <r>    7.0777    1.0188 </r>
       <r>    7.3043    0.3461 </r>
       <r>    7.4549   -0.0175 </r>
       <r>    7.7687   -0.0011 </r>
       <r>    7.8092   -0.0004 </r>
       <r>    8.0697   -0.0000 </r>
       <r>    8.1980   -0.0000 </r>
       <r>    8.3758   -0.0000 </r>
       <r>    8.5400   -0.0000 </r>
       <r>    8.6901   -0.0000 </r>
       <r>    8.8158   -0.0000 </r>
       <r>    8.9289   -0.0000 </r>
       <r>    9.1226   -0.0000 </r>
       <r>    9.3360   -0.0000 </r>
       <r>    9.4608   -0.0000 </r>
       <r>    9.6225   -0.0000 </r>
       <r>    9.7856   -0.0000 </r>
       <r>    9.9285   -0.0000 </r>
       <r>   10.0662   -0.0000 </r>
       <r>   10.2572   -0.0000 </r>
       <r>   10.3776   -0.0000 </r>
       <r>   10.4557   -0.0000 </r>
       <r>   10.5709   -0.0000 </r>
       <r>   10.6285   -0.0000 </r>
       <r>   10.8652   -0.0000 </r>
      </set>
      <set comment="kpoint 79">
       <r>   -3.1604    1.0000 </r>
       <r>   -2.4653    1.0000 </r>
       <r>   -1.8662    1.0000 </r>
       <r>   -1.4839    1.0000 </r>
       <r>   -0.9766    1.0000 </r>
       <r>   -0.5652    1.0000 </r>
       <r>   -0.3613    1.0000 </r>
       <r>    0.1426    1.0000 </r>
       <r>    0.3303    1.0000 </r>
       <r>    0.6358    1.0000 </r>
       <r>    0.9039    1.0000 </r>
       <r>    1.3734    1.0000 </r>
       <r>    1.4739    1.0000 </r>
       <r>    1.6717    1.0000 </r>
       <r>    2.0199    1.0000 </r>
       <r>    2.2820    1.0000 </r>
       <r>    2.6220    1.0000 </r>
       <r>    2.8131    1.0000 </r>
       <r>    2.8918    1.0000 </r>
       <r>    3.1873    1.0000 </r>
       <r>    3.3719    1.0000 </r>
       <r>    3.6459    1.0000 </r>
       <r>    3.6934    1.0000 </r>
       <r>    3.9469    1.0000 </r>
       <r>    4.0455    1.0000 </r>
       <r>    4.3095    1.0000 </r>
       <r>    4.4589    1.0000 </r>
       <r>    4.8755    1.0000 </r>
       <r>    4.9338    1.0000 </r>
       <r>    5.2114    1.0000 </r>
       <r>    5.3910    1.0000 </r>
       <r>    5.4530    1.0000 </r>
       <r>    5.8905    1.0000 </r>
       <r>    6.1393    1.0000 </r>
       <r>    6.2667    1.0000 </r>
       <r>    6.4199    1.0000 </r>
       <r>    6.4573    1.0000 </r>
       <r>    6.7989    1.0023 </r>
       <r>    6.8557    1.0066 </r>
       <r>    7.0131    1.0352 </r>
       <r>    7.2651    0.5088 </r>
       <r>    7.4984   -0.0347 </r>
       <r>    7.6903   -0.0054 </r>
       <r>    7.8707   -0.0001 </r>
       <r>    8.0151   -0.0000 </r>
       <r>    8.0736   -0.0000 </r>
       <r>    8.5155   -0.0000 </r>
       <r>    8.6287   -0.0000 </r>
       <r>    8.6803   -0.0000 </r>
       <r>    8.7363   -0.0000 </r>
       <r>    8.7863   -0.0000 </r>
       <r>    9.1669   -0.0000 </r>
       <r>    9.3462   -0.0000 </r>
       <r>    9.4076   -0.0000 </r>
       <r>    9.5840   -0.0000 </r>
       <r>    9.7131   -0.0000 </r>
       <r>    9.9506   -0.0000 </r>
       <r>   10.0423   -0.0000 </r>
       <r>   10.2359   -0.0000 </r>
       <r>   10.3493   -0.0000 </r>
       <r>   10.5492   -0.0000 </r>
       <r>   10.6182   -0.0000 </r>
       <r>   10.7369   -0.0000 </r>
       <r>   10.9211   -0.0000 </r>
      </set>
      <set comment="kpoint 80">
       <r>   -3.1456    1.0000 </r>
       <r>   -2.5052    1.0000 </r>
       <r>   -1.8989    1.0000 </r>
       <r>   -1.4367    1.0000 </r>
       <r>   -0.8350    1.0000 </r>
       <r>   -0.6326    1.0000 </r>
       <r>   -0.3692    1.0000 </r>
       <r>    0.1757    1.0000 </r>
       <r>    0.2402    1.0000 </r>
       <r>    0.6316    1.0000 </r>
       <r>    0.7979    1.0000 </r>
       <r>    1.3760    1.0000 </r>
       <r>    1.4497    1.0000 </r>
       <r>    1.8108    1.0000 </r>
       <r>    1.9878    1.0000 </r>
       <r>    2.3056    1.0000 </r>
       <r>    2.5731    1.0000 </r>
       <r>    2.8199    1.0000 </r>
       <r>    3.0163    1.0000 </r>
       <r>    3.2142    1.0000 </r>
       <r>    3.3070    1.0000 </r>
       <r>    3.6096    1.0000 </r>
       <r>    3.7271    1.0000 </r>
       <r>    3.9542    1.0000 </r>
       <r>    4.0663    1.0000 </r>
       <r>    4.3291    1.0000 </r>
       <r>    4.4006    1.0000 </r>
       <r>    4.8426    1.0000 </r>
       <r>    5.0009    1.0000 </r>
       <r>    5.1550    1.0000 </r>
       <r>    5.3985    1.0000 </r>
       <r>    5.4470    1.0000 </r>
       <r>    5.8743    1.0000 </r>
       <r>    6.1151    1.0000 </r>
       <r>    6.3154    1.0000 </r>
       <r>    6.3638    1.0000 </r>
       <r>    6.4964    1.0000 </r>
       <r>    6.7718    1.0013 </r>
       <r>    6.8685    1.0082 </r>
       <r>    7.0419    1.0338 </r>
       <r>    7.1921    0.7944 </r>
       <r>    7.5577   -0.0297 </r>
       <r>    7.7159   -0.0034 </r>
       <r>    7.8267   -0.0003 </r>
       <r>    8.0112   -0.0000 </r>
       <r>    8.0602   -0.0000 </r>
       <r>    8.4707   -0.0000 </r>
       <r>    8.5268   -0.0000 </r>
       <r>    8.7074   -0.0000 </r>
       <r>    8.7519   -0.0000 </r>
       <r>    8.8315   -0.0000 </r>
       <r>    9.0961   -0.0000 </r>
       <r>    9.4295   -0.0000 </r>
       <r>    9.5368   -0.0000 </r>
       <r>    9.5939   -0.0000 </r>
       <r>    9.7623   -0.0000 </r>
       <r>    9.9300   -0.0000 </r>
       <r>   10.0232   -0.0000 </r>
       <r>   10.2237   -0.0000 </r>
       <r>   10.3712   -0.0000 </r>
       <r>   10.5384   -0.0000 </r>
       <r>   10.6051   -0.0000 </r>
       <r>   10.6607   -0.0000 </r>
       <r>   10.8171   -0.0000 </r>
      </set>
      <set comment="kpoint 81">
       <r>   -3.2251    1.0000 </r>
       <r>   -2.2079    1.0000 </r>
       <r>   -1.9435    1.0000 </r>
       <r>   -1.5887    1.0000 </r>
       <r>   -1.0390    1.0000 </r>
       <r>   -0.6053    1.0000 </r>
       <r>   -0.3135    1.0000 </r>
       <r>    0.1317    1.0000 </r>
       <r>    0.3078    1.0000 </r>
       <r>    0.6394    1.0000 </r>
       <r>    0.8161    1.0000 </r>
       <r>    1.3792    1.0000 </r>
       <r>    1.5551    1.0000 </r>
       <r>    1.7372    1.0000 </r>
       <r>    2.0899    1.0000 </r>
       <r>    2.3634    1.0000 </r>
       <r>    2.5525    1.0000 </r>
       <r>    2.7168    1.0000 </r>
       <r>    3.0225    1.0000 </r>
       <r>    3.2568    1.0000 </r>
       <r>    3.3898    1.0000 </r>
       <r>    3.5483    1.0000 </r>
       <r>    3.6728    1.0000 </r>
       <r>    4.0511    1.0000 </r>
       <r>    4.2578    1.0000 </r>
       <r>    4.3386    1.0000 </r>
       <r>    4.5621    1.0000 </r>
       <r>    4.6518    1.0000 </r>
       <r>    4.8161    1.0000 </r>
       <r>    5.0121    1.0000 </r>
       <r>    5.2378    1.0000 </r>
       <r>    5.3352    1.0000 </r>
       <r>    5.9803    1.0000 </r>
       <r>    6.2036    1.0000 </r>
       <r>    6.2630    1.0000 </r>
       <r>    6.3324    1.0000 </r>
       <r>    6.4983    1.0000 </r>
       <r>    6.7216    1.0004 </r>
       <r>    6.8126    1.0030 </r>
       <r>    7.0992    0.9995 </r>
       <r>    7.2696    0.4897 </r>
       <r>    7.4001    0.0530 </r>
       <r>    7.6928   -0.0052 </r>
       <r>    7.9534   -0.0000 </r>
       <r>    8.0876   -0.0000 </r>
       <r>    8.1991   -0.0000 </r>
       <r>    8.4095   -0.0000 </r>
       <r>    8.5464   -0.0000 </r>
       <r>    8.6410   -0.0000 </r>
       <r>    8.7342   -0.0000 </r>
       <r>    8.8695   -0.0000 </r>
       <r>    9.1548   -0.0000 </r>
       <r>    9.3289   -0.0000 </r>
       <r>    9.4486   -0.0000 </r>
       <r>    9.6915   -0.0000 </r>
       <r>    9.8739   -0.0000 </r>
       <r>    9.9642   -0.0000 </r>
       <r>   10.0268   -0.0000 </r>
       <r>   10.2974   -0.0000 </r>
       <r>   10.4314   -0.0000 </r>
       <r>   10.5532   -0.0000 </r>
       <r>   10.7370   -0.0000 </r>
       <r>   10.7806   -0.0000 </r>
       <r>   10.8650   -0.0000 </r>
      </set>
      <set comment="kpoint 82">
       <r>   -3.1997    1.0000 </r>
       <r>   -2.3331    1.0000 </r>
       <r>   -1.8404    1.0000 </r>
       <r>   -1.6481    1.0000 </r>
       <r>   -0.8475    1.0000 </r>
       <r>   -0.7520    1.0000 </r>
       <r>   -0.3029    1.0000 </r>
       <r>    0.1546    1.0000 </r>
       <r>    0.3139    1.0000 </r>
       <r>    0.6320    1.0000 </r>
       <r>    0.9472    1.0000 </r>
       <r>    1.2505    1.0000 </r>
       <r>    1.5170    1.0000 </r>
       <r>    1.7916    1.0000 </r>
       <r>    2.1258    1.0000 </r>
       <r>    2.2243    1.0000 </r>
       <r>    2.5832    1.0000 </r>
       <r>    2.8344    1.0000 </r>
       <r>    2.9472    1.0000 </r>
       <r>    3.1267    1.0000 </r>
       <r>    3.3436    1.0000 </r>
       <r>    3.6673    1.0000 </r>
       <r>    3.7875    1.0000 </r>
       <r>    3.9256    1.0000 </r>
       <r>    4.0010    1.0000 </r>
       <r>    4.3613    1.0000 </r>
       <r>    4.4540    1.0000 </r>
       <r>    4.7744    1.0000 </r>
       <r>    4.8935    1.0000 </r>
       <r>    5.0918    1.0000 </r>
       <r>    5.3740    1.0000 </r>
       <r>    5.5170    1.0000 </r>
       <r>    5.9472    1.0000 </r>
       <r>    6.0660    1.0000 </r>
       <r>    6.2166    1.0000 </r>
       <r>    6.4640    1.0000 </r>
       <r>    6.5855    1.0000 </r>
       <r>    6.7097    1.0003 </r>
       <r>    6.8218    1.0036 </r>
       <r>    7.0019    1.0341 </r>
       <r>    7.2461    0.5886 </r>
       <r>    7.5180   -0.0353 </r>
       <r>    7.8008   -0.0005 </r>
       <r>    7.8462   -0.0002 </r>
       <r>    8.0731   -0.0000 </r>
       <r>    8.2039   -0.0000 </r>
       <r>    8.2990   -0.0000 </r>
       <r>    8.5023   -0.0000 </r>
       <r>    8.6524   -0.0000 </r>
       <r>    8.8115   -0.0000 </r>
       <r>    8.8768   -0.0000 </r>
       <r>    9.0929   -0.0000 </r>
       <r>    9.3341   -0.0000 </r>
       <r>    9.5634   -0.0000 </r>
       <r>    9.6257   -0.0000 </r>
       <r>    9.7029   -0.0000 </r>
       <r>    9.9770   -0.0000 </r>
       <r>   10.0932   -0.0000 </r>
       <r>   10.2811   -0.0000 </r>
       <r>   10.3819   -0.0000 </r>
       <r>   10.4494   -0.0000 </r>
       <r>   10.5596   -0.0000 </r>
       <r>   10.6037   -0.0000 </r>
       <r>   10.8952   -0.0000 </r>
      </set>
      <set comment="kpoint 83">
       <r>   -3.1930    1.0000 </r>
       <r>   -2.3706    1.0000 </r>
       <r>   -1.8416    1.0000 </r>
       <r>   -1.5888    1.0000 </r>
       <r>   -0.8761    1.0000 </r>
       <r>   -0.6803    1.0000 </r>
       <r>   -0.4023    1.0000 </r>
       <r>    0.0829    1.0000 </r>
       <r>    0.4117    1.0000 </r>
       <r>    0.5880    1.0000 </r>
       <r>    1.0299    1.0000 </r>
       <r>    1.2157    1.0000 </r>
       <r>    1.6080    1.0000 </r>
       <r>    1.7873    1.0000 </r>
       <r>    1.9867    1.0000 </r>
       <r>    2.2824    1.0000 </r>
       <r>    2.5332    1.0000 </r>
       <r>    2.8321    1.0000 </r>
       <r>    2.9859    1.0000 </r>
       <r>    3.1390    1.0000 </r>
       <r>    3.3680    1.0000 </r>
       <r>    3.6884    1.0000 </r>
       <r>    3.7519    1.0000 </r>
       <r>    3.8740    1.0000 </r>
       <r>    4.0293    1.0000 </r>
       <r>    4.3445    1.0000 </r>
       <r>    4.4955    1.0000 </r>
       <r>    4.7235    1.0000 </r>
       <r>    4.9082    1.0000 </r>
       <r>    5.0562    1.0000 </r>
       <r>    5.4372    1.0000 </r>
       <r>    5.4903    1.0000 </r>
       <r>    5.9667    1.0000 </r>
       <r>    6.0440    1.0000 </r>
       <r>    6.2771    1.0000 </r>
       <r>    6.4458    1.0000 </r>
       <r>    6.6018    1.0000 </r>
       <r>    6.6731    1.0001 </r>
       <r>    6.8932    1.0119 </r>
       <r>    6.9808    1.0305 </r>
       <r>    7.2046    0.7512 </r>
       <r>    7.5068   -0.0353 </r>
       <r>    7.6777   -0.0067 </r>
       <r>    7.8677   -0.0001 </r>
       <r>    8.0824   -0.0000 </r>
       <r>    8.2181   -0.0000 </r>
       <r>    8.4208   -0.0000 </r>
       <r>    8.4976   -0.0000 </r>
       <r>    8.6698   -0.0000 </r>
       <r>    8.7431   -0.0000 </r>
       <r>    8.9541   -0.0000 </r>
       <r>    9.2005   -0.0000 </r>
       <r>    9.2785   -0.0000 </r>
       <r>    9.4188   -0.0000 </r>
       <r>    9.6355   -0.0000 </r>
       <r>    9.7901   -0.0000 </r>
       <r>    9.9787   -0.0000 </r>
       <r>   10.0779   -0.0000 </r>
       <r>   10.2667   -0.0000 </r>
       <r>   10.3230   -0.0000 </r>
       <r>   10.4886   -0.0000 </r>
       <r>   10.5409   -0.0000 </r>
       <r>   10.6447   -0.0000 </r>
       <r>   10.8887   -0.0000 </r>
      </set>
      <set comment="kpoint 84">
       <r>   -3.1376    1.0000 </r>
       <r>   -2.5422    1.0000 </r>
       <r>   -1.8415    1.0000 </r>
       <r>   -1.4310    1.0000 </r>
       <r>   -0.8857    1.0000 </r>
       <r>   -0.6142    1.0000 </r>
       <r>   -0.4270    1.0000 </r>
       <r>    0.1456    1.0000 </r>
       <r>    0.4112    1.0000 </r>
       <r>    0.5474    1.0000 </r>
       <r>    0.8456    1.0000 </r>
       <r>    1.3093    1.0000 </r>
       <r>    1.4240    1.0000 </r>
       <r>    1.8075    1.0000 </r>
       <r>    2.0143    1.0000 </r>
       <r>    2.3980    1.0000 </r>
       <r>    2.5898    1.0000 </r>
       <r>    2.7656    1.0000 </r>
       <r>    2.9977    1.0000 </r>
       <r>    3.2246    1.0000 </r>
       <r>    3.2371    1.0000 </r>
       <r>    3.6000    1.0000 </r>
       <r>    3.7435    1.0000 </r>
       <r>    3.9817    1.0000 </r>
       <r>    4.1558    1.0000 </r>
       <r>    4.2449    1.0000 </r>
       <r>    4.3898    1.0000 </r>
       <r>    4.8098    1.0000 </r>
       <r>    5.0256    1.0000 </r>
       <r>    5.1718    1.0000 </r>
       <r>    5.3590    1.0000 </r>
       <r>    5.4737    1.0000 </r>
       <r>    5.9130    1.0000 </r>
       <r>    6.0703    1.0000 </r>
       <r>    6.2977    1.0000 </r>
       <r>    6.4137    1.0000 </r>
       <r>    6.4765    1.0000 </r>
       <r>    6.7305    1.0005 </r>
       <r>    6.9447    1.0225 </r>
       <r>    7.1109    0.9852 </r>
       <r>    7.2365    0.6283 </r>
       <r>    7.5014   -0.0350 </r>
       <r>    7.6193   -0.0160 </r>
       <r>    7.8518   -0.0001 </r>
       <r>    7.9698   -0.0000 </r>
       <r>    8.1505   -0.0000 </r>
       <r>    8.4216   -0.0000 </r>
       <r>    8.5106   -0.0000 </r>
       <r>    8.6193   -0.0000 </r>
       <r>    8.7480   -0.0000 </r>
       <r>    8.9248   -0.0000 </r>
       <r>    9.1029   -0.0000 </r>
       <r>    9.3900   -0.0000 </r>
       <r>    9.5408   -0.0000 </r>
       <r>    9.6410   -0.0000 </r>
       <r>    9.7471   -0.0000 </r>
       <r>    9.8225   -0.0000 </r>
       <r>   10.0803   -0.0000 </r>
       <r>   10.2798   -0.0000 </r>
       <r>   10.4029   -0.0000 </r>
       <r>   10.5209   -0.0000 </r>
       <r>   10.6593   -0.0000 </r>
       <r>   10.7063   -0.0000 </r>
       <r>   10.7931   -0.0000 </r>
      </set>
      <set comment="kpoint 85">
       <r>   -3.2165    1.0000 </r>
       <r>   -2.2350    1.0000 </r>
       <r>   -1.9710    1.0000 </r>
       <r>   -1.5609    1.0000 </r>
       <r>   -1.0074    1.0000 </r>
       <r>   -0.5699    1.0000 </r>
       <r>   -0.2803    1.0000 </r>
       <r>   -0.0054    1.0000 </r>
       <r>    0.3852    1.0000 </r>
       <r>    0.6750    1.0000 </r>
       <r>    0.7428    1.0000 </r>
       <r>    1.4037    1.0000 </r>
       <r>    1.6221    1.0000 </r>
       <r>    1.6618    1.0000 </r>
       <r>    2.1295    1.0000 </r>
       <r>    2.2942    1.0000 </r>
       <r>    2.5310    1.0000 </r>
       <r>    2.6519    1.0000 </r>
       <r>    3.0605    1.0000 </r>
       <r>    3.3713    1.0000 </r>
       <r>    3.4318    1.0000 </r>
       <r>    3.5438    1.0000 </r>
       <r>    3.6112    1.0000 </r>
       <r>    3.9813    1.0000 </r>
       <r>    4.2274    1.0000 </r>
       <r>    4.3961    1.0000 </r>
       <r>    4.5216    1.0000 </r>
       <r>    4.6667    1.0000 </r>
       <r>    4.8046    1.0000 </r>
       <r>    5.0909    1.0000 </r>
       <r>    5.2913    1.0000 </r>
       <r>    5.3384    1.0000 </r>
       <r>    6.0382    1.0000 </r>
       <r>    6.1705    1.0000 </r>
       <r>    6.2791    1.0000 </r>
       <r>    6.3650    1.0000 </r>
       <r>    6.5166    1.0000 </r>
       <r>    6.6091    1.0000 </r>
       <r>    6.7511    1.0008 </r>
       <r>    7.0954    1.0037 </r>
       <r>    7.2666    0.5026 </r>
       <r>    7.4066    0.0412 </r>
       <r>    7.7908   -0.0007 </r>
       <r>    7.8827   -0.0001 </r>
       <r>    8.0508   -0.0000 </r>
       <r>    8.1719   -0.0000 </r>
       <r>    8.3958   -0.0000 </r>
       <r>    8.5722   -0.0000 </r>
       <r>    8.6478   -0.0000 </r>
       <r>    8.8027   -0.0000 </r>
       <r>    8.8493   -0.0000 </r>
       <r>    9.0327   -0.0000 </r>
       <r>    9.3121   -0.0000 </r>
       <r>    9.4883   -0.0000 </r>
       <r>    9.7824   -0.0000 </r>
       <r>    9.8477   -0.0000 </r>
       <r>    9.9723   -0.0000 </r>
       <r>   10.1295   -0.0000 </r>
       <r>   10.3184   -0.0000 </r>
       <r>   10.4166   -0.0000 </r>
       <r>   10.4742   -0.0000 </r>
       <r>   10.6379   -0.0000 </r>
       <r>   10.7486   -0.0000 </r>
       <r>   10.8590   -0.0000 </r>
      </set>
      <set comment="kpoint 86">
       <r>   -3.1683    1.0000 </r>
       <r>   -2.3868    1.0000 </r>
       <r>   -2.0551    1.0000 </r>
       <r>   -1.3519    1.0000 </r>
       <r>   -0.8068    1.0000 </r>
       <r>   -0.6114    1.0000 </r>
       <r>   -0.4075    1.0000 </r>
       <r>   -0.1619    1.0000 </r>
       <r>    0.5403    1.0000 </r>
       <r>    0.6749    1.0000 </r>
       <r>    0.8065    1.0000 </r>
       <r>    1.3518    1.0000 </r>
       <r>    1.5168    1.0000 </r>
       <r>    1.7870    1.0000 </r>
       <r>    1.8785    1.0000 </r>
       <r>    2.4580    1.0000 </r>
       <r>    2.6292    1.0000 </r>
       <r>    2.7253    1.0000 </r>
       <r>    2.9440    1.0000 </r>
       <r>    3.1879    1.0000 </r>
       <r>    3.2845    1.0000 </r>
       <r>    3.5753    1.0000 </r>
       <r>    3.7150    1.0000 </r>
       <r>    3.8573    1.0000 </r>
       <r>    4.2566    1.0000 </r>
       <r>    4.4349    1.0000 </r>
       <r>    4.4987    1.0000 </r>
       <r>    4.6525    1.0000 </r>
       <r>    4.9107    1.0000 </r>
       <r>    5.1118    1.0000 </r>
       <r>    5.4427    1.0000 </r>
       <r>    5.5296    1.0000 </r>
       <r>    5.9241    1.0000 </r>
       <r>    6.1567    1.0000 </r>
       <r>    6.2756    1.0000 </r>
       <r>    6.3400    1.0000 </r>
       <r>    6.5411    1.0000 </r>
       <r>    6.6451    1.0000 </r>
       <r>    6.8830    1.0102 </r>
       <r>    7.0291    1.0353 </r>
       <r>    7.2556    0.5488 </r>
       <r>    7.4112    0.0334 </r>
       <r>    7.6668   -0.0080 </r>
       <r>    7.9191   -0.0000 </r>
       <r>    8.0876   -0.0000 </r>
       <r>    8.1958   -0.0000 </r>
       <r>    8.3475   -0.0000 </r>
       <r>    8.5284   -0.0000 </r>
       <r>    8.6794   -0.0000 </r>
       <r>    8.7440   -0.0000 </r>
       <r>    8.8621   -0.0000 </r>
       <r>    9.0067   -0.0000 </r>
       <r>    9.3029   -0.0000 </r>
       <r>    9.5447   -0.0000 </r>
       <r>    9.7125   -0.0000 </r>
       <r>    9.8969   -0.0000 </r>
       <r>    9.9894   -0.0000 </r>
       <r>   10.1324   -0.0000 </r>
       <r>   10.2385   -0.0000 </r>
       <r>   10.3210   -0.0000 </r>
       <r>   10.5025   -0.0000 </r>
       <r>   10.5571   -0.0000 </r>
       <r>   10.7027   -0.0000 </r>
       <r>   10.8211   -0.0000 </r>
      </set>
      <set comment="kpoint 87">
       <r>   -3.1747    1.0000 </r>
       <r>   -2.3894    1.0000 </r>
       <r>   -1.9987    1.0000 </r>
       <r>   -1.3756    1.0000 </r>
       <r>   -0.8985    1.0000 </r>
       <r>   -0.5868    1.0000 </r>
       <r>   -0.4859    1.0000 </r>
       <r>   -0.0835    1.0000 </r>
       <r>    0.5146    1.0000 </r>
       <r>    0.7192    1.0000 </r>
       <r>    0.9614    1.0000 </r>
       <r>    1.3217    1.0000 </r>
       <r>    1.4775    1.0000 </r>
       <r>    1.8035    1.0000 </r>
       <r>    1.8919    1.0000 </r>
       <r>    2.4136    1.0000 </r>
       <r>    2.5659    1.0000 </r>
       <r>    2.6738    1.0000 </r>
       <r>    2.9045    1.0000 </r>
       <r>    3.1756    1.0000 </r>
       <r>    3.3544    1.0000 </r>
       <r>    3.5995    1.0000 </r>
       <r>    3.7423    1.0000 </r>
       <r>    3.8439    1.0000 </r>
       <r>    4.2160    1.0000 </r>
       <r>    4.4395    1.0000 </r>
       <r>    4.5300    1.0000 </r>
       <r>    4.6465    1.0000 </r>
       <r>    4.9531    1.0000 </r>
       <r>    5.1305    1.0000 </r>
       <r>    5.3684    1.0000 </r>
       <r>    5.5391    1.0000 </r>
       <r>    5.9291    1.0000 </r>
       <r>    6.1454    1.0000 </r>
       <r>    6.2758    1.0000 </r>
       <r>    6.3773    1.0000 </r>
       <r>    6.5349    1.0000 </r>
       <r>    6.6554    1.0001 </r>
       <r>    6.8145    1.0031 </r>
       <r>    6.9545    1.0248 </r>
       <r>    7.3383    0.2193 </r>
       <r>    7.5589   -0.0295 </r>
       <r>    7.6149   -0.0169 </r>
       <r>    7.9713   -0.0000 </r>
       <r>    8.1223   -0.0000 </r>
       <r>    8.1774   -0.0000 </r>
       <r>    8.2938   -0.0000 </r>
       <r>    8.4683   -0.0000 </r>
       <r>    8.6625   -0.0000 </r>
       <r>    8.7844   -0.0000 </r>
       <r>    8.9167   -0.0000 </r>
       <r>    9.1038   -0.0000 </r>
       <r>    9.2923   -0.0000 </r>
       <r>    9.5063   -0.0000 </r>
       <r>    9.6185   -0.0000 </r>
       <r>    9.7782   -0.0000 </r>
       <r>   10.0057   -0.0000 </r>
       <r>   10.1432   -0.0000 </r>
       <r>   10.3080   -0.0000 </r>
       <r>   10.3649   -0.0000 </r>
       <r>   10.4728   -0.0000 </r>
       <r>   10.5944   -0.0000 </r>
       <r>   10.6830   -0.0000 </r>
       <r>   10.7636   -0.0000 </r>
      </set>
      <set comment="kpoint 88">
       <r>   -3.1396    1.0000 </r>
       <r>   -2.5192    1.0000 </r>
       <r>   -1.9119    1.0000 </r>
       <r>   -1.3502    1.0000 </r>
       <r>   -0.9383    1.0000 </r>
       <r>   -0.5344    1.0000 </r>
       <r>   -0.4835    1.0000 </r>
       <r>   -0.0166    1.0000 </r>
       <r>    0.5488    1.0000 </r>
       <r>    0.6863    1.0000 </r>
       <r>    0.8207    1.0000 </r>
       <r>    1.2995    1.0000 </r>
       <r>    1.3996    1.0000 </r>
       <r>    1.7758    1.0000 </r>
       <r>    1.9878    1.0000 </r>
       <r>    2.4627    1.0000 </r>
       <r>    2.6443    1.0000 </r>
       <r>    2.7184    1.0000 </r>
       <r>    2.8981    1.0000 </r>
       <r>    3.2107    1.0000 </r>
       <r>    3.2655    1.0000 </r>
       <r>    3.6119    1.0000 </r>
       <r>    3.6931    1.0000 </r>
       <r>    3.7559    1.0000 </r>
       <r>    4.2613    1.0000 </r>
       <r>    4.3313    1.0000 </r>
       <r>    4.4869    1.0000 </r>
       <r>    4.7076    1.0000 </r>
       <r>    4.9346    1.0000 </r>
       <r>    5.1795    1.0000 </r>
       <r>    5.4972    1.0000 </r>
       <r>    5.5853    1.0000 </r>
       <r>    5.9976    1.0000 </r>
       <r>    6.1641    1.0000 </r>
       <r>    6.2245    1.0000 </r>
       <r>    6.3238    1.0000 </r>
       <r>    6.5506    1.0000 </r>
       <r>    6.7085    1.0003 </r>
       <r>    6.8892    1.0112 </r>
       <r>    7.0099    1.0349 </r>
       <r>    7.2799    0.4462 </r>
       <r>    7.4845   -0.0319 </r>
       <r>    7.6090   -0.0182 </r>
       <r>    7.8739   -0.0001 </r>
       <r>    8.0209   -0.0000 </r>
       <r>    8.1528   -0.0000 </r>
       <r>    8.3280   -0.0000 </r>
       <r>    8.5550   -0.0000 </r>
       <r>    8.6328   -0.0000 </r>
       <r>    8.7253   -0.0000 </r>
       <r>    8.8560   -0.0000 </r>
       <r>    9.1902   -0.0000 </r>
       <r>    9.2829   -0.0000 </r>
       <r>    9.5455   -0.0000 </r>
       <r>    9.5844   -0.0000 </r>
       <r>    9.6971   -0.0000 </r>
       <r>   10.0451   -0.0000 </r>
       <r>   10.1868   -0.0000 </r>
       <r>   10.2946   -0.0000 </r>
       <r>   10.3313   -0.0000 </r>
       <r>   10.4911   -0.0000 </r>
       <r>   10.5682   -0.0000 </r>
       <r>   10.7207   -0.0000 </r>
       <r>   10.8025   -0.0000 </r>
      </set>
      <set comment="kpoint 89">
       <r>   -3.2270    1.0000 </r>
       <r>   -2.1925    1.0000 </r>
       <r>   -1.9602    1.0000 </r>
       <r>   -1.6061    1.0000 </r>
       <r>   -0.9420    1.0000 </r>
       <r>   -0.6969    1.0000 </r>
       <r>   -0.2624    1.0000 </r>
       <r>    0.0935    1.0000 </r>
       <r>    0.3400    1.0000 </r>
       <r>    0.5689    1.0000 </r>
       <r>    0.7706    1.0000 </r>
       <r>    1.4418    1.0000 </r>
       <r>    1.5371    1.0000 </r>
       <r>    1.7623    1.0000 </r>
       <r>    2.1264    1.0000 </r>
       <r>    2.3897    1.0000 </r>
       <r>    2.5318    1.0000 </r>
       <r>    2.7347    1.0000 </r>
       <r>    3.0292    1.0000 </r>
       <r>    3.2634    1.0000 </r>
       <r>    3.4496    1.0000 </r>
       <r>    3.5415    1.0000 </r>
       <r>    3.7045    1.0000 </r>
       <r>    3.8769    1.0000 </r>
       <r>    4.1185    1.0000 </r>
       <r>    4.4397    1.0000 </r>
       <r>    4.5409    1.0000 </r>
       <r>    4.6372    1.0000 </r>
       <r>    4.9288    1.0000 </r>
       <r>    5.0541    1.0000 </r>
       <r>    5.2033    1.0000 </r>
       <r>    5.3183    1.0000 </r>
       <r>    6.0626    1.0000 </r>
       <r>    6.1666    1.0000 </r>
       <r>    6.2727    1.0000 </r>
       <r>    6.3482    1.0000 </r>
       <r>    6.5210    1.0000 </r>
       <r>    6.6364    1.0000 </r>
       <r>    6.8061    1.0026 </r>
       <r>    7.1766    0.8432 </r>
       <r>    7.2101    0.7312 </r>
       <r>    7.3320    0.2412 </r>
       <r>    7.6848   -0.0060 </r>
       <r>    8.0305   -0.0000 </r>
       <r>    8.1284   -0.0000 </r>
       <r>    8.1804   -0.0000 </r>
       <r>    8.2248   -0.0000 </r>
       <r>    8.5681   -0.0000 </r>
       <r>    8.6338   -0.0000 </r>
       <r>    8.8488   -0.0000 </r>
       <r>    8.9029   -0.0000 </r>
       <r>    9.0667   -0.0000 </r>
       <r>    9.3023   -0.0000 </r>
       <r>    9.5570   -0.0000 </r>
       <r>    9.7511   -0.0000 </r>
       <r>    9.8597   -0.0000 </r>
       <r>    9.9581   -0.0000 </r>
       <r>   10.0696   -0.0000 </r>
       <r>   10.3192   -0.0000 </r>
       <r>   10.3562   -0.0000 </r>
       <r>   10.5230   -0.0000 </r>
       <r>   10.6292   -0.0000 </r>
       <r>   10.7187   -0.0000 </r>
       <r>   10.8731   -0.0000 </r>
      </set>
      <set comment="kpoint 90">
       <r>   -3.1699    1.0000 </r>
       <r>   -2.4528    1.0000 </r>
       <r>   -1.7653    1.0000 </r>
       <r>   -1.6379    1.0000 </r>
       <r>   -0.8235    1.0000 </r>
       <r>   -0.6875    1.0000 </r>
       <r>   -0.3358    1.0000 </r>
       <r>    0.1676    1.0000 </r>
       <r>    0.3282    1.0000 </r>
       <r>    0.5770    1.0000 </r>
       <r>    0.9526    1.0000 </r>
       <r>    1.1855    1.0000 </r>
       <r>    1.5092    1.0000 </r>
       <r>    1.7562    1.0000 </r>
       <r>    2.0581    1.0000 </r>
       <r>    2.2421    1.0000 </r>
       <r>    2.6840    1.0000 </r>
       <r>    2.8036    1.0000 </r>
       <r>    2.9728    1.0000 </r>
       <r>    3.1271    1.0000 </r>
       <r>    3.3759    1.0000 </r>
       <r>    3.5979    1.0000 </r>
       <r>    3.8555    1.0000 </r>
       <r>    3.9041    1.0000 </r>
       <r>    4.0477    1.0000 </r>
       <r>    4.4037    1.0000 </r>
       <r>    4.4307    1.0000 </r>
       <r>    4.7988    1.0000 </r>
       <r>    4.9474    1.0000 </r>
       <r>    5.0815    1.0000 </r>
       <r>    5.3474    1.0000 </r>
       <r>    5.5556    1.0000 </r>
       <r>    5.8762    1.0000 </r>
       <r>    6.0940    1.0000 </r>
       <r>    6.2746    1.0000 </r>
       <r>    6.3755    1.0000 </r>
       <r>    6.4565    1.0000 </r>
       <r>    6.7140    1.0003 </r>
       <r>    6.8562    1.0067 </r>
       <r>    7.0514    1.0315 </r>
       <r>    7.2577    0.5400 </r>
       <r>    7.4938   -0.0340 </r>
       <r>    7.7127   -0.0036 </r>
       <r>    7.7786   -0.0009 </r>
       <r>    8.0096   -0.0000 </r>
       <r>    8.2615   -0.0000 </r>
       <r>    8.4248   -0.0000 </r>
       <r>    8.5555   -0.0000 </r>
       <r>    8.6831   -0.0000 </r>
       <r>    8.7759   -0.0000 </r>
       <r>    8.9192   -0.0000 </r>
       <r>    9.1543   -0.0000 </r>
       <r>    9.2723   -0.0000 </r>
       <r>    9.4011   -0.0000 </r>
       <r>    9.6056   -0.0000 </r>
       <r>    9.7933   -0.0000 </r>
       <r>    9.9790   -0.0000 </r>
       <r>   10.0892   -0.0000 </r>
       <r>   10.2905   -0.0000 </r>
       <r>   10.3410   -0.0000 </r>
       <r>   10.4432   -0.0000 </r>
       <r>   10.6039   -0.0000 </r>
       <r>   10.7840   -0.0000 </r>
       <r>   10.8524   -0.0000 </r>
      </set>
      <set comment="kpoint 91">
       <r>   -3.1767    1.0000 </r>
       <r>   -2.3975    1.0000 </r>
       <r>   -1.9416    1.0000 </r>
       <r>   -1.4378    1.0000 </r>
       <r>   -0.9799    1.0000 </r>
       <r>   -0.6403    1.0000 </r>
       <r>   -0.3631    1.0000 </r>
       <r>    0.2400    1.0000 </r>
       <r>    0.3604    1.0000 </r>
       <r>    0.5681    1.0000 </r>
       <r>    0.8370    1.0000 </r>
       <r>    1.3640    1.0000 </r>
       <r>    1.4664    1.0000 </r>
       <r>    1.8006    1.0000 </r>
       <r>    1.9900    1.0000 </r>
       <r>    2.3879    1.0000 </r>
       <r>    2.6268    1.0000 </r>
       <r>    2.7078    1.0000 </r>
       <r>    2.9045    1.0000 </r>
       <r>    3.2616    1.0000 </r>
       <r>    3.3485    1.0000 </r>
       <r>    3.5323    1.0000 </r>
       <r>    3.7059    1.0000 </r>
       <r>    3.9843    1.0000 </r>
       <r>    4.1373    1.0000 </r>
       <r>    4.2516    1.0000 </r>
       <r>    4.3958    1.0000 </r>
       <r>    4.8218    1.0000 </r>
       <r>    4.9437    1.0000 </r>
       <r>    5.1068    1.0000 </r>
       <r>    5.3139    1.0000 </r>
       <r>    5.5557    1.0000 </r>
       <r>    6.0045    1.0000 </r>
       <r>    6.1370    1.0000 </r>
       <r>    6.2638    1.0000 </r>
       <r>    6.3673    1.0000 </r>
       <r>    6.4955    1.0000 </r>
       <r>    6.8418    1.0052 </r>
       <r>    6.8836    1.0103 </r>
       <r>    7.1085    0.9883 </r>
       <r>    7.1635    0.8800 </r>
       <r>    7.4666   -0.0248 </r>
       <r>    7.7413   -0.0020 </r>
       <r>    7.8733   -0.0001 </r>
       <r>    7.9708   -0.0000 </r>
       <r>    8.1763   -0.0000 </r>
       <r>    8.4940   -0.0000 </r>
       <r>    8.5751   -0.0000 </r>
       <r>    8.6214   -0.0000 </r>
       <r>    8.7331   -0.0000 </r>
       <r>    8.8101   -0.0000 </r>
       <r>    9.1622   -0.0000 </r>
       <r>    9.1883   -0.0000 </r>
       <r>    9.4963   -0.0000 </r>
       <r>    9.6162   -0.0000 </r>
       <r>    9.7641   -0.0000 </r>
       <r>    9.9176   -0.0000 </r>
       <r>   10.0127   -0.0000 </r>
       <r>   10.2819   -0.0000 </r>
       <r>   10.4104   -0.0000 </r>
       <r>   10.5991   -0.0000 </r>
       <r>   10.6576   -0.0000 </r>
       <r>   10.7780   -0.0000 </r>
       <r>   10.8787   -0.0000 </r>
      </set>
      <set comment="kpoint 92">
       <r>   -3.1462    1.0000 </r>
       <r>   -2.5182    1.0000 </r>
       <r>   -1.8300    1.0000 </r>
       <r>   -1.4283    1.0000 </r>
       <r>   -1.0160    1.0000 </r>
       <r>   -0.5815    1.0000 </r>
       <r>   -0.4085    1.0000 </r>
       <r>    0.1580    1.0000 </r>
       <r>    0.4401    1.0000 </r>
       <r>    0.6565    1.0000 </r>
       <r>    0.8165    1.0000 </r>
       <r>    1.2801    1.0000 </r>
       <r>    1.4378    1.0000 </r>
       <r>    1.8027    1.0000 </r>
       <r>    2.0020    1.0000 </r>
       <r>    2.3622    1.0000 </r>
       <r>    2.6145    1.0000 </r>
       <r>    2.8060    1.0000 </r>
       <r>    2.8934    1.0000 </r>
       <r>    3.2134    1.0000 </r>
       <r>    3.2972    1.0000 </r>
       <r>    3.5536    1.0000 </r>
       <r>    3.6870    1.0000 </r>
       <r>    4.0071    1.0000 </r>
       <r>    4.0841    1.0000 </r>
       <r>    4.2877    1.0000 </r>
       <r>    4.4414    1.0000 </r>
       <r>    4.7943    1.0000 </r>
       <r>    4.9436    1.0000 </r>
       <r>    5.1495    1.0000 </r>
       <r>    5.4197    1.0000 </r>
       <r>    5.5550    1.0000 </r>
       <r>    5.9597    1.0000 </r>
       <r>    6.0662    1.0000 </r>
       <r>    6.2759    1.0000 </r>
       <r>    6.4031    1.0000 </r>
       <r>    6.5192    1.0000 </r>
       <r>    6.8295    1.0041 </r>
       <r>    6.9658    1.0273 </r>
       <r>    7.0668    1.0253 </r>
       <r>    7.2421    0.6054 </r>
       <r>    7.4985   -0.0347 </r>
       <r>    7.5947   -0.0213 </r>
       <r>    7.8872   -0.0001 </r>
       <r>    7.9869   -0.0000 </r>
       <r>    8.1090   -0.0000 </r>
       <r>    8.3605   -0.0000 </r>
       <r>    8.5547   -0.0000 </r>
       <r>    8.6719   -0.0000 </r>
       <r>    8.7056   -0.0000 </r>
       <r>    8.8212   -0.0000 </r>
       <r>    9.2084   -0.0000 </r>
       <r>    9.2613   -0.0000 </r>
       <r>    9.5473   -0.0000 </r>
       <r>    9.5549   -0.0000 </r>
       <r>    9.6788   -0.0000 </r>
       <r>    9.9926   -0.0000 </r>
       <r>   10.1039   -0.0000 </r>
       <r>   10.2466   -0.0000 </r>
       <r>   10.4329   -0.0000 </r>
       <r>   10.4900   -0.0000 </r>
       <r>   10.5991   -0.0000 </r>
       <r>   10.7459   -0.0000 </r>
       <r>   10.8265   -0.0000 </r>
      </set>
      <set comment="kpoint 93">
       <r>   -3.2208    1.0000 </r>
       <r>   -2.1761    1.0000 </r>
       <r>   -2.0496    1.0000 </r>
       <r>   -1.5424    1.0000 </r>
       <r>   -0.9120    1.0000 </r>
       <r>   -0.6575    1.0000 </r>
       <r>   -0.2821    1.0000 </r>
       <r>   -0.0142    1.0000 </r>
       <r>    0.4261    1.0000 </r>
       <r>    0.5561    1.0000 </r>
       <r>    0.7359    1.0000 </r>
       <r>    1.4333    1.0000 </r>
       <r>    1.5805    1.0000 </r>
       <r>    1.7882    1.0000 </r>
       <r>    2.1148    1.0000 </r>
       <r>    2.3526    1.0000 </r>
       <r>    2.5292    1.0000 </r>
       <r>    2.7232    1.0000 </r>
       <r>    3.0445    1.0000 </r>
       <r>    3.2779    1.0000 </r>
       <r>    3.4166    1.0000 </r>
       <r>    3.5738    1.0000 </r>
       <r>    3.6483    1.0000 </r>
       <r>    3.8323    1.0000 </r>
       <r>    4.2480    1.0000 </r>
       <r>    4.4083    1.0000 </r>
       <r>    4.5271    1.0000 </r>
       <r>    4.6724    1.0000 </r>
       <r>    4.8370    1.0000 </r>
       <r>    5.0566    1.0000 </r>
       <r>    5.2804    1.0000 </r>
       <r>    5.3607    1.0000 </r>
       <r>    6.0314    1.0000 </r>
       <r>    6.2070    1.0000 </r>
       <r>    6.2858    1.0000 </r>
       <r>    6.3753    1.0000 </r>
       <r>    6.5314    1.0000 </r>
       <r>    6.6182    1.0000 </r>
       <r>    6.7319    1.0005 </r>
       <r>    7.0676    1.0249 </r>
       <r>    7.2272    0.6655 </r>
       <r>    7.3239    0.2706 </r>
       <r>    7.8209   -0.0003 </r>
       <r>    7.9176   -0.0000 </r>
       <r>    8.1454   -0.0000 </r>
       <r>    8.2107   -0.0000 </r>
       <r>    8.2740   -0.0000 </r>
       <r>    8.5539   -0.0000 </r>
       <r>    8.6582   -0.0000 </r>
       <r>    8.8318   -0.0000 </r>
       <r>    8.8670   -0.0000 </r>
       <r>    9.1108   -0.0000 </r>
       <r>    9.3364   -0.0000 </r>
       <r>    9.5095   -0.0000 </r>
       <r>    9.6174   -0.0000 </r>
       <r>    9.8667   -0.0000 </r>
       <r>    9.9698   -0.0000 </r>
       <r>   10.1439   -0.0000 </r>
       <r>   10.2223   -0.0000 </r>
       <r>   10.3329   -0.0000 </r>
       <r>   10.5357   -0.0000 </r>
       <r>   10.6863   -0.0000 </r>
       <r>   10.7573   -0.0000 </r>
       <r>   10.9142   -0.0000 </r>
      </set>
      <set comment="kpoint 94">
       <r>   -3.1812    1.0000 </r>
       <r>   -2.4207    1.0000 </r>
       <r>   -1.7914    1.0000 </r>
       <r>   -1.6086    1.0000 </r>
       <r>   -0.8341    1.0000 </r>
       <r>   -0.7169    1.0000 </r>
       <r>   -0.3764    1.0000 </r>
       <r>    0.1153    1.0000 </r>
       <r>    0.4183    1.0000 </r>
       <r>    0.6231    1.0000 </r>
       <r>    0.9429    1.0000 </r>
       <r>    1.1537    1.0000 </r>
       <r>    1.5950    1.0000 </r>
       <r>    1.7493    1.0000 </r>
       <r>    1.9847    1.0000 </r>
       <r>    2.2670    1.0000 </r>
       <r>    2.6143    1.0000 </r>
       <r>    2.8356    1.0000 </r>
       <r>    2.9859    1.0000 </r>
       <r>    3.1416    1.0000 </r>
       <r>    3.4165    1.0000 </r>
       <r>    3.6357    1.0000 </r>
       <r>    3.8008    1.0000 </r>
       <r>    3.9310    1.0000 </r>
       <r>    4.0587    1.0000 </r>
       <r>    4.3084    1.0000 </r>
       <r>    4.5156    1.0000 </r>
       <r>    4.7806    1.0000 </r>
       <r>    4.8897    1.0000 </r>
       <r>    5.1009    1.0000 </r>
       <r>    5.3325    1.0000 </r>
       <r>    5.4967    1.0000 </r>
       <r>    5.8484    1.0000 </r>
       <r>    6.0581    1.0000 </r>
       <r>    6.2208    1.0000 </r>
       <r>    6.4047    1.0000 </r>
       <r>    6.5945    1.0000 </r>
       <r>    6.6614    1.0001 </r>
       <r>    6.9199    1.0170 </r>
       <r>    7.0620    1.0276 </r>
       <r>    7.2752    0.4660 </r>
       <r>    7.5016   -0.0350 </r>
       <r>    7.6849   -0.0059 </r>
       <r>    7.8297   -0.0003 </r>
       <r>    8.0523   -0.0000 </r>
       <r>    8.2223   -0.0000 </r>
       <r>    8.3632   -0.0000 </r>
       <r>    8.5555   -0.0000 </r>
       <r>    8.7197   -0.0000 </r>
       <r>    8.7797   -0.0000 </r>
       <r>    8.8930   -0.0000 </r>
       <r>    9.1804   -0.0000 </r>
       <r>    9.2151   -0.0000 </r>
       <r>    9.4001   -0.0000 </r>
       <r>    9.6164   -0.0000 </r>
       <r>    9.7984   -0.0000 </r>
       <r>   10.0728   -0.0000 </r>
       <r>   10.1330   -0.0000 </r>
       <r>   10.2701   -0.0000 </r>
       <r>   10.3078   -0.0000 </r>
       <r>   10.4499   -0.0000 </r>
       <r>   10.5558   -0.0000 </r>
       <r>   10.7742   -0.0000 </r>
       <r>   10.9679   -0.0000 </r>
      </set>
      <set comment="kpoint 95">
       <r>   -3.1744    1.0000 </r>
       <r>   -2.3550    1.0000 </r>
       <r>   -2.0605    1.0000 </r>
       <r>   -1.3777    1.0000 </r>
       <r>   -0.8919    1.0000 </r>
       <r>   -0.5232    1.0000 </r>
       <r>   -0.4581    1.0000 </r>
       <r>   -0.1190    1.0000 </r>
       <r>    0.4807    1.0000 </r>
       <r>    0.7571    1.0000 </r>
       <r>    0.8971    1.0000 </r>
       <r>    1.3279    1.0000 </r>
       <r>    1.5052    1.0000 </r>
       <r>    1.7636    1.0000 </r>
       <r>    1.9002    1.0000 </r>
       <r>    2.4031    1.0000 </r>
       <r>    2.5723    1.0000 </r>
       <r>    2.6695    1.0000 </r>
       <r>    2.9210    1.0000 </r>
       <r>    3.2162    1.0000 </r>
       <r>    3.3208    1.0000 </r>
       <r>    3.6633    1.0000 </r>
       <r>    3.7214    1.0000 </r>
       <r>    3.7957    1.0000 </r>
       <r>    4.2483    1.0000 </r>
       <r>    4.4104    1.0000 </r>
       <r>    4.4952    1.0000 </r>
       <r>    4.7024    1.0000 </r>
       <r>    4.8955    1.0000 </r>
       <r>    5.1424    1.0000 </r>
       <r>    5.4391    1.0000 </r>
       <r>    5.5493    1.0000 </r>
       <r>    5.9718    1.0000 </r>
       <r>    6.1663    1.0000 </r>
       <r>    6.2363    1.0000 </r>
       <r>    6.3150    1.0000 </r>
       <r>    6.5610    1.0000 </r>
       <r>    6.5997    1.0000 </r>
       <r>    6.9429    1.0221 </r>
       <r>    6.9723    1.0288 </r>
       <r>    7.2752    0.4663 </r>
       <r>    7.4751   -0.0288 </r>
       <r>    7.5830   -0.0240 </r>
       <r>    7.9787   -0.0000 </r>
       <r>    8.1229   -0.0000 </r>
       <r>    8.1995   -0.0000 </r>
       <r>    8.2731   -0.0000 </r>
       <r>    8.5503   -0.0000 </r>
       <r>    8.6472   -0.0000 </r>
       <r>    8.7518   -0.0000 </r>
       <r>    8.9167   -0.0000 </r>
       <r>    9.0811   -0.0000 </r>
       <r>    9.2272   -0.0000 </r>
       <r>    9.5447   -0.0000 </r>
       <r>    9.5977   -0.0000 </r>
       <r>    9.8304   -0.0000 </r>
       <r>   10.0371   -0.0000 </r>
       <r>   10.1379   -0.0000 </r>
       <r>   10.2366   -0.0000 </r>
       <r>   10.3834   -0.0000 </r>
       <r>   10.4947   -0.0000 </r>
       <r>   10.6305   -0.0000 </r>
       <r>   10.6951   -0.0000 </r>
       <r>   10.8466   -0.0000 </r>
      </set>
      <set comment="kpoint 96">
       <r>   -3.1600    1.0000 </r>
       <r>   -2.4427    1.0000 </r>
       <r>   -1.9798    1.0000 </r>
       <r>   -1.3515    1.0000 </r>
       <r>   -0.9011    1.0000 </r>
       <r>   -0.6032    1.0000 </r>
       <r>   -0.4328    1.0000 </r>
       <r>   -0.0600    1.0000 </r>
       <r>    0.5315    1.0000 </r>
       <r>    0.6940    1.0000 </r>
       <r>    0.8382    1.0000 </r>
       <r>    1.3087    1.0000 </r>
       <r>    1.5057    1.0000 </r>
       <r>    1.7707    1.0000 </r>
       <r>    1.9303    1.0000 </r>
       <r>    2.4326    1.0000 </r>
       <r>    2.5892    1.0000 </r>
       <r>    2.7331    1.0000 </r>
       <r>    2.9105    1.0000 </r>
       <r>    3.1801    1.0000 </r>
       <r>    3.3671    1.0000 </r>
       <r>    3.5861    1.0000 </r>
       <r>    3.7446    1.0000 </r>
       <r>    3.7866    1.0000 </r>
       <r>    4.2418    1.0000 </r>
       <r>    4.3661    1.0000 </r>
       <r>    4.4659    1.0000 </r>
       <r>    4.6694    1.0000 </r>
       <r>    4.8651    1.0000 </r>
       <r>    5.1380    1.0000 </r>
       <r>    5.5060    1.0000 </r>
       <r>    5.5915    1.0000 </r>
       <r>    5.9722    1.0000 </r>
       <r>    6.1846    1.0000 </r>
       <r>    6.2696    1.0000 </r>
       <r>    6.3349    1.0000 </r>
       <r>    6.5009    1.0000 </r>
       <r>    6.6698    1.0001 </r>
       <r>    6.8753    1.0091 </r>
       <r>    7.0139    1.0352 </r>
       <r>    7.2755    0.4650 </r>
       <r>    7.4661   -0.0246 </r>
       <r>    7.6265   -0.0146 </r>
       <r>    7.9120   -0.0000 </r>
       <r>    8.1413   -0.0000 </r>
       <r>    8.1949   -0.0000 </r>
       <r>    8.3144   -0.0000 </r>
       <r>    8.5487   -0.0000 </r>
       <r>    8.6213   -0.0000 </r>
       <r>    8.7289   -0.0000 </r>
       <r>    8.8107   -0.0000 </r>
       <r>    9.1570   -0.0000 </r>
       <r>    9.2951   -0.0000 </r>
       <r>    9.4581   -0.0000 </r>
       <r>    9.6606   -0.0000 </r>
       <r>    9.8960   -0.0000 </r>
       <r>    9.9883   -0.0000 </r>
       <r>   10.1196   -0.0000 </r>
       <r>   10.2657   -0.0000 </r>
       <r>   10.3480   -0.0000 </r>
       <r>   10.3959   -0.0000 </r>
       <r>   10.6172   -0.0000 </r>
       <r>   10.6817   -0.0000 </r>
       <r>   10.8591   -0.0000 </r>
      </set>
      <set comment="kpoint 97">
       <r>   -3.1490    1.0000 </r>
       <r>   -2.4983    1.0000 </r>
       <r>   -1.9225    1.0000 </r>
       <r>   -1.3549    1.0000 </r>
       <r>   -0.8470    1.0000 </r>
       <r>   -0.6342    1.0000 </r>
       <r>   -0.4648    1.0000 </r>
       <r>   -0.0609    1.0000 </r>
       <r>    0.5164    1.0000 </r>
       <r>    0.6869    1.0000 </r>
       <r>    0.8565    1.0000 </r>
       <r>    1.2836    1.0000 </r>
       <r>    1.4215    1.0000 </r>
       <r>    1.8760    1.0000 </r>
       <r>    1.9506    1.0000 </r>
       <r>    2.4775    1.0000 </r>
       <r>    2.6240    1.0000 </r>
       <r>    2.6909    1.0000 </r>
       <r>    2.9068    1.0000 </r>
       <r>    3.1208    1.0000 </r>
       <r>    3.2807    1.0000 </r>
       <r>    3.5935    1.0000 </r>
       <r>    3.7434    1.0000 </r>
       <r>    3.9086    1.0000 </r>
       <r>    4.2096    1.0000 </r>
       <r>    4.3945    1.0000 </r>
       <r>    4.4306    1.0000 </r>
       <r>    4.7386    1.0000 </r>
       <r>    5.0137    1.0000 </r>
       <r>    5.1279    1.0000 </r>
       <r>    5.3581    1.0000 </r>
       <r>    5.5405    1.0000 </r>
       <r>    5.9423    1.0000 </r>
       <r>    6.1036    1.0000 </r>
       <r>    6.2992    1.0000 </r>
       <r>    6.3239    1.0000 </r>
       <r>    6.5322    1.0000 </r>
       <r>    6.7297    1.0005 </r>
       <r>    6.8865    1.0108 </r>
       <r>    7.0241    1.0354 </r>
       <r>    7.3429    0.2037 </r>
       <r>    7.4176    0.0233 </r>
       <r>    7.5843   -0.0237 </r>
       <r>    7.8574   -0.0001 </r>
       <r>    8.0585   -0.0000 </r>
       <r>    8.1589   -0.0000 </r>
       <r>    8.4304   -0.0000 </r>
       <r>    8.5119   -0.0000 </r>
       <r>    8.6953   -0.0000 </r>
       <r>    8.7308   -0.0000 </r>
       <r>    8.8100   -0.0000 </r>
       <r>    9.0957   -0.0000 </r>
       <r>    9.3661   -0.0000 </r>
       <r>    9.4737   -0.0000 </r>
       <r>    9.7264   -0.0000 </r>
       <r>    9.8034   -0.0000 </r>
       <r>    9.9246   -0.0000 </r>
       <r>   10.1860   -0.0000 </r>
       <r>   10.2686   -0.0000 </r>
       <r>   10.3531   -0.0000 </r>
       <r>   10.4727   -0.0000 </r>
       <r>   10.6438   -0.0000 </r>
       <r>   10.6847   -0.0000 </r>
       <r>   10.7797   -0.0000 </r>
      </set>
      <set comment="kpoint 98">
       <r>   -3.1827    1.0000 </r>
       <r>   -2.3817    1.0000 </r>
       <r>   -1.9211    1.0000 </r>
       <r>   -1.4820    1.0000 </r>
       <r>   -1.0004    1.0000 </r>
       <r>   -0.5416    1.0000 </r>
       <r>   -0.4391    1.0000 </r>
       <r>    0.2016    1.0000 </r>
       <r>    0.3622    1.0000 </r>
       <r>    0.6094    1.0000 </r>
       <r>    0.8907    1.0000 </r>
       <r>    1.3156    1.0000 </r>
       <r>    1.5076    1.0000 </r>
       <r>    1.7472    1.0000 </r>
       <r>    2.0011    1.0000 </r>
       <r>    2.3645    1.0000 </r>
       <r>    2.6142    1.0000 </r>
       <r>    2.7142    1.0000 </r>
       <r>    2.9280    1.0000 </r>
       <r>    3.2297    1.0000 </r>
       <r>    3.3944    1.0000 </r>
       <r>    3.5271    1.0000 </r>
       <r>    3.6874    1.0000 </r>
       <r>    3.9412    1.0000 </r>
       <r>    4.1840    1.0000 </r>
       <r>    4.3050    1.0000 </r>
       <r>    4.4402    1.0000 </r>
       <r>    4.8229    1.0000 </r>
       <r>    4.8883    1.0000 </r>
       <r>    5.2234    1.0000 </r>
       <r>    5.3318    1.0000 </r>
       <r>    5.4352    1.0000 </r>
       <r>    5.8981    1.0000 </r>
       <r>    6.1277    1.0000 </r>
       <r>    6.2810    1.0000 </r>
       <r>    6.3488    1.0000 </r>
       <r>    6.4710    1.0000 </r>
       <r>    6.8391    1.0049 </r>
       <r>    6.9466    1.0229 </r>
       <r>    7.0764    1.0197 </r>
       <r>    7.1904    0.8000 </r>
       <r>    7.4943   -0.0341 </r>
       <r>    7.7183   -0.0032 </r>
       <r>    7.8277   -0.0003 </r>
       <r>    8.0211   -0.0000 </r>
       <r>    8.1508   -0.0000 </r>
       <r>    8.4958   -0.0000 </r>
       <r>    8.5926   -0.0000 </r>
       <r>    8.6119   -0.0000 </r>
       <r>    8.7605   -0.0000 </r>
       <r>    8.8249   -0.0000 </r>
       <r>    9.1528   -0.0000 </r>
       <r>    9.3015   -0.0000 </r>
       <r>    9.5080   -0.0000 </r>
       <r>    9.6141   -0.0000 </r>
       <r>    9.6967   -0.0000 </r>
       <r>    9.9569   -0.0000 </r>
       <r>   10.1133   -0.0000 </r>
       <r>   10.2444   -0.0000 </r>
       <r>   10.2995   -0.0000 </r>
       <r>   10.4908   -0.0000 </r>
       <r>   10.6383   -0.0000 </r>
       <r>   10.7910   -0.0000 </r>
       <r>   10.8461   -0.0000 </r>
      </set>
      <set comment="kpoint 99">
       <r>   -3.1823    1.0000 </r>
       <r>   -2.4174    1.0000 </r>
       <r>   -1.7892    1.0000 </r>
       <r>   -1.6251    1.0000 </r>
       <r>   -0.8391    1.0000 </r>
       <r>   -0.6830    1.0000 </r>
       <r>   -0.3166    1.0000 </r>
       <r>    0.1733    1.0000 </r>
       <r>    0.2804    1.0000 </r>
       <r>    0.4394    1.0000 </r>
       <r>    1.0501    1.0000 </r>
       <r>    1.2483    1.0000 </r>
       <r>    1.5574    1.0000 </r>
       <r>    1.7242    1.0000 </r>
       <r>    2.1118    1.0000 </r>
       <r>    2.2569    1.0000 </r>
       <r>    2.6243    1.0000 </r>
       <r>    2.8425    1.0000 </r>
       <r>    2.9757    1.0000 </r>
       <r>    3.1063    1.0000 </r>
       <r>    3.4095    1.0000 </r>
       <r>    3.6464    1.0000 </r>
       <r>    3.7993    1.0000 </r>
       <r>    3.8811    1.0000 </r>
       <r>    3.9839    1.0000 </r>
       <r>    4.2739    1.0000 </r>
       <r>    4.4923    1.0000 </r>
       <r>    4.8262    1.0000 </r>
       <r>    4.9575    1.0000 </r>
       <r>    5.1325    1.0000 </r>
       <r>    5.3311    1.0000 </r>
       <r>    5.5347    1.0000 </r>
       <r>    5.9307    1.0000 </r>
       <r>    6.0684    1.0000 </r>
       <r>    6.2566    1.0000 </r>
       <r>    6.3836    1.0000 </r>
       <r>    6.4508    1.0000 </r>
       <r>    6.6908    1.0002 </r>
       <r>    6.8300    1.0042 </r>
       <r>    7.0594    1.0287 </r>
       <r>    7.2993    0.3662 </r>
       <r>    7.5059   -0.0353 </r>
       <r>    7.6829   -0.0061 </r>
       <r>    7.8003   -0.0005 </r>
       <r>    8.0237   -0.0000 </r>
       <r>    8.2329   -0.0000 </r>
       <r>    8.4590   -0.0000 </r>
       <r>    8.5561   -0.0000 </r>
       <r>    8.7130   -0.0000 </r>
       <r>    8.7857   -0.0000 </r>
       <r>    8.8694   -0.0000 </r>
       <r>    9.2288   -0.0000 </r>
       <r>    9.2476   -0.0000 </r>
       <r>    9.3828   -0.0000 </r>
       <r>    9.6250   -0.0000 </r>
       <r>    9.7740   -0.0000 </r>
       <r>    9.9657   -0.0000 </r>
       <r>   10.0663   -0.0000 </r>
       <r>   10.3033   -0.0000 </r>
       <r>   10.3916   -0.0000 </r>
       <r>   10.4760   -0.0000 </r>
       <r>   10.5368   -0.0000 </r>
       <r>   10.6118   -0.0000 </r>
       <r>   10.9313   -0.0000 </r>
      </set>
      <set comment="kpoint 100">
       <r>   -3.2264    1.0000 </r>
       <r>   -2.2105    1.0000 </r>
       <r>   -1.8671    1.0000 </r>
       <r>   -1.6972    1.0000 </r>
       <r>   -0.9804    1.0000 </r>
       <r>   -0.6681    1.0000 </r>
       <r>   -0.2645    1.0000 </r>
       <r>    0.1329    1.0000 </r>
       <r>    0.3114    1.0000 </r>
       <r>    0.6730    1.0000 </r>
       <r>    0.7397    1.0000 </r>
       <r>    1.4288    1.0000 </r>
       <r>    1.5635    1.0000 </r>
       <r>    1.6983    1.0000 </r>
       <r>    2.1304    1.0000 </r>
       <r>    2.4035    1.0000 </r>
       <r>    2.5933    1.0000 </r>
       <r>    2.6843    1.0000 </r>
       <r>    2.9027    1.0000 </r>
       <r>    3.2931    1.0000 </r>
       <r>    3.5116    1.0000 </r>
       <r>    3.5442    1.0000 </r>
       <r>    3.6287    1.0000 </r>
       <r>    3.9255    1.0000 </r>
       <r>    4.1309    1.0000 </r>
       <r>    4.3488    1.0000 </r>
       <r>    4.5269    1.0000 </r>
       <r>    4.6475    1.0000 </r>
       <r>    4.8234    1.0000 </r>
       <r>    5.1047    1.0000 </r>
       <r>    5.3396    1.0000 </r>
       <r>    5.4175    1.0000 </r>
       <r>    6.0898    1.0000 </r>
       <r>    6.1561    1.0000 </r>
       <r>    6.2693    1.0000 </r>
       <r>    6.3307    1.0000 </r>
       <r>    6.5257    1.0000 </r>
       <r>    6.5678    1.0000 </r>
       <r>    6.8193    1.0034 </r>
       <r>    7.0677    1.0249 </r>
       <r>    7.2884    0.4109 </r>
       <r>    7.3913    0.0711 </r>
       <r>    7.8076   -0.0004 </r>
       <r>    8.0063   -0.0000 </r>
       <r>    8.0429   -0.0000 </r>
       <r>    8.2101   -0.0000 </r>
       <r>    8.2808   -0.0000 </r>
       <r>    8.5441   -0.0000 </r>
       <r>    8.6183   -0.0000 </r>
       <r>    8.7195   -0.0000 </r>
       <r>    8.8693   -0.0000 </r>
       <r>    9.0682   -0.0000 </r>
       <r>    9.3543   -0.0000 </r>
       <r>    9.5780   -0.0000 </r>
       <r>    9.6796   -0.0000 </r>
       <r>    9.8280   -0.0000 </r>
       <r>    9.9608   -0.0000 </r>
       <r>   10.1519   -0.0000 </r>
       <r>   10.3026   -0.0000 </r>
       <r>   10.4469   -0.0000 </r>
       <r>   10.5006   -0.0000 </r>
       <r>   10.5907   -0.0000 </r>
       <r>   10.7208   -0.0000 </r>
       <r>   10.8930   -0.0000 </r>
      </set>
      <set comment="kpoint 101">
       <r>   -3.0015    1.0000 </r>
       <r>   -2.4772    1.0000 </r>
       <r>   -2.0447    1.0000 </r>
       <r>   -1.5518    1.0000 </r>
       <r>   -1.3884    1.0000 </r>
       <r>   -1.0278    1.0000 </r>
       <r>    0.3297    1.0000 </r>
       <r>    0.4515    1.0000 </r>
       <r>    0.9343    1.0000 </r>
       <r>    1.1032    1.0000 </r>
       <r>    1.3415    1.0000 </r>
       <r>    1.4553    1.0000 </r>
       <r>    1.5354    1.0000 </r>
       <r>    1.6977    1.0000 </r>
       <r>    1.7658    1.0000 </r>
       <r>    1.9051    1.0000 </r>
       <r>    2.3010    1.0000 </r>
       <r>    2.3677    1.0000 </r>
       <r>    2.5302    1.0000 </r>
       <r>    2.6886    1.0000 </r>
       <r>    2.9383    1.0000 </r>
       <r>    3.2950    1.0000 </r>
       <r>    3.7198    1.0000 </r>
       <r>    4.1326    1.0000 </r>
       <r>    4.2010    1.0000 </r>
       <r>    4.7270    1.0000 </r>
       <r>    4.8488    1.0000 </r>
       <r>    4.9222    1.0000 </r>
       <r>    5.0979    1.0000 </r>
       <r>    5.2148    1.0000 </r>
       <r>    5.3420    1.0000 </r>
       <r>    5.4441    1.0000 </r>
       <r>    5.5458    1.0000 </r>
       <r>    5.7437    1.0000 </r>
       <r>    5.9960    1.0000 </r>
       <r>    6.2516    1.0000 </r>
       <r>    6.6543    1.0001 </r>
       <r>    6.8287    1.0041 </r>
       <r>    7.0518    1.0314 </r>
       <r>    7.1835    0.8222 </r>
       <r>    7.3117    0.3168 </r>
       <r>    7.3812    0.0940 </r>
       <r>    7.8531   -0.0001 </r>
       <r>    8.1189   -0.0000 </r>
       <r>    8.1983   -0.0000 </r>
       <r>    8.3668   -0.0000 </r>
       <r>    8.4690   -0.0000 </r>
       <r>    8.6077   -0.0000 </r>
       <r>    8.7970   -0.0000 </r>
       <r>    8.8977   -0.0000 </r>
       <r>    9.0242   -0.0000 </r>
       <r>    9.2088   -0.0000 </r>
       <r>    9.4571   -0.0000 </r>
       <r>    9.5534   -0.0000 </r>
       <r>    9.7113   -0.0000 </r>
       <r>    9.8458   -0.0000 </r>
       <r>    9.8928   -0.0000 </r>
       <r>   10.0514   -0.0000 </r>
       <r>   10.2767   -0.0000 </r>
       <r>   10.3758   -0.0000 </r>
       <r>   10.5057   -0.0000 </r>
       <r>   10.6741   -0.0000 </r>
       <r>   10.8423   -0.0000 </r>
       <r>   11.0067   -0.0000 </r>
      </set>
      <set comment="kpoint 102">
       <r>   -3.0451    1.0000 </r>
       <r>   -2.3366    1.0000 </r>
       <r>   -2.1110    1.0000 </r>
       <r>   -1.5398    1.0000 </r>
       <r>   -1.3911    1.0000 </r>
       <r>   -1.1005    1.0000 </r>
       <r>    0.3036    1.0000 </r>
       <r>    0.4076    1.0000 </r>
       <r>    0.9373    1.0000 </r>
       <r>    1.2678    1.0000 </r>
       <r>    1.3195    1.0000 </r>
       <r>    1.3698    1.0000 </r>
       <r>    1.5061    1.0000 </r>
       <r>    1.7392    1.0000 </r>
       <r>    1.8947    1.0000 </r>
       <r>    1.9298    1.0000 </r>
       <r>    2.3027    1.0000 </r>
       <r>    2.3774    1.0000 </r>
       <r>    2.4893    1.0000 </r>
       <r>    2.7116    1.0000 </r>
       <r>    2.9252    1.0000 </r>
       <r>    3.2900    1.0000 </r>
       <r>    3.5902    1.0000 </r>
       <r>    4.1268    1.0000 </r>
       <r>    4.3013    1.0000 </r>
       <r>    4.6818    1.0000 </r>
       <r>    4.7615    1.0000 </r>
       <r>    4.9063    1.0000 </r>
       <r>    5.0675    1.0000 </r>
       <r>    5.2865    1.0000 </r>
       <r>    5.3345    1.0000 </r>
       <r>    5.4138    1.0000 </r>
       <r>    5.5343    1.0000 </r>
       <r>    5.6758    1.0000 </r>
       <r>    6.1043    1.0000 </r>
       <r>    6.2032    1.0000 </r>
       <r>    6.7409    1.0006 </r>
       <r>    6.7889    1.0019 </r>
       <r>    7.0892    1.0097 </r>
       <r>    7.1596    0.8902 </r>
       <r>    7.2886    0.4098 </r>
       <r>    7.4114    0.0330 </r>
       <r>    7.9272   -0.0000 </r>
       <r>    8.0611   -0.0000 </r>
       <r>    8.1477   -0.0000 </r>
       <r>    8.3754   -0.0000 </r>
       <r>    8.5081   -0.0000 </r>
       <r>    8.5912   -0.0000 </r>
       <r>    8.7822   -0.0000 </r>
       <r>    9.0274   -0.0000 </r>
       <r>    9.0662   -0.0000 </r>
       <r>    9.1743   -0.0000 </r>
       <r>    9.4431   -0.0000 </r>
       <r>    9.5474   -0.0000 </r>
       <r>    9.7621   -0.0000 </r>
       <r>    9.8145   -0.0000 </r>
       <r>    9.9196   -0.0000 </r>
       <r>   10.1600   -0.0000 </r>
       <r>   10.2582   -0.0000 </r>
       <r>   10.2819   -0.0000 </r>
       <r>   10.4977   -0.0000 </r>
       <r>   10.7495   -0.0000 </r>
       <r>   10.8301   -0.0000 </r>
       <r>   11.0263   -0.0000 </r>
      </set>
      <set comment="kpoint 103">
       <r>   -3.0283    1.0000 </r>
       <r>   -2.4335    1.0000 </r>
       <r>   -1.9805    1.0000 </r>
       <r>   -1.7447    1.0000 </r>
       <r>   -1.2882    1.0000 </r>
       <r>   -0.9156    1.0000 </r>
       <r>    0.0672    1.0000 </r>
       <r>    0.6619    1.0000 </r>
       <r>    0.7590    1.0000 </r>
       <r>    1.1326    1.0000 </r>
       <r>    1.2517    1.0000 </r>
       <r>    1.3405    1.0000 </r>
       <r>    1.5065    1.0000 </r>
       <r>    1.7150    1.0000 </r>
       <r>    1.8937    1.0000 </r>
       <r>    2.1330    1.0000 </r>
       <r>    2.2414    1.0000 </r>
       <r>    2.4412    1.0000 </r>
       <r>    2.4796    1.0000 </r>
       <r>    2.7027    1.0000 </r>
       <r>    3.1521    1.0000 </r>
       <r>    3.2293    1.0000 </r>
       <r>    3.7115    1.0000 </r>
       <r>    4.2192    1.0000 </r>
       <r>    4.4052    1.0000 </r>
       <r>    4.5528    1.0000 </r>
       <r>    4.6692    1.0000 </r>
       <r>    4.8220    1.0000 </r>
       <r>    5.0470    1.0000 </r>
       <r>    5.2271    1.0000 </r>
       <r>    5.3298    1.0000 </r>
       <r>    5.4508    1.0000 </r>
       <r>    5.5823    1.0000 </r>
       <r>    5.7372    1.0000 </r>
       <r>    5.8790    1.0000 </r>
       <r>    6.3884    1.0000 </r>
       <r>    6.6047    1.0000 </r>
       <r>    6.7485    1.0008 </r>
       <r>    6.8818    1.0101 </r>
       <r>    7.1033    0.9949 </r>
       <r>    7.4128    0.0307 </r>
       <r>    7.5007   -0.0349 </r>
       <r>    7.8451   -0.0002 </r>
       <r>    8.0635   -0.0000 </r>
       <r>    8.1787   -0.0000 </r>
       <r>    8.3729   -0.0000 </r>
       <r>    8.5351   -0.0000 </r>
       <r>    8.5992   -0.0000 </r>
       <r>    8.7253   -0.0000 </r>
       <r>    8.9314   -0.0000 </r>
       <r>    9.0646   -0.0000 </r>
       <r>    9.3728   -0.0000 </r>
       <r>    9.4190   -0.0000 </r>
       <r>    9.5999   -0.0000 </r>
       <r>    9.7381   -0.0000 </r>
       <r>    9.8614   -0.0000 </r>
       <r>    9.9508   -0.0000 </r>
       <r>   10.0711   -0.0000 </r>
       <r>   10.2788   -0.0000 </r>
       <r>   10.4193   -0.0000 </r>
       <r>   10.5440   -0.0000 </r>
       <r>   10.6514   -0.0000 </r>
       <r>   10.7513   -0.0000 </r>
       <r>   10.9239   -0.0000 </r>
      </set>
      <set comment="kpoint 104">
       <r>   -3.0233    1.0000 </r>
       <r>   -2.4548    1.0000 </r>
       <r>   -1.9182    1.0000 </r>
       <r>   -1.6390    1.0000 </r>
       <r>   -1.5224    1.0000 </r>
       <r>   -0.9381    1.0000 </r>
       <r>    0.3629    1.0000 </r>
       <r>    0.5049    1.0000 </r>
       <r>    0.8608    1.0000 </r>
       <r>    1.0274    1.0000 </r>
       <r>    1.2356    1.0000 </r>
       <r>    1.4723    1.0000 </r>
       <r>    1.5343    1.0000 </r>
       <r>    1.7590    1.0000 </r>
       <r>    1.8594    1.0000 </r>
       <r>    2.0222    1.0000 </r>
       <r>    2.1489    1.0000 </r>
       <r>    2.3678    1.0000 </r>
       <r>    2.5464    1.0000 </r>
       <r>    2.7843    1.0000 </r>
       <r>    2.9150    1.0000 </r>
       <r>    3.2479    1.0000 </r>
       <r>    3.7286    1.0000 </r>
       <r>    4.2779    1.0000 </r>
       <r>    4.3635    1.0000 </r>
       <r>    4.5744    1.0000 </r>
       <r>    4.6543    1.0000 </r>
       <r>    4.8873    1.0000 </r>
       <r>    5.0752    1.0000 </r>
       <r>    5.2076    1.0000 </r>
       <r>    5.2811    1.0000 </r>
       <r>    5.5113    1.0000 </r>
       <r>    5.5629    1.0000 </r>
       <r>    5.7478    1.0000 </r>
       <r>    5.9027    1.0000 </r>
       <r>    6.4695    1.0000 </r>
       <r>    6.6429    1.0000 </r>
       <r>    6.7559    1.0009 </r>
       <r>    7.0758    1.0200 </r>
       <r>    7.1799    0.8333 </r>
       <r>    7.2771    0.4583 </r>
       <r>    7.3316    0.2425 </r>
       <r>    7.9138   -0.0000 </r>
       <r>    8.0832   -0.0000 </r>
       <r>    8.2295   -0.0000 </r>
       <r>    8.3574   -0.0000 </r>
       <r>    8.4419   -0.0000 </r>
       <r>    8.6002   -0.0000 </r>
       <r>    8.7781   -0.0000 </r>
       <r>    8.9215   -0.0000 </r>
       <r>    9.1546   -0.0000 </r>
       <r>    9.2693   -0.0000 </r>
       <r>    9.4075   -0.0000 </r>
       <r>    9.5333   -0.0000 </r>
       <r>    9.7262   -0.0000 </r>
       <r>    9.8435   -0.0000 </r>
       <r>    9.9577   -0.0000 </r>
       <r>   10.0513   -0.0000 </r>
       <r>   10.2382   -0.0000 </r>
       <r>   10.3446   -0.0000 </r>
       <r>   10.4967   -0.0000 </r>
       <r>   10.6450   -0.0000 </r>
       <r>   10.7734   -0.0000 </r>
       <r>   10.9578   -0.0000 </r>
      </set>
      <set comment="kpoint 105">
       <r>   -3.0051    1.0000 </r>
       <r>   -2.4727    1.0000 </r>
       <r>   -2.0625    1.0000 </r>
       <r>   -1.6314    1.0000 </r>
       <r>   -1.2447    1.0000 </r>
       <r>   -0.9786    1.0000 </r>
       <r>    0.1239    1.0000 </r>
       <r>    0.4856    1.0000 </r>
       <r>    0.9034    1.0000 </r>
       <r>    1.0868    1.0000 </r>
       <r>    1.2807    1.0000 </r>
       <r>    1.4529    1.0000 </r>
       <r>    1.5287    1.0000 </r>
       <r>    1.6345    1.0000 </r>
       <r>    1.8991    1.0000 </r>
       <r>    2.0999    1.0000 </r>
       <r>    2.2427    1.0000 </r>
       <r>    2.3095    1.0000 </r>
       <r>    2.5711    1.0000 </r>
       <r>    2.6833    1.0000 </r>
       <r>    3.0253    1.0000 </r>
       <r>    3.3834    1.0000 </r>
       <r>    3.7509    1.0000 </r>
       <r>    4.0652    1.0000 </r>
       <r>    4.2145    1.0000 </r>
       <r>    4.7252    1.0000 </r>
       <r>    4.8284    1.0000 </r>
       <r>    4.8721    1.0000 </r>
       <r>    5.0775    1.0000 </r>
       <r>    5.1944    1.0000 </r>
       <r>    5.3405    1.0000 </r>
       <r>    5.4294    1.0000 </r>
       <r>    5.5244    1.0000 </r>
       <r>    5.7358    1.0000 </r>
       <r>    5.9728    1.0000 </r>
       <r>    6.3078    1.0000 </r>
       <r>    6.5838    1.0000 </r>
       <r>    6.7136    1.0003 </r>
       <r>    7.0114    1.0350 </r>
       <r>    7.1600    0.8891 </r>
       <r>    7.3526    0.1726 </r>
       <r>    7.4340    0.0018 </r>
       <r>    7.8404   -0.0002 </r>
       <r>    8.0634   -0.0000 </r>
       <r>    8.1917   -0.0000 </r>
       <r>    8.4202   -0.0000 </r>
       <r>    8.5569   -0.0000 </r>
       <r>    8.5841   -0.0000 </r>
       <r>    8.7183   -0.0000 </r>
       <r>    8.8948   -0.0000 </r>
       <r>    9.0187   -0.0000 </r>
       <r>    9.2546   -0.0000 </r>
       <r>    9.4595   -0.0000 </r>
       <r>    9.6278   -0.0000 </r>
       <r>    9.7201   -0.0000 </r>
       <r>    9.8368   -0.0000 </r>
       <r>    9.9575   -0.0000 </r>
       <r>   10.0797   -0.0000 </r>
       <r>   10.2717   -0.0000 </r>
       <r>   10.4541   -0.0000 </r>
       <r>   10.5400   -0.0000 </r>
       <r>   10.7342   -0.0000 </r>
       <r>   10.7806   -0.0000 </r>
       <r>   11.0782   -0.0000 </r>
      </set>
      <set comment="kpoint 106">
       <r>   -3.0390    1.0000 </r>
       <r>   -2.3765    1.0000 </r>
       <r>   -2.0730    1.0000 </r>
       <r>   -1.5275    1.0000 </r>
       <r>   -1.4083    1.0000 </r>
       <r>   -1.1053    1.0000 </r>
       <r>    0.3698    1.0000 </r>
       <r>    0.4261    1.0000 </r>
       <r>    0.8596    1.0000 </r>
       <r>    1.1635    1.0000 </r>
       <r>    1.2987    1.0000 </r>
       <r>    1.4173    1.0000 </r>
       <r>    1.4917    1.0000 </r>
       <r>    1.7530    1.0000 </r>
       <r>    1.9255    1.0000 </r>
       <r>    2.0748    1.0000 </r>
       <r>    2.2263    1.0000 </r>
       <r>    2.3712    1.0000 </r>
       <r>    2.4898    1.0000 </r>
       <r>    2.7027    1.0000 </r>
       <r>    2.8781    1.0000 </r>
       <r>    3.3218    1.0000 </r>
       <r>    3.6182    1.0000 </r>
       <r>    4.1094    1.0000 </r>
       <r>    4.2998    1.0000 </r>
       <r>    4.6725    1.0000 </r>
       <r>    4.8193    1.0000 </r>
       <r>    4.8923    1.0000 </r>
       <r>    5.0719    1.0000 </r>
       <r>    5.2556    1.0000 </r>
       <r>    5.3279    1.0000 </r>
       <r>    5.3834    1.0000 </r>
       <r>    5.5486    1.0000 </r>
       <r>    5.6490    1.0000 </r>
       <r>    6.1218    1.0000 </r>
       <r>    6.2385    1.0000 </r>
       <r>    6.7007    1.0002 </r>
       <r>    6.7956    1.0021 </r>
       <r>    7.0774    1.0190 </r>
       <r>    7.2015    0.7619 </r>
       <r>    7.3041    0.3469 </r>
       <r>    7.4460   -0.0104 </r>
       <r>    7.8752   -0.0001 </r>
       <r>    8.0760   -0.0000 </r>
       <r>    8.2010   -0.0000 </r>
       <r>    8.3235   -0.0000 </r>
       <r>    8.5194   -0.0000 </r>
       <r>    8.5817   -0.0000 </r>
       <r>    8.6905   -0.0000 </r>
       <r>    8.9612   -0.0000 </r>
       <r>    9.0289   -0.0000 </r>
       <r>    9.2504   -0.0000 </r>
       <r>    9.5067   -0.0000 </r>
       <r>    9.6042   -0.0000 </r>
       <r>    9.7227   -0.0000 </r>
       <r>    9.8229   -0.0000 </r>
       <r>    9.9399   -0.0000 </r>
       <r>   10.1431   -0.0000 </r>
       <r>   10.2095   -0.0000 </r>
       <r>   10.3643   -0.0000 </r>
       <r>   10.4833   -0.0000 </r>
       <r>   10.7847   -0.0000 </r>
       <r>   10.8363   -0.0000 </r>
       <r>   11.0017   -0.0000 </r>
      </set>
      <set comment="kpoint 107">
       <r>   -2.9815    1.0000 </r>
       <r>   -2.5410    1.0000 </r>
       <r>   -1.9816    1.0000 </r>
       <r>   -1.5605    1.0000 </r>
       <r>   -1.3982    1.0000 </r>
       <r>   -1.0354    1.0000 </r>
       <r>    0.3994    1.0000 </r>
       <r>    0.5132    1.0000 </r>
       <r>    0.8568    1.0000 </r>
       <r>    1.0150    1.0000 </r>
       <r>    1.2450    1.0000 </r>
       <r>    1.3603    1.0000 </r>
       <r>    1.5433    1.0000 </r>
       <r>    1.7918    1.0000 </r>
       <r>    1.9424    1.0000 </r>
       <r>    2.0916    1.0000 </r>
       <r>    2.1529    1.0000 </r>
       <r>    2.3177    1.0000 </r>
       <r>    2.4831    1.0000 </r>
       <r>    2.6635    1.0000 </r>
       <r>    2.9362    1.0000 </r>
       <r>    3.3329    1.0000 </r>
       <r>    3.7531    1.0000 </r>
       <r>    4.0813    1.0000 </r>
       <r>    4.2200    1.0000 </r>
       <r>    4.7438    1.0000 </r>
       <r>    4.8476    1.0000 </r>
       <r>    4.8843    1.0000 </r>
       <r>    5.1101    1.0000 </r>
       <r>    5.2042    1.0000 </r>
       <r>    5.3065    1.0000 </r>
       <r>    5.4479    1.0000 </r>
       <r>    5.5788    1.0000 </r>
       <r>    5.7931    1.0000 </r>
       <r>    6.0162    1.0000 </r>
       <r>    6.2031    1.0000 </r>
       <r>    6.6373    1.0000 </r>
       <r>    6.8459    1.0056 </r>
       <r>    7.1248    0.9640 </r>
       <r>    7.1820    0.8267 </r>
       <r>    7.3173    0.2953 </r>
       <r>    7.3998    0.0537 </r>
       <r>    7.8072   -0.0005 </r>
       <r>    8.0375   -0.0000 </r>
       <r>    8.1746   -0.0000 </r>
       <r>    8.2872   -0.0000 </r>
       <r>    8.5213   -0.0000 </r>
       <r>    8.6242   -0.0000 </r>
       <r>    8.7313   -0.0000 </r>
       <r>    8.9379   -0.0000 </r>
       <r>    9.0779   -0.0000 </r>
       <r>    9.2646   -0.0000 </r>
       <r>    9.4653   -0.0000 </r>
       <r>    9.5511   -0.0000 </r>
       <r>    9.7163   -0.0000 </r>
       <r>    9.8067   -0.0000 </r>
       <r>    9.8951   -0.0000 </r>
       <r>   10.1249   -0.0000 </r>
       <r>   10.2426   -0.0000 </r>
       <r>   10.3348   -0.0000 </r>
       <r>   10.4516   -0.0000 </r>
       <r>   10.7766   -0.0000 </r>
       <r>   10.9110   -0.0000 </r>
       <r>   10.9849   -0.0000 </r>
      </set>
      <set comment="kpoint 108">
       <r>   -3.0683    1.0000 </r>
       <r>   -2.3131    1.0000 </r>
       <r>   -1.9291    1.0000 </r>
       <r>   -1.7445    1.0000 </r>
       <r>   -1.4919    1.0000 </r>
       <r>   -0.9851    1.0000 </r>
       <r>    0.2839    1.0000 </r>
       <r>    0.5947    1.0000 </r>
       <r>    0.8801    1.0000 </r>
       <r>    0.9644    1.0000 </r>
       <r>    1.2113    1.0000 </r>
       <r>    1.4096    1.0000 </r>
       <r>    1.7008    1.0000 </r>
       <r>    1.7833    1.0000 </r>
       <r>    1.9257    1.0000 </r>
       <r>    2.0436    1.0000 </r>
       <r>    2.1776    1.0000 </r>
       <r>    2.4061    1.0000 </r>
       <r>    2.4449    1.0000 </r>
       <r>    2.7550    1.0000 </r>
       <r>    2.9876    1.0000 </r>
       <r>    3.2066    1.0000 </r>
       <r>    3.7380    1.0000 </r>
       <r>    4.1527    1.0000 </r>
       <r>    4.3338    1.0000 </r>
       <r>    4.5329    1.0000 </r>
       <r>    4.5867    1.0000 </r>
       <r>    4.9586    1.0000 </r>
       <r>    5.1485    1.0000 </r>
       <r>    5.2095    1.0000 </r>
       <r>    5.2961    1.0000 </r>
       <r>    5.4543    1.0000 </r>
       <r>    5.6009    1.0000 </r>
       <r>    5.6801    1.0000 </r>
       <r>    5.9255    1.0000 </r>
       <r>    6.3793    1.0000 </r>
       <r>    6.6901    1.0002 </r>
       <r>    6.7614    1.0010 </r>
       <r>    7.0236    1.0355 </r>
       <r>    7.2120    0.7241 </r>
       <r>    7.2851    0.4246 </r>
       <r>    7.4526   -0.0158 </r>
       <r>    7.9415   -0.0000 </r>
       <r>    8.0258   -0.0000 </r>
       <r>    8.1789   -0.0000 </r>
       <r>    8.3913   -0.0000 </r>
       <r>    8.5276   -0.0000 </r>
       <r>    8.5917   -0.0000 </r>
       <r>    8.7549   -0.0000 </r>
       <r>    8.9180   -0.0000 </r>
       <r>    9.1767   -0.0000 </r>
       <r>    9.2908   -0.0000 </r>
       <r>    9.4600   -0.0000 </r>
       <r>    9.5319   -0.0000 </r>
       <r>    9.7083   -0.0000 </r>
       <r>    9.8979   -0.0000 </r>
       <r>    9.9529   -0.0000 </r>
       <r>   10.0404   -0.0000 </r>
       <r>   10.2880   -0.0000 </r>
       <r>   10.4162   -0.0000 </r>
       <r>   10.4663   -0.0000 </r>
       <r>   10.6394   -0.0000 </r>
       <r>   10.7337   -0.0000 </r>
       <r>   10.9378   -0.0000 </r>
      </set>
      <set comment="kpoint 109">
       <r>   -2.9939    1.0000 </r>
       <r>   -2.5148    1.0000 </r>
       <r>   -2.0111    1.0000 </r>
       <r>   -1.6536    1.0000 </r>
       <r>   -1.2393    1.0000 </r>
       <r>   -0.9846    1.0000 </r>
       <r>    0.1366    1.0000 </r>
       <r>    0.5084    1.0000 </r>
       <r>    0.8720    1.0000 </r>
       <r>    1.0941    1.0000 </r>
       <r>    1.1970    1.0000 </r>
       <r>    1.4227    1.0000 </r>
       <r>    1.5834    1.0000 </r>
       <r>    1.6889    1.0000 </r>
       <r>    1.9626    1.0000 </r>
       <r>    2.0839    1.0000 </r>
       <r>    2.2077    1.0000 </r>
       <r>    2.3318    1.0000 </r>
       <r>    2.4971    1.0000 </r>
       <r>    2.7411    1.0000 </r>
       <r>    2.9712    1.0000 </r>
       <r>    3.4081    1.0000 </r>
       <r>    3.7391    1.0000 </r>
       <r>    4.0687    1.0000 </r>
       <r>    4.2475    1.0000 </r>
       <r>    4.7170    1.0000 </r>
       <r>    4.7890    1.0000 </r>
       <r>    4.8837    1.0000 </r>
       <r>    5.0744    1.0000 </r>
       <r>    5.1909    1.0000 </r>
       <r>    5.2841    1.0000 </r>
       <r>    5.5036    1.0000 </r>
       <r>    5.5343    1.0000 </r>
       <r>    5.7256    1.0000 </r>
       <r>    6.0746    1.0000 </r>
       <r>    6.2115    1.0000 </r>
       <r>    6.5719    1.0000 </r>
       <r>    6.7605    1.0010 </r>
       <r>    7.0209    1.0355 </r>
       <r>    7.1262    0.9616 </r>
       <r>    7.3508    0.1783 </r>
       <r>    7.4226    0.0161 </r>
       <r>    7.8555   -0.0001 </r>
       <r>    8.0962   -0.0000 </r>
       <r>    8.1890   -0.0000 </r>
       <r>    8.3239   -0.0000 </r>
       <r>    8.5648   -0.0000 </r>
       <r>    8.6079   -0.0000 </r>
       <r>    8.7323   -0.0000 </r>
       <r>    8.8407   -0.0000 </r>
       <r>    9.0349   -0.0000 </r>
       <r>    9.3418   -0.0000 </r>
       <r>    9.4816   -0.0000 </r>
       <r>    9.6075   -0.0000 </r>
       <r>    9.6874   -0.0000 </r>
       <r>    9.8270   -0.0000 </r>
       <r>    9.9503   -0.0000 </r>
       <r>   10.1479   -0.0000 </r>
       <r>   10.2616   -0.0000 </r>
       <r>   10.3933   -0.0000 </r>
       <r>   10.4558   -0.0000 </r>
       <r>   10.7475   -0.0000 </r>
       <r>   10.8244   -0.0000 </r>
       <r>   11.0681   -0.0000 </r>
      </set>
      <set comment="kpoint 110">
       <r>   -2.9821    1.0000 </r>
       <r>   -2.5627    1.0000 </r>
       <r>   -1.8128    1.0000 </r>
       <r>   -1.6508    1.0000 </r>
       <r>   -1.5387    1.0000 </r>
       <r>   -0.9614    1.0000 </r>
       <r>    0.4397    1.0000 </r>
       <r>    0.5896    1.0000 </r>
       <r>    0.8337    1.0000 </r>
       <r>    0.9695    1.0000 </r>
       <r>    1.1541    1.0000 </r>
       <r>    1.3167    1.0000 </r>
       <r>    1.5646    1.0000 </r>
       <r>    1.8947    1.0000 </r>
       <r>    1.9636    1.0000 </r>
       <r>    2.0125    1.0000 </r>
       <r>    2.1992    1.0000 </r>
       <r>    2.3150    1.0000 </r>
       <r>    2.4395    1.0000 </r>
       <r>    2.6976    1.0000 </r>
       <r>    2.8977    1.0000 </r>
       <r>    3.3393    1.0000 </r>
       <r>    3.8992    1.0000 </r>
       <r>    4.1008    1.0000 </r>
       <r>    4.3737    1.0000 </r>
       <r>    4.5571    1.0000 </r>
       <r>    4.6621    1.0000 </r>
       <r>    4.9177    1.0000 </r>
       <r>    4.9956    1.0000 </r>
       <r>    5.1113    1.0000 </r>
       <r>    5.2168    1.0000 </r>
       <r>    5.5799    1.0000 </r>
       <r>    5.6442    1.0000 </r>
       <r>    5.9030    1.0000 </r>
       <r>    6.1242    1.0000 </r>
       <r>    6.2358    1.0000 </r>
       <r>    6.5956    1.0000 </r>
       <r>    6.7251    1.0004 </r>
       <r>    7.1612    0.8861 </r>
       <r>    7.2064    0.7446 </r>
       <r>    7.3252    0.2656 </r>
       <r>    7.4098    0.0357 </r>
       <r>    7.9071   -0.0000 </r>
       <r>    7.9867   -0.0000 </r>
       <r>    8.0962   -0.0000 </r>
       <r>    8.3455   -0.0000 </r>
       <r>    8.5955   -0.0000 </r>
       <r>    8.6312   -0.0000 </r>
       <r>    8.7516   -0.0000 </r>
       <r>    8.7957   -0.0000 </r>
       <r>    9.2317   -0.0000 </r>
       <r>    9.2820   -0.0000 </r>
       <r>    9.3483   -0.0000 </r>
       <r>    9.4518   -0.0000 </r>
       <r>    9.6553   -0.0000 </r>
       <r>    9.7310   -0.0000 </r>
       <r>    9.9496   -0.0000 </r>
       <r>   10.0594   -0.0000 </r>
       <r>   10.3066   -0.0000 </r>
       <r>   10.3975   -0.0000 </r>
       <r>   10.4881   -0.0000 </r>
       <r>   10.7252   -0.0000 </r>
       <r>   10.8313   -0.0000 </r>
       <r>   11.0968   -0.0000 </r>
      </set>
      <set comment="kpoint 111">
       <r>   -2.9799    1.0000 </r>
       <r>   -2.5666    1.0000 </r>
       <r>   -1.8514    1.0000 </r>
       <r>   -1.7748    1.0000 </r>
       <r>   -1.2898    1.0000 </r>
       <r>   -0.9459    1.0000 </r>
       <r>    0.1845    1.0000 </r>
       <r>    0.6748    1.0000 </r>
       <r>    0.7589    1.0000 </r>
       <r>    0.9142    1.0000 </r>
       <r>    1.2189    1.0000 </r>
       <r>    1.3804    1.0000 </r>
       <r>    1.6212    1.0000 </r>
       <r>    1.7451    1.0000 </r>
       <r>    1.9567    1.0000 </r>
       <r>    2.1045    1.0000 </r>
       <r>    2.1877    1.0000 </r>
       <r>    2.3452    1.0000 </r>
       <r>    2.5139    1.0000 </r>
       <r>    2.6405    1.0000 </r>
       <r>    3.0631    1.0000 </r>
       <r>    3.3774    1.0000 </r>
       <r>    3.9001    1.0000 </r>
       <r>    4.0942    1.0000 </r>
       <r>    4.3414    1.0000 </r>
       <r>    4.5424    1.0000 </r>
       <r>    4.7439    1.0000 </r>
       <r>    4.7968    1.0000 </r>
       <r>    4.9130    1.0000 </r>
       <r>    5.1853    1.0000 </r>
       <r>    5.2655    1.0000 </r>
       <r>    5.5450    1.0000 </r>
       <r>    5.6568    1.0000 </r>
       <r>    5.8128    1.0000 </r>
       <r>    6.1213    1.0000 </r>
       <r>    6.2065    1.0000 </r>
       <r>    6.5421    1.0000 </r>
       <r>    6.7603    1.0010 </r>
       <r>    7.0102    1.0349 </r>
       <r>    7.0795    1.0175 </r>
       <r>    7.3756    0.1077 </r>
       <r>    7.5796   -0.0248 </r>
       <r>    7.7315   -0.0025 </r>
       <r>    8.0056   -0.0000 </r>
       <r>    8.2439   -0.0000 </r>
       <r>    8.3542   -0.0000 </r>
       <r>    8.4877   -0.0000 </r>
       <r>    8.6361   -0.0000 </r>
       <r>    8.7398   -0.0000 </r>
       <r>    8.9349   -0.0000 </r>
       <r>    9.1479   -0.0000 </r>
       <r>    9.2936   -0.0000 </r>
       <r>    9.3411   -0.0000 </r>
       <r>    9.5945   -0.0000 </r>
       <r>    9.6404   -0.0000 </r>
       <r>    9.7651   -0.0000 </r>
       <r>    9.9616   -0.0000 </r>
       <r>   10.1178   -0.0000 </r>
       <r>   10.2715   -0.0000 </r>
       <r>   10.3992   -0.0000 </r>
       <r>   10.5678   -0.0000 </r>
       <r>   10.7715   -0.0000 </r>
       <r>   10.8472   -0.0000 </r>
       <r>   11.0245   -0.0000 </r>
      </set>
      <set comment="kpoint 112">
       <r>   -3.0469    1.0000 </r>
       <r>   -2.4011    1.0000 </r>
       <r>   -1.8372    1.0000 </r>
       <r>   -1.7616    1.0000 </r>
       <r>   -1.4865    1.0000 </r>
       <r>   -1.0102    1.0000 </r>
       <r>    0.3781    1.0000 </r>
       <r>    0.6234    1.0000 </r>
       <r>    0.7826    1.0000 </r>
       <r>    1.0293    1.0000 </r>
       <r>    1.1085    1.0000 </r>
       <r>    1.3712    1.0000 </r>
       <r>    1.6472    1.0000 </r>
       <r>    1.8971    1.0000 </r>
       <r>    2.0058    1.0000 </r>
       <r>    2.0831    1.0000 </r>
       <r>    2.2206    1.0000 </r>
       <r>    2.2854    1.0000 </r>
       <r>    2.3735    1.0000 </r>
       <r>    2.7197    1.0000 </r>
       <r>    2.9331    1.0000 </r>
       <r>    3.2997    1.0000 </r>
       <r>    3.7861    1.0000 </r>
       <r>    4.1488    1.0000 </r>
       <r>    4.3932    1.0000 </r>
       <r>    4.4960    1.0000 </r>
       <r>    4.5227    1.0000 </r>
       <r>    4.9706    1.0000 </r>
       <r>    5.0291    1.0000 </r>
       <r>    5.1486    1.0000 </r>
       <r>    5.2993    1.0000 </r>
       <r>    5.5602    1.0000 </r>
       <r>    5.6188    1.0000 </r>
       <r>    5.7411    1.0000 </r>
       <r>    6.0753    1.0000 </r>
       <r>    6.2841    1.0000 </r>
       <r>    6.6631    1.0001 </r>
       <r>    6.7458    1.0007 </r>
       <r>    7.1101    0.9862 </r>
       <r>    7.1834    0.8225 </r>
       <r>    7.2867    0.4180 </r>
       <r>    7.4856   -0.0322 </r>
       <r>    7.9406   -0.0000 </r>
       <r>    8.0766   -0.0000 </r>
       <r>    8.2105   -0.0000 </r>
       <r>    8.3102   -0.0000 </r>
       <r>    8.5034   -0.0000 </r>
       <r>    8.5964   -0.0000 </r>
       <r>    8.7166   -0.0000 </r>
       <r>    8.8990   -0.0000 </r>
       <r>    9.1801   -0.0000 </r>
       <r>    9.2738   -0.0000 </r>
       <r>    9.3814   -0.0000 </r>
       <r>    9.4652   -0.0000 </r>
       <r>    9.6527   -0.0000 </r>
       <r>    9.8342   -0.0000 </r>
       <r>   10.0030   -0.0000 </r>
       <r>   10.1329   -0.0000 </r>
       <r>   10.2499   -0.0000 </r>
       <r>   10.4145   -0.0000 </r>
       <r>   10.4763   -0.0000 </r>
       <r>   10.7106   -0.0000 </r>
       <r>   10.7950   -0.0000 </r>
       <r>   11.0880   -0.0000 </r>
      </set>
      <set comment="kpoint 113">
       <r>   -3.2467    1.0000 </r>
       <r>   -2.5455    1.0000 </r>
       <r>   -1.4781    1.0000 </r>
       <r>   -1.0474    1.0000 </r>
       <r>   -0.9080    1.0000 </r>
       <r>   -0.7843    1.0000 </r>
       <r>   -0.5616    1.0000 </r>
       <r>   -0.1783    1.0000 </r>
       <r>    0.1176    1.0000 </r>
       <r>    0.5796    1.0000 </r>
       <r>    0.7101    1.0000 </r>
       <r>    1.2424    1.0000 </r>
       <r>    1.6147    1.0000 </r>
       <r>    1.8447    1.0000 </r>
       <r>    1.8644    1.0000 </r>
       <r>    1.9806    1.0000 </r>
       <r>    2.3099    1.0000 </r>
       <r>    2.5611    1.0000 </r>
       <r>    3.3867    1.0000 </r>
       <r>    3.5037    1.0000 </r>
       <r>    3.8757    1.0000 </r>
       <r>    4.1186    1.0000 </r>
       <r>    4.2069    1.0000 </r>
       <r>    4.2541    1.0000 </r>
       <r>    4.3314    1.0000 </r>
       <r>    4.5193    1.0000 </r>
       <r>    4.7167    1.0000 </r>
       <r>    4.7711    1.0000 </r>
       <r>    4.9176    1.0000 </r>
       <r>    4.9612    1.0000 </r>
       <r>    5.0583    1.0000 </r>
       <r>    5.2856    1.0000 </r>
       <r>    5.4434    1.0000 </r>
       <r>    5.5606    1.0000 </r>
       <r>    6.3479    1.0000 </r>
       <r>    6.4563    1.0000 </r>
       <r>    6.5127    1.0000 </r>
       <r>    6.7159    1.0003 </r>
       <r>    6.7817    1.0016 </r>
       <r>    6.8626    1.0074 </r>
       <r>    6.9525    1.0243 </r>
       <r>    7.2087    0.7363 </r>
       <r>    7.4062    0.0419 </r>
       <r>    8.0277   -0.0000 </r>
       <r>    8.0557   -0.0000 </r>
       <r>    8.2025   -0.0000 </r>
       <r>    8.8076   -0.0000 </r>
       <r>    8.8929   -0.0000 </r>
       <r>    8.9650   -0.0000 </r>
       <r>    9.0597   -0.0000 </r>
       <r>    9.1185   -0.0000 </r>
       <r>    9.2578   -0.0000 </r>
       <r>    9.3136   -0.0000 </r>
       <r>    9.4406   -0.0000 </r>
       <r>    9.4863   -0.0000 </r>
       <r>    9.5884   -0.0000 </r>
       <r>    9.6632   -0.0000 </r>
       <r>    9.7072   -0.0000 </r>
       <r>    9.8036   -0.0000 </r>
       <r>    9.8920   -0.0000 </r>
       <r>    9.9362   -0.0000 </r>
       <r>   10.4778   -0.0000 </r>
       <r>   10.6218   -0.0000 </r>
       <r>   10.7915   -0.0000 </r>
      </set>
      <set comment="kpoint 114">
       <r>   -3.2608    1.0000 </r>
       <r>   -2.5109    1.0000 </r>
       <r>   -1.3812    1.0000 </r>
       <r>   -1.1900    1.0000 </r>
       <r>   -0.9512    1.0000 </r>
       <r>   -0.7860    1.0000 </r>
       <r>   -0.5481    1.0000 </r>
       <r>   -0.2430    1.0000 </r>
       <r>    0.3042    1.0000 </r>
       <r>    0.4629    1.0000 </r>
       <r>    0.7099    1.0000 </r>
       <r>    1.4647    1.0000 </r>
       <r>    1.6175    1.0000 </r>
       <r>    1.7184    1.0000 </r>
       <r>    1.8499    1.0000 </r>
       <r>    2.1095    1.0000 </r>
       <r>    2.1560    1.0000 </r>
       <r>    2.5616    1.0000 </r>
       <r>    3.3469    1.0000 </r>
       <r>    3.6261    1.0000 </r>
       <r>    3.7322    1.0000 </r>
       <r>    4.1061    1.0000 </r>
       <r>    4.1993    1.0000 </r>
       <r>    4.2600    1.0000 </r>
       <r>    4.4423    1.0000 </r>
       <r>    4.4870    1.0000 </r>
       <r>    4.6020    1.0000 </r>
       <r>    4.6456    1.0000 </r>
       <r>    4.9648    1.0000 </r>
       <r>    5.0903    1.0000 </r>
       <r>    5.2099    1.0000 </r>
       <r>    5.2896    1.0000 </r>
       <r>    5.3955    1.0000 </r>
       <r>    5.4833    1.0000 </r>
       <r>    6.4077    1.0000 </r>
       <r>    6.4358    1.0000 </r>
       <r>    6.5400    1.0000 </r>
       <r>    6.7365    1.0006 </r>
       <r>    6.7721    1.0013 </r>
       <r>    6.8169    1.0033 </r>
       <r>    7.0027    1.0342 </r>
       <r>    7.0941    1.0050 </r>
       <r>    7.3939    0.0656 </r>
       <r>    8.0864   -0.0000 </r>
       <r>    8.1239   -0.0000 </r>
       <r>    8.1819   -0.0000 </r>
       <r>    8.7734   -0.0000 </r>
       <r>    8.8936   -0.0000 </r>
       <r>    9.0157   -0.0000 </r>
       <r>    9.0897   -0.0000 </r>
       <r>    9.1499   -0.0000 </r>
       <r>    9.2157   -0.0000 </r>
       <r>    9.3472   -0.0000 </r>
       <r>    9.3727   -0.0000 </r>
       <r>    9.4894   -0.0000 </r>
       <r>    9.5389   -0.0000 </r>
       <r>    9.6632   -0.0000 </r>
       <r>    9.7583   -0.0000 </r>
       <r>    9.7954   -0.0000 </r>
       <r>    9.8578   -0.0000 </r>
       <r>    9.9079   -0.0000 </r>
       <r>   10.5312   -0.0000 </r>
       <r>   10.6492   -0.0000 </r>
       <r>   10.7656   -0.0000 </r>
      </set>
      <set comment="kpoint 115">
       <r>   -3.2787    1.0000 </r>
       <r>   -2.4441    1.0000 </r>
       <r>   -1.4949    1.0000 </r>
       <r>   -1.1984    1.0000 </r>
       <r>   -0.9570    1.0000 </r>
       <r>   -0.7289    1.0000 </r>
       <r>   -0.4498    1.0000 </r>
       <r>   -0.3235    1.0000 </r>
       <r>    0.2463    1.0000 </r>
       <r>    0.5593    1.0000 </r>
       <r>    0.7021    1.0000 </r>
       <r>    1.3646    1.0000 </r>
       <r>    1.6029    1.0000 </r>
       <r>    1.7695    1.0000 </r>
       <r>    1.8321    1.0000 </r>
       <r>    2.0480    1.0000 </r>
       <r>    2.3070    1.0000 </r>
       <r>    2.5779    1.0000 </r>
       <r>    3.3762    1.0000 </r>
       <r>    3.5917    1.0000 </r>
       <r>    3.7799    1.0000 </r>
       <r>    4.0891    1.0000 </r>
       <r>    4.1799    1.0000 </r>
       <r>    4.2446    1.0000 </r>
       <r>    4.3756    1.0000 </r>
       <r>    4.5108    1.0000 </r>
       <r>    4.5464    1.0000 </r>
       <r>    4.6944    1.0000 </r>
       <r>    4.9017    1.0000 </r>
       <r>    5.0407    1.0000 </r>
       <r>    5.2225    1.0000 </r>
       <r>    5.3621    1.0000 </r>
       <r>    5.4111    1.0000 </r>
       <r>    5.4944    1.0000 </r>
       <r>    6.3439    1.0000 </r>
       <r>    6.4127    1.0000 </r>
       <r>    6.5576    1.0000 </r>
       <r>    6.7090    1.0003 </r>
       <r>    6.7834    1.0017 </r>
       <r>    6.8553    1.0066 </r>
       <r>    7.0263    1.0354 </r>
       <r>    7.2107    0.7287 </r>
       <r>    7.3320    0.2412 </r>
       <r>    8.0650   -0.0000 </r>
       <r>    8.1175   -0.0000 </r>
       <r>    8.1724   -0.0000 </r>
       <r>    8.7847   -0.0000 </r>
       <r>    8.8879   -0.0000 </r>
       <r>    8.9781   -0.0000 </r>
       <r>    9.0252   -0.0000 </r>
       <r>    9.1499   -0.0000 </r>
       <r>    9.2648   -0.0000 </r>
       <r>    9.3236   -0.0000 </r>
       <r>    9.4218   -0.0000 </r>
       <r>    9.4863   -0.0000 </r>
       <r>    9.5398   -0.0000 </r>
       <r>    9.6180   -0.0000 </r>
       <r>    9.7187   -0.0000 </r>
       <r>    9.7950   -0.0000 </r>
       <r>    9.9099   -0.0000 </r>
       <r>    9.9867   -0.0000 </r>
       <r>   10.4517   -0.0000 </r>
       <r>   10.6543   -0.0000 </r>
       <r>   10.8009   -0.0000 </r>
      </set>
      <set comment="kpoint 116">
       <r>   -3.3274    1.0000 </r>
       <r>   -2.2807    1.0000 </r>
       <r>   -1.5239    1.0000 </r>
       <r>   -1.1792    1.0000 </r>
       <r>   -1.0607    1.0000 </r>
       <r>   -0.7182    1.0000 </r>
       <r>   -0.5343    1.0000 </r>
       <r>   -0.4232    1.0000 </r>
       <r>    0.2937    1.0000 </r>
       <r>    0.5605    1.0000 </r>
       <r>    0.7798    1.0000 </r>
       <r>    1.2683    1.0000 </r>
       <r>    1.5560    1.0000 </r>
       <r>    1.7836    1.0000 </r>
       <r>    1.9516    1.0000 </r>
       <r>    2.1279    1.0000 </r>
       <r>    2.4034    1.0000 </r>
       <r>    2.6687    1.0000 </r>
       <r>    3.3866    1.0000 </r>
       <r>    3.7030    1.0000 </r>
       <r>    3.8385    1.0000 </r>
       <r>    3.9685    1.0000 </r>
       <r>    4.0616    1.0000 </r>
       <r>    4.1850    1.0000 </r>
       <r>    4.2570    1.0000 </r>
       <r>    4.4461    1.0000 </r>
       <r>    4.6315    1.0000 </r>
       <r>    4.6923    1.0000 </r>
       <r>    4.8367    1.0000 </r>
       <r>    5.1444    1.0000 </r>
       <r>    5.2135    1.0000 </r>
       <r>    5.3217    1.0000 </r>
       <r>    5.5263    1.0000 </r>
       <r>    5.5840    1.0000 </r>
       <r>    6.2011    1.0000 </r>
       <r>    6.2453    1.0000 </r>
       <r>    6.3767    1.0000 </r>
       <r>    6.6999    1.0002 </r>
       <r>    6.7497    1.0008 </r>
       <r>    6.8822    1.0101 </r>
       <r>    6.9426    1.0220 </r>
       <r>    7.2559    0.5477 </r>
       <r>    7.4919   -0.0336 </r>
       <r>    7.9870   -0.0000 </r>
       <r>    8.0628   -0.0000 </r>
       <r>    8.1799   -0.0000 </r>
       <r>    8.7893   -0.0000 </r>
       <r>    8.7961   -0.0000 </r>
       <r>    8.8816   -0.0000 </r>
       <r>    9.0869   -0.0000 </r>
       <r>    9.1951   -0.0000 </r>
       <r>    9.2880   -0.0000 </r>
       <r>    9.3554   -0.0000 </r>
       <r>    9.4824   -0.0000 </r>
       <r>    9.5723   -0.0000 </r>
       <r>    9.6146   -0.0000 </r>
       <r>    9.7170   -0.0000 </r>
       <r>    9.7624   -0.0000 </r>
       <r>    9.8150   -0.0000 </r>
       <r>    9.9764   -0.0000 </r>
       <r>   10.0043   -0.0000 </r>
       <r>   10.4723   -0.0000 </r>
       <r>   10.6891   -0.0000 </r>
       <r>   10.8907   -0.0000 </r>
      </set>
      <set comment="kpoint 117">
       <r>   -2.9775    1.0000 </r>
       <r>   -2.6692    1.0000 </r>
       <r>   -2.0637    1.0000 </r>
       <r>   -1.2806    1.0000 </r>
       <r>   -1.1865    1.0000 </r>
       <r>   -0.3721    1.0000 </r>
       <r>   -0.2576    1.0000 </r>
       <r>    0.0457    1.0000 </r>
       <r>    0.2550    1.0000 </r>
       <r>    0.6660    1.0000 </r>
       <r>    0.8235    1.0000 </r>
       <r>    1.5671    1.0000 </r>
       <r>    1.8813    1.0000 </r>
       <r>    1.9254    1.0000 </r>
       <r>    2.1688    1.0000 </r>
       <r>    2.5042    1.0000 </r>
       <r>    2.5344    1.0000 </r>
       <r>    2.7027    1.0000 </r>
       <r>    2.8883    1.0000 </r>
       <r>    3.0126    1.0000 </r>
       <r>    3.1903    1.0000 </r>
       <r>    3.3987    1.0000 </r>
       <r>    3.5025    1.0000 </r>
       <r>    3.5565    1.0000 </r>
       <r>    3.6962    1.0000 </r>
       <r>    4.3578    1.0000 </r>
       <r>    4.4674    1.0000 </r>
       <r>    4.6804    1.0000 </r>
       <r>    4.8229    1.0000 </r>
       <r>    5.0927    1.0000 </r>
       <r>    5.2590    1.0000 </r>
       <r>    5.5160    1.0000 </r>
       <r>    5.6203    1.0000 </r>
       <r>    6.3100    1.0000 </r>
       <r>    6.4187    1.0000 </r>
       <r>    6.6265    1.0000 </r>
       <r>    6.6802    1.0001 </r>
       <r>    6.8907    1.0115 </r>
       <r>    7.1909    0.7982 </r>
       <r>    7.3926    0.0682 </r>
       <r>    7.5370   -0.0335 </r>
       <r>    7.7325   -0.0024 </r>
       <r>    7.8368   -0.0002 </r>
       <r>    7.9530   -0.0000 </r>
       <r>    7.9903   -0.0000 </r>
       <r>    8.2243   -0.0000 </r>
       <r>    8.3223   -0.0000 </r>
       <r>    8.4391   -0.0000 </r>
       <r>    8.7156   -0.0000 </r>
       <r>    8.9107   -0.0000 </r>
       <r>    8.9964   -0.0000 </r>
       <r>    9.0870   -0.0000 </r>
       <r>    9.1958   -0.0000 </r>
       <r>    9.2932   -0.0000 </r>
       <r>    9.3690   -0.0000 </r>
       <r>    9.5202   -0.0000 </r>
       <r>    9.7012   -0.0000 </r>
       <r>    9.8743   -0.0000 </r>
       <r>   10.1583   -0.0000 </r>
       <r>   10.3275   -0.0000 </r>
       <r>   10.7115   -0.0000 </r>
       <r>   10.7895   -0.0000 </r>
       <r>   10.8845   -0.0000 </r>
       <r>   11.0744   -0.0000 </r>
      </set>
      <set comment="kpoint 118">
       <r>   -3.0266    1.0000 </r>
       <r>   -2.6138    1.0000 </r>
       <r>   -1.9079    1.0000 </r>
       <r>   -1.6081    1.0000 </r>
       <r>   -1.0966    1.0000 </r>
       <r>   -0.3943    1.0000 </r>
       <r>   -0.0153    1.0000 </r>
       <r>    0.0895    1.0000 </r>
       <r>    0.2068    1.0000 </r>
       <r>    0.5510    1.0000 </r>
       <r>    0.8303    1.0000 </r>
       <r>    1.3756    1.0000 </r>
       <r>    1.6038    1.0000 </r>
       <r>    2.0892    1.0000 </r>
       <r>    2.3236    1.0000 </r>
       <r>    2.4675    1.0000 </r>
       <r>    2.6477    1.0000 </r>
       <r>    2.7752    1.0000 </r>
       <r>    2.9412    1.0000 </r>
       <r>    3.1104    1.0000 </r>
       <r>    3.1940    1.0000 </r>
       <r>    3.3212    1.0000 </r>
       <r>    3.4340    1.0000 </r>
       <r>    3.5977    1.0000 </r>
       <r>    3.9283    1.0000 </r>
       <r>    4.4105    1.0000 </r>
       <r>    4.4621    1.0000 </r>
       <r>    4.5913    1.0000 </r>
       <r>    4.7274    1.0000 </r>
       <r>    4.9355    1.0000 </r>
       <r>    5.1349    1.0000 </r>
       <r>    5.5463    1.0000 </r>
       <r>    5.6499    1.0000 </r>
       <r>    6.2424    1.0000 </r>
       <r>    6.2731    1.0000 </r>
       <r>    6.5263    1.0000 </r>
       <r>    6.7802    1.0015 </r>
       <r>    7.0569    1.0297 </r>
       <r>    7.1021    0.9963 </r>
       <r>    7.4313    0.0049 </r>
       <r>    7.5640   -0.0284 </r>
       <r>    7.6461   -0.0111 </r>
       <r>    7.7723   -0.0010 </r>
       <r>    7.9855   -0.0000 </r>
       <r>    8.1344   -0.0000 </r>
       <r>    8.2657   -0.0000 </r>
       <r>    8.4067   -0.0000 </r>
       <r>    8.5948   -0.0000 </r>
       <r>    8.7135   -0.0000 </r>
       <r>    8.7921   -0.0000 </r>
       <r>    8.8801   -0.0000 </r>
       <r>    8.9503   -0.0000 </r>
       <r>    9.1607   -0.0000 </r>
       <r>    9.2804   -0.0000 </r>
       <r>    9.4584   -0.0000 </r>
       <r>    9.7597   -0.0000 </r>
       <r>    9.8306   -0.0000 </r>
       <r>    9.9129   -0.0000 </r>
       <r>   10.1346   -0.0000 </r>
       <r>   10.1826   -0.0000 </r>
       <r>   10.5963   -0.0000 </r>
       <r>   10.7364   -0.0000 </r>
       <r>   10.8456   -0.0000 </r>
       <r>   10.9595   -0.0000 </r>
      </set>
      <set comment="kpoint 119">
       <r>   -2.9853    1.0000 </r>
       <r>   -2.6400    1.0000 </r>
       <r>   -2.1009    1.0000 </r>
       <r>   -1.3282    1.0000 </r>
       <r>   -1.1398    1.0000 </r>
       <r>   -0.3439    1.0000 </r>
       <r>   -0.1857    1.0000 </r>
       <r>    0.0455    1.0000 </r>
       <r>    0.2797    1.0000 </r>
       <r>    0.4880    1.0000 </r>
       <r>    0.8567    1.0000 </r>
       <r>    1.5737    1.0000 </r>
       <r>    1.8109    1.0000 </r>
       <r>    2.0158    1.0000 </r>
       <r>    2.2170    1.0000 </r>
       <r>    2.5096    1.0000 </r>
       <r>    2.5299    1.0000 </r>
       <r>    2.7210    1.0000 </r>
       <r>    2.8822    1.0000 </r>
       <r>    2.9655    1.0000 </r>
       <r>    3.0925    1.0000 </r>
       <r>    3.3781    1.0000 </r>
       <r>    3.5287    1.0000 </r>
       <r>    3.5826    1.0000 </r>
       <r>    3.7775    1.0000 </r>
       <r>    4.3734    1.0000 </r>
       <r>    4.3874    1.0000 </r>
       <r>    4.7383    1.0000 </r>
       <r>    4.8396    1.0000 </r>
       <r>    5.0889    1.0000 </r>
       <r>    5.2698    1.0000 </r>
       <r>    5.5079    1.0000 </r>
       <r>    5.6799    1.0000 </r>
       <r>    6.2923    1.0000 </r>
       <r>    6.4403    1.0000 </r>
       <r>    6.5156    1.0000 </r>
       <r>    6.6357    1.0000 </r>
       <r>    6.8913    1.0116 </r>
       <r>    7.2570    0.5430 </r>
       <r>    7.4233    0.0152 </r>
       <r>    7.5201   -0.0352 </r>
       <r>    7.5860   -0.0233 </r>
       <r>    7.7627   -0.0013 </r>
       <r>    7.9470   -0.0000 </r>
       <r>    8.1173   -0.0000 </r>
       <r>    8.2281   -0.0000 </r>
       <r>    8.4055   -0.0000 </r>
       <r>    8.5151   -0.0000 </r>
       <r>    8.7663   -0.0000 </r>
       <r>    8.8203   -0.0000 </r>
       <r>    8.9206   -0.0000 </r>
       <r>    9.1275   -0.0000 </r>
       <r>    9.2554   -0.0000 </r>
       <r>    9.2745   -0.0000 </r>
       <r>    9.3816   -0.0000 </r>
       <r>    9.5235   -0.0000 </r>
       <r>    9.7317   -0.0000 </r>
       <r>    9.8917   -0.0000 </r>
       <r>   10.0236   -0.0000 </r>
       <r>   10.3020   -0.0000 </r>
       <r>   10.6413   -0.0000 </r>
       <r>   10.7925   -0.0000 </r>
       <r>   10.9060   -0.0000 </r>
       <r>   10.9723   -0.0000 </r>
      </set>
      <set comment="kpoint 120">
       <r>   -3.0201    1.0000 </r>
       <r>   -2.5777    1.0000 </r>
       <r>   -2.1000    1.0000 </r>
       <r>   -1.4251    1.0000 </r>
       <r>   -1.0176    1.0000 </r>
       <r>   -0.4962    1.0000 </r>
       <r>   -0.1932    1.0000 </r>
       <r>    0.0828    1.0000 </r>
       <r>    0.3613    1.0000 </r>
       <r>    0.4790    1.0000 </r>
       <r>    0.8766    1.0000 </r>
       <r>    1.5929    1.0000 </r>
       <r>    1.7576    1.0000 </r>
       <r>    2.0381    1.0000 </r>
       <r>    2.2273    1.0000 </r>
       <r>    2.4263    1.0000 </r>
       <r>    2.5426    1.0000 </r>
       <r>    2.7426    1.0000 </r>
       <r>    2.8231    1.0000 </r>
       <r>    2.9803    1.0000 </r>
       <r>    3.1888    1.0000 </r>
       <r>    3.3436    1.0000 </r>
       <r>    3.4705    1.0000 </r>
       <r>    3.7104    1.0000 </r>
       <r>    3.8045    1.0000 </r>
       <r>    4.3380    1.0000 </r>
       <r>    4.4634    1.0000 </r>
       <r>    4.6990    1.0000 </r>
       <r>    4.7806    1.0000 </r>
       <r>    5.1278    1.0000 </r>
       <r>    5.2655    1.0000 </r>
       <r>    5.5073    1.0000 </r>
       <r>    5.5780    1.0000 </r>
       <r>    6.2532    1.0000 </r>
       <r>    6.2966    1.0000 </r>
       <r>    6.5811    1.0000 </r>
       <r>    6.6988    1.0002 </r>
       <r>    6.9283    1.0188 </r>
       <r>    7.2135    0.7182 </r>
       <r>    7.3948    0.0638 </r>
       <r>    7.5972   -0.0208 </r>
       <r>    7.6263   -0.0146 </r>
       <r>    7.8260   -0.0003 </r>
       <r>    7.9608   -0.0000 </r>
       <r>    8.0294   -0.0000 </r>
       <r>    8.1841   -0.0000 </r>
       <r>    8.3449   -0.0000 </r>
       <r>    8.5745   -0.0000 </r>
       <r>    8.7949   -0.0000 </r>
       <r>    8.9028   -0.0000 </r>
       <r>    8.9918   -0.0000 </r>
       <r>    9.0429   -0.0000 </r>
       <r>    9.1329   -0.0000 </r>
       <r>    9.3226   -0.0000 </r>
       <r>    9.3753   -0.0000 </r>
       <r>    9.5551   -0.0000 </r>
       <r>    9.7892   -0.0000 </r>
       <r>    9.8788   -0.0000 </r>
       <r>   10.1542   -0.0000 </r>
       <r>   10.2049   -0.0000 </r>
       <r>   10.7148   -0.0000 </r>
       <r>   10.7842   -0.0000 </r>
       <r>   10.8679   -0.0000 </r>
       <r>   10.9998   -0.0000 </r>
      </set>
      <set comment="kpoint 121">
       <r>   -3.0008    1.0000 </r>
       <r>   -2.6259    1.0000 </r>
       <r>   -2.0794    1.0000 </r>
       <r>   -1.2869    1.0000 </r>
       <r>   -1.1728    1.0000 </r>
       <r>   -0.4157    1.0000 </r>
       <r>   -0.2778    1.0000 </r>
       <r>   -0.0008    1.0000 </r>
       <r>    0.3715    1.0000 </r>
       <r>    0.6818    1.0000 </r>
       <r>    0.7891    1.0000 </r>
       <r>    1.6050    1.0000 </r>
       <r>    1.8298    1.0000 </r>
       <r>    2.0861    1.0000 </r>
       <r>    2.1446    1.0000 </r>
       <r>    2.4549    1.0000 </r>
       <r>    2.4988    1.0000 </r>
       <r>    2.6137    1.0000 </r>
       <r>    2.7945    1.0000 </r>
       <r>    3.0293    1.0000 </r>
       <r>    3.3509    1.0000 </r>
       <r>    3.3763    1.0000 </r>
       <r>    3.5036    1.0000 </r>
       <r>    3.5878    1.0000 </r>
       <r>    3.6851    1.0000 </r>
       <r>    4.2808    1.0000 </r>
       <r>    4.4794    1.0000 </r>
       <r>    4.7054    1.0000 </r>
       <r>    4.8379    1.0000 </r>
       <r>    5.1167    1.0000 </r>
       <r>    5.2331    1.0000 </r>
       <r>    5.5338    1.0000 </r>
       <r>    5.6041    1.0000 </r>
       <r>    6.2375    1.0000 </r>
       <r>    6.4296    1.0000 </r>
       <r>    6.6197    1.0000 </r>
       <r>    6.6895    1.0002 </r>
       <r>    6.9131    1.0156 </r>
       <r>    7.1677    0.8688 </r>
       <r>    7.4203    0.0193 </r>
       <r>    7.5655   -0.0280 </r>
       <r>    7.7182   -0.0032 </r>
       <r>    7.9048   -0.0000 </r>
       <r>    7.9442   -0.0000 </r>
       <r>    8.0802   -0.0000 </r>
       <r>    8.1445   -0.0000 </r>
       <r>    8.3230   -0.0000 </r>
       <r>    8.4510   -0.0000 </r>
       <r>    8.7426   -0.0000 </r>
       <r>    8.8303   -0.0000 </r>
       <r>    8.9473   -0.0000 </r>
       <r>    9.0486   -0.0000 </r>
       <r>    9.1574   -0.0000 </r>
       <r>    9.3381   -0.0000 </r>
       <r>    9.4368   -0.0000 </r>
       <r>    9.5350   -0.0000 </r>
       <r>    9.7790   -0.0000 </r>
       <r>    9.8418   -0.0000 </r>
       <r>   10.1497   -0.0000 </r>
       <r>   10.2431   -0.0000 </r>
       <r>   10.6778   -0.0000 </r>
       <r>   10.7602   -0.0000 </r>
       <r>   10.9159   -0.0000 </r>
       <r>   11.0254   -0.0000 </r>
      </set>
      <set comment="kpoint 122">
       <r>   -3.0498    1.0000 </r>
       <r>   -2.5659    1.0000 </r>
       <r>   -1.9310    1.0000 </r>
       <r>   -1.4577    1.0000 </r>
       <r>   -1.3500    1.0000 </r>
       <r>   -0.2007    1.0000 </r>
       <r>   -0.1082    1.0000 </r>
       <r>    0.0995    1.0000 </r>
       <r>    0.2402    1.0000 </r>
       <r>    0.4254    1.0000 </r>
       <r>    0.8633    1.0000 </r>
       <r>    1.4651    1.0000 </r>
       <r>    1.7963    1.0000 </r>
       <r>    1.8964    1.0000 </r>
       <r>    2.2948    1.0000 </r>
       <r>    2.5856    1.0000 </r>
       <r>    2.7129    1.0000 </r>
       <r>    2.7922    1.0000 </r>
       <r>    2.8671    1.0000 </r>
       <r>    3.0213    1.0000 </r>
       <r>    3.0775    1.0000 </r>
       <r>    3.3352    1.0000 </r>
       <r>    3.4236    1.0000 </r>
       <r>    3.7042    1.0000 </r>
       <r>    3.7534    1.0000 </r>
       <r>    4.3435    1.0000 </r>
       <r>    4.5036    1.0000 </r>
       <r>    4.6373    1.0000 </r>
       <r>    4.7344    1.0000 </r>
       <r>    5.0444    1.0000 </r>
       <r>    5.0754    1.0000 </r>
       <r>    5.5576    1.0000 </r>
       <r>    5.6435    1.0000 </r>
       <r>    6.2207    1.0000 </r>
       <r>    6.4683    1.0000 </r>
       <r>    6.4950    1.0000 </r>
       <r>    6.7904    1.0019 </r>
       <r>    6.9281    1.0188 </r>
       <r>    7.2983    0.3702 </r>
       <r>    7.3637    0.1397 </r>
       <r>    7.4907   -0.0334 </r>
       <r>    7.6221   -0.0154 </r>
       <r>    7.7804   -0.0009 </r>
       <r>    8.0963   -0.0000 </r>
       <r>    8.1329   -0.0000 </r>
       <r>    8.2363   -0.0000 </r>
       <r>    8.4214   -0.0000 </r>
       <r>    8.5406   -0.0000 </r>
       <r>    8.6891   -0.0000 </r>
       <r>    8.7579   -0.0000 </r>
       <r>    8.9578   -0.0000 </r>
       <r>    9.1125   -0.0000 </r>
       <r>    9.1987   -0.0000 </r>
       <r>    9.3436   -0.0000 </r>
       <r>    9.4305   -0.0000 </r>
       <r>    9.4749   -0.0000 </r>
       <r>    9.7789   -0.0000 </r>
       <r>    9.8830   -0.0000 </r>
       <r>   10.0952   -0.0000 </r>
       <r>   10.2024   -0.0000 </r>
       <r>   10.5363   -0.0000 </r>
       <r>   10.7404   -0.0000 </r>
       <r>   10.8270   -0.0000 </r>
       <r>   10.9464   -0.0000 </r>
      </set>
      <set comment="kpoint 123">
       <r>   -3.0882    1.0000 </r>
       <r>   -2.4736    1.0000 </r>
       <r>   -1.9178    1.0000 </r>
       <r>   -1.5855    1.0000 </r>
       <r>   -1.3110    1.0000 </r>
       <r>   -0.2896    1.0000 </r>
       <r>   -0.0342    1.0000 </r>
       <r>    0.1013    1.0000 </r>
       <r>    0.2637    1.0000 </r>
       <r>    0.4896    1.0000 </r>
       <r>    0.7920    1.0000 </r>
       <r>    1.4472    1.0000 </r>
       <r>    1.7669    1.0000 </r>
       <r>    2.0345    1.0000 </r>
       <r>    2.2424    1.0000 </r>
       <r>    2.6318    1.0000 </r>
       <r>    2.6669    1.0000 </r>
       <r>    2.7638    1.0000 </r>
       <r>    2.8531    1.0000 </r>
       <r>    2.9713    1.0000 </r>
       <r>    3.2573    1.0000 </r>
       <r>    3.3305    1.0000 </r>
       <r>    3.4905    1.0000 </r>
       <r>    3.5783    1.0000 </r>
       <r>    3.7977    1.0000 </r>
       <r>    4.2989    1.0000 </r>
       <r>    4.4943    1.0000 </r>
       <r>    4.5844    1.0000 </r>
       <r>    4.6520    1.0000 </r>
       <r>    5.0180    1.0000 </r>
       <r>    5.1466    1.0000 </r>
       <r>    5.5818    1.0000 </r>
       <r>    5.6755    1.0000 </r>
       <r>    6.1900    1.0000 </r>
       <r>    6.3321    1.0000 </r>
       <r>    6.5955    1.0000 </r>
       <r>    6.8255    1.0039 </r>
       <r>    6.9612    1.0263 </r>
       <r>    7.1596    0.8904 </r>
       <r>    7.4551   -0.0177 </r>
       <r>    7.5057   -0.0353 </r>
       <r>    7.6099   -0.0180 </r>
       <r>    7.7321   -0.0024 </r>
       <r>    8.0813   -0.0000 </r>
       <r>    8.1683   -0.0000 </r>
       <r>    8.3193   -0.0000 </r>
       <r>    8.4170   -0.0000 </r>
       <r>    8.6241   -0.0000 </r>
       <r>    8.7117   -0.0000 </r>
       <r>    8.7493   -0.0000 </r>
       <r>    8.9403   -0.0000 </r>
       <r>    9.1119   -0.0000 </r>
       <r>    9.1722   -0.0000 </r>
       <r>    9.3050   -0.0000 </r>
       <r>    9.4441   -0.0000 </r>
       <r>    9.5009   -0.0000 </r>
       <r>    9.6924   -0.0000 </r>
       <r>    9.8116   -0.0000 </r>
       <r>   10.1862   -0.0000 </r>
       <r>   10.2889   -0.0000 </r>
       <r>   10.5438   -0.0000 </r>
       <r>   10.6941   -0.0000 </r>
       <r>   10.7879   -0.0000 </r>
       <r>   10.9823   -0.0000 </r>
      </set>
      <set comment="kpoint 124">
       <r>   -3.0443    1.0000 </r>
       <r>   -2.4930    1.0000 </r>
       <r>   -2.1720    1.0000 </r>
       <r>   -1.4195    1.0000 </r>
       <r>   -1.0125    1.0000 </r>
       <r>   -0.5056    1.0000 </r>
       <r>   -0.1675    1.0000 </r>
       <r>    0.0508    1.0000 </r>
       <r>    0.3541    1.0000 </r>
       <r>    0.5062    1.0000 </r>
       <r>    0.8669    1.0000 </r>
       <r>    1.5945    1.0000 </r>
       <r>    1.7605    1.0000 </r>
       <r>    2.0903    1.0000 </r>
       <r>    2.1867    1.0000 </r>
       <r>    2.4031    1.0000 </r>
       <r>    2.5490    1.0000 </r>
       <r>    2.6652    1.0000 </r>
       <r>    2.9030    1.0000 </r>
       <r>    2.9985    1.0000 </r>
       <r>    3.2660    1.0000 </r>
       <r>    3.3415    1.0000 </r>
       <r>    3.4248    1.0000 </r>
       <r>    3.6573    1.0000 </r>
       <r>    3.8313    1.0000 </r>
       <r>    4.2952    1.0000 </r>
       <r>    4.4792    1.0000 </r>
       <r>    4.6937    1.0000 </r>
       <r>    4.8127    1.0000 </r>
       <r>    5.1563    1.0000 </r>
       <r>    5.2464    1.0000 </r>
       <r>    5.4755    1.0000 </r>
       <r>    5.5529    1.0000 </r>
       <r>    6.2085    1.0000 </r>
       <r>    6.3641    1.0000 </r>
       <r>    6.5413    1.0000 </r>
       <r>    6.6515    1.0001 </r>
       <r>    7.0182    1.0354 </r>
       <r>    7.2372    0.6252 </r>
       <r>    7.4891   -0.0331 </r>
       <r>    7.5486   -0.0315 </r>
       <r>    7.6780   -0.0067 </r>
       <r>    7.7819   -0.0008 </r>
       <r>    7.9254   -0.0000 </r>
       <r>    7.9888   -0.0000 </r>
       <r>    8.1781   -0.0000 </r>
       <r>    8.2893   -0.0000 </r>
       <r>    8.5898   -0.0000 </r>
       <r>    8.7732   -0.0000 </r>
       <r>    8.8515   -0.0000 </r>
       <r>    8.9987   -0.0000 </r>
       <r>    9.1303   -0.0000 </r>
       <r>    9.1681   -0.0000 </r>
       <r>    9.2950   -0.0000 </r>
       <r>    9.3944   -0.0000 </r>
       <r>    9.5506   -0.0000 </r>
       <r>    9.8268   -0.0000 </r>
       <r>    9.8753   -0.0000 </r>
       <r>   10.1167   -0.0000 </r>
       <r>   10.2378   -0.0000 </r>
       <r>   10.6807   -0.0000 </r>
       <r>   10.8011   -0.0000 </r>
       <r>   10.8951   -0.0000 </r>
       <r>   11.0062   -0.0000 </r>
      </set>
      <set comment="kpoint 125">
       <r>   -3.0331    1.0000 </r>
       <r>   -2.5104    1.0000 </r>
       <r>   -2.1878    1.0000 </r>
       <r>   -1.3317    1.0000 </r>
       <r>   -1.1185    1.0000 </r>
       <r>   -0.4110    1.0000 </r>
       <r>   -0.2128    1.0000 </r>
       <r>    0.0461    1.0000 </r>
       <r>    0.3578    1.0000 </r>
       <r>    0.5215    1.0000 </r>
       <r>    0.8166    1.0000 </r>
       <r>    1.6034    1.0000 </r>
       <r>    1.8759    1.0000 </r>
       <r>    2.0217    1.0000 </r>
       <r>    2.2226    1.0000 </r>
       <r>    2.4700    1.0000 </r>
       <r>    2.5214    1.0000 </r>
       <r>    2.6116    1.0000 </r>
       <r>    2.8311    1.0000 </r>
       <r>    2.9563    1.0000 </r>
       <r>    3.2274    1.0000 </r>
       <r>    3.4063    1.0000 </r>
       <r>    3.5054    1.0000 </r>
       <r>    3.6379    1.0000 </r>
       <r>    3.7185    1.0000 </r>
       <r>    4.2929    1.0000 </r>
       <r>    4.4333    1.0000 </r>
       <r>    4.7717    1.0000 </r>
       <r>    4.8845    1.0000 </r>
       <r>    5.0806    1.0000 </r>
       <r>    5.2583    1.0000 </r>
       <r>    5.4782    1.0000 </r>
       <r>    5.6573    1.0000 </r>
       <r>    6.1402    1.0000 </r>
       <r>    6.4140    1.0000 </r>
       <r>    6.5563    1.0000 </r>
       <r>    6.6725    1.0001 </r>
       <r>    7.0216    1.0355 </r>
       <r>    7.2321    0.6462 </r>
       <r>    7.3776    0.1026 </r>
       <r>    7.5704   -0.0269 </r>
       <r>    7.6978   -0.0047 </r>
       <r>    7.8290   -0.0003 </r>
       <r>    7.9416   -0.0000 </r>
       <r>    8.0731   -0.0000 </r>
       <r>    8.1775   -0.0000 </r>
       <r>    8.3087   -0.0000 </r>
       <r>    8.4905   -0.0000 </r>
       <r>    8.7085   -0.0000 </r>
       <r>    8.8582   -0.0000 </r>
       <r>    9.0161   -0.0000 </r>
       <r>    9.1152   -0.0000 </r>
       <r>    9.2109   -0.0000 </r>
       <r>    9.2719   -0.0000 </r>
       <r>    9.3856   -0.0000 </r>
       <r>    9.5133   -0.0000 </r>
       <r>    9.7569   -0.0000 </r>
       <r>    9.8592   -0.0000 </r>
       <r>   10.0818   -0.0000 </r>
       <r>   10.2567   -0.0000 </r>
       <r>   10.6956   -0.0000 </r>
       <r>   10.8251   -0.0000 </r>
       <r>   10.9219   -0.0000 </r>
       <r>   11.0316   -0.0000 </r>
      </set>
      <set comment="kpoint 126">
       <r>   -3.1128    1.0000 </r>
       <r>   -2.3219    1.0000 </r>
       <r>   -2.1391    1.0000 </r>
       <r>   -1.5683    1.0000 </r>
       <r>   -1.0855    1.0000 </r>
       <r>   -0.5269    1.0000 </r>
       <r>    0.0176    1.0000 </r>
       <r>    0.1184    1.0000 </r>
       <r>    0.2465    1.0000 </r>
       <r>    0.5178    1.0000 </r>
       <r>    0.6979    1.0000 </r>
       <r>    1.5606    1.0000 </r>
       <r>    1.7684    1.0000 </r>
       <r>    2.0940    1.0000 </r>
       <r>    2.2409    1.0000 </r>
       <r>    2.3719    1.0000 </r>
       <r>    2.6326    1.0000 </r>
       <r>    2.7829    1.0000 </r>
       <r>    2.8916    1.0000 </r>
       <r>    3.1153    1.0000 </r>
       <r>    3.2758    1.0000 </r>
       <r>    3.3403    1.0000 </r>
       <r>    3.5219    1.0000 </r>
       <r>    3.7627    1.0000 </r>
       <r>    3.7980    1.0000 </r>
       <r>    4.2216    1.0000 </r>
       <r>    4.4014    1.0000 </r>
       <r>    4.5703    1.0000 </r>
       <r>    4.7140    1.0000 </r>
       <r>    5.1384    1.0000 </r>
       <r>    5.3061    1.0000 </r>
       <r>    5.4466    1.0000 </r>
       <r>    5.5260    1.0000 </r>
       <r>    5.9613    1.0000 </r>
       <r>    6.2188    1.0000 </r>
       <r>    6.5975    1.0000 </r>
       <r>    6.7536    1.0009 </r>
       <r>    7.1463    0.9219 </r>
       <r>    7.2119    0.7242 </r>
       <r>    7.4412   -0.0058 </r>
       <r>    7.6432   -0.0116 </r>
       <r>    7.6802   -0.0064 </r>
       <r>    7.7980   -0.0006 </r>
       <r>    7.8757   -0.0001 </r>
       <r>    7.9844   -0.0000 </r>
       <r>    8.2331   -0.0000 </r>
       <r>    8.2823   -0.0000 </r>
       <r>    8.6165   -0.0000 </r>
       <r>    8.7198   -0.0000 </r>
       <r>    8.8459   -0.0000 </r>
       <r>    8.9949   -0.0000 </r>
       <r>    9.0927   -0.0000 </r>
       <r>    9.1990   -0.0000 </r>
       <r>    9.3498   -0.0000 </r>
       <r>    9.4443   -0.0000 </r>
       <r>    9.6688   -0.0000 </r>
       <r>    9.7759   -0.0000 </r>
       <r>    9.8258   -0.0000 </r>
       <r>   10.1639   -0.0000 </r>
       <r>   10.2671   -0.0000 </r>
       <r>   10.7601   -0.0000 </r>
       <r>   10.8318   -0.0000 </r>
       <r>   10.9296   -0.0000 </r>
       <r>   11.0097   -0.0000 </r>
      </set>
      <set comment="kpoint 127">
       <r>   -3.1315    1.0000 </r>
       <r>   -2.2888    1.0000 </r>
       <r>   -2.0715    1.0000 </r>
       <r>   -1.5615    1.0000 </r>
       <r>   -1.3087    1.0000 </r>
       <r>   -0.3453    1.0000 </r>
       <r>   -0.0518    1.0000 </r>
       <r>    0.0712    1.0000 </r>
       <r>    0.3651    1.0000 </r>
       <r>    0.4805    1.0000 </r>
       <r>    0.6716    1.0000 </r>
       <r>    1.5339    1.0000 </r>
       <r>    1.8529    1.0000 </r>
       <r>    2.0817    1.0000 </r>
       <r>    2.2385    1.0000 </r>
       <r>    2.4859    1.0000 </r>
       <r>    2.6682    1.0000 </r>
       <r>    2.8108    1.0000 </r>
       <r>    2.8962    1.0000 </r>
       <r>    2.9804    1.0000 </r>
       <r>    3.2504    1.0000 </r>
       <r>    3.3683    1.0000 </r>
       <r>    3.5336    1.0000 </r>
       <r>    3.6108    1.0000 </r>
       <r>    3.7548    1.0000 </r>
       <r>    4.2115    1.0000 </r>
       <r>    4.4081    1.0000 </r>
       <r>    4.5734    1.0000 </r>
       <r>    4.6875    1.0000 </r>
       <r>    5.1568    1.0000 </r>
       <r>    5.2806    1.0000 </r>
       <r>    5.4708    1.0000 </r>
       <r>    5.5568    1.0000 </r>
       <r>    6.1014    1.0000 </r>
       <r>    6.2540    1.0000 </r>
       <r>    6.4876    1.0000 </r>
       <r>    6.8679    1.0081 </r>
       <r>    7.0550    1.0304 </r>
       <r>    7.3388    0.2173 </r>
       <r>    7.4164    0.0251 </r>
       <r>    7.5481   -0.0316 </r>
       <r>    7.6371   -0.0126 </r>
       <r>    7.7220   -0.0030 </r>
       <r>    7.8819   -0.0001 </r>
       <r>    7.9735   -0.0000 </r>
       <r>    8.2876   -0.0000 </r>
       <r>    8.3969   -0.0000 </r>
       <r>    8.6121   -0.0000 </r>
       <r>    8.8234   -0.0000 </r>
       <r>    8.9236   -0.0000 </r>
       <r>    9.0060   -0.0000 </r>
       <r>    9.1464   -0.0000 </r>
       <r>    9.1966   -0.0000 </r>
       <r>    9.3187   -0.0000 </r>
       <r>    9.4141   -0.0000 </r>
       <r>    9.5477   -0.0000 </r>
       <r>    9.6817   -0.0000 </r>
       <r>    9.7957   -0.0000 </r>
       <r>   10.2304   -0.0000 </r>
       <r>   10.3124   -0.0000 </r>
       <r>   10.6328   -0.0000 </r>
       <r>   10.7328   -0.0000 </r>
       <r>   10.8529   -0.0000 </r>
       <r>   10.9502   -0.0000 </r>
      </set>
      <set comment="kpoint 128">
       <r>   -3.1173    1.0000 </r>
       <r>   -2.2941    1.0000 </r>
       <r>   -2.1560    1.0000 </r>
       <r>   -1.4468    1.0000 </r>
       <r>   -1.3250    1.0000 </r>
       <r>   -0.2658    1.0000 </r>
       <r>   -0.1431    1.0000 </r>
       <r>    0.0469    1.0000 </r>
       <r>    0.3991    1.0000 </r>
       <r>    0.4884    1.0000 </r>
       <r>    0.6290    1.0000 </r>
       <r>    1.5353    1.0000 </r>
       <r>    1.8921    1.0000 </r>
       <r>    2.0441    1.0000 </r>
       <r>    2.3526    1.0000 </r>
       <r>    2.4753    1.0000 </r>
       <r>    2.6312    1.0000 </r>
       <r>    2.7100    1.0000 </r>
       <r>    2.8116    1.0000 </r>
       <r>    2.9596    1.0000 </r>
       <r>    3.2909    1.0000 </r>
       <r>    3.4817    1.0000 </r>
       <r>    3.5734    1.0000 </r>
       <r>    3.6101    1.0000 </r>
       <r>    3.6480    1.0000 </r>
       <r>    4.2338    1.0000 </r>
       <r>    4.4714    1.0000 </r>
       <r>    4.5875    1.0000 </r>
       <r>    4.6632    1.0000 </r>
       <r>    5.2556    1.0000 </r>
       <r>    5.2765    1.0000 </r>
       <r>    5.4430    1.0000 </r>
       <r>    5.5087    1.0000 </r>
       <r>    6.1667    1.0000 </r>
       <r>    6.2749    1.0000 </r>
       <r>    6.3934    1.0000 </r>
       <r>    6.9026    1.0136 </r>
       <r>    6.9850    1.0314 </r>
       <r>    7.3147    0.3051 </r>
       <r>    7.4255    0.0121 </r>
       <r>    7.5564   -0.0300 </r>
       <r>    7.6308   -0.0137 </r>
       <r>    7.8092   -0.0004 </r>
       <r>    7.9009   -0.0000 </r>
       <r>    7.9418   -0.0000 </r>
       <r>    8.2629   -0.0000 </r>
       <r>    8.4704   -0.0000 </r>
       <r>    8.5492   -0.0000 </r>
       <r>    8.8021   -0.0000 </r>
       <r>    8.8634   -0.0000 </r>
       <r>    8.9575   -0.0000 </r>
       <r>    9.1072   -0.0000 </r>
       <r>    9.2002   -0.0000 </r>
       <r>    9.4307   -0.0000 </r>
       <r>    9.4502   -0.0000 </r>
       <r>    9.4959   -0.0000 </r>
       <r>    9.7282   -0.0000 </r>
       <r>    9.7955   -0.0000 </r>
       <r>   10.1804   -0.0000 </r>
       <r>   10.2235   -0.0000 </r>
       <r>   10.7141   -0.0000 </r>
       <r>   10.7767   -0.0000 </r>
       <r>   10.8352   -0.0000 </r>
       <r>   11.0187   -0.0000 </r>
      </set>
     </set>
    </set>
   </array>
  </eigenvalues>
  <separator name="orbital magnetization" >
   <v name="MAGDIPOLOUT">      0.00000000      0.00000000      0.00000000</v>
  </separator>
  <dos>
   <i name="efermi">      7.26719762 </i>
   <total>
    <array>
     <dimension dim="1">gridpoints</dimension>
     <dimension dim="2">spin</dimension>
     <field>energy</field>
     <field>total</field>
     <field>integrated</field>
     <set>
      <set comment="spin 1">
       <r>    -5.5796     0.0000     0.0000 </r>
       <r>    -5.5143     0.0000     0.0000 </r>
       <r>    -5.4489     0.0000     0.0000 </r>
       <r>    -5.3835     0.0000     0.0000 </r>
       <r>    -5.3182     0.0000     0.0000 </r>
       <r>    -5.2528     0.0000     0.0000 </r>
       <r>    -5.1875    -0.0000    -0.0000 </r>
       <r>    -5.1221    -0.0000    -0.0000 </r>
       <r>    -5.0567    -0.0000    -0.0000 </r>
       <r>    -4.9914    -0.0000    -0.0000 </r>
       <r>    -4.9260    -0.0000    -0.0000 </r>
       <r>    -4.8607    -0.0000    -0.0000 </r>
       <r>    -4.7953    -0.0000    -0.0000 </r>
       <r>    -4.7299    -0.0000    -0.0000 </r>
       <r>    -4.6646    -0.0000    -0.0000 </r>
       <r>    -4.5992    -0.0000    -0.0000 </r>
       <r>    -4.5338    -0.0000    -0.0000 </r>
       <r>    -4.4685    -0.0000    -0.0000 </r>
       <r>    -4.4031    -0.0000    -0.0000 </r>
       <r>    -4.3378    -0.0000    -0.0000 </r>
       <r>    -4.2724    -0.0000    -0.0000 </r>
       <r>    -4.2070    -0.0000    -0.0000 </r>
       <r>    -4.1417    -0.0002    -0.0000 </r>
       <r>    -4.0763    -0.0011    -0.0001 </r>
       <r>    -4.0110    -0.0043    -0.0004 </r>
       <r>    -3.9456    -0.0129    -0.0012 </r>
       <r>    -3.8802    -0.0299    -0.0032 </r>
       <r>    -3.8149    -0.0489    -0.0064 </r>
       <r>    -3.7495    -0.0408    -0.0090 </r>
       <r>    -3.6841     0.0494    -0.0058 </r>
       <r>    -3.6188     0.2764     0.0123 </r>
       <r>    -3.5534     0.6462     0.0545 </r>
       <r>    -3.4881     1.1032     0.1266 </r>
       <r>    -3.4227     1.5852     0.2302 </r>
       <r>    -3.3573     2.0882     0.3667 </r>
       <r>    -3.2920     2.6410     0.5393 </r>
       <r>    -3.2266     3.2201     0.7498 </r>
       <r>    -3.1613     3.7307     0.9936 </r>
       <r>    -3.0959     4.0433     1.2579 </r>
       <r>    -3.0305     3.9934     1.5189 </r>
       <r>    -2.9652     3.4298     1.7431 </r>
       <r>    -2.8998     2.4115     1.9007 </r>
       <r>    -2.8344     1.3300     1.9877 </r>
       <r>    -2.7691     0.6938     2.0330 </r>
       <r>    -2.7037     0.7619     2.0828 </r>
       <r>    -2.6384     1.4096     2.1749 </r>
       <r>    -2.5730     2.2816     2.3241 </r>
       <r>    -2.5076     3.0185     2.5214 </r>
       <r>    -2.4423     3.4188     2.7448 </r>
       <r>    -2.3769     3.5074     2.9741 </r>
       <r>    -2.3116     3.4779     3.2014 </r>
       <r>    -2.2462     3.5184     3.4313 </r>
       <r>    -2.1808     3.6640     3.6708 </r>
       <r>    -2.1155     3.8367     3.9216 </r>
       <r>    -2.0501     4.0010     4.1831 </r>
       <r>    -1.9847     4.2030     4.4578 </r>
       <r>    -1.9194     4.4547     4.7490 </r>
       <r>    -1.8540     4.6765     5.0547 </r>
       <r>    -1.7887     4.7888     5.3677 </r>
       <r>    -1.7233     4.7981     5.6813 </r>
       <r>    -1.6579     4.7634     5.9926 </r>
       <r>    -1.5926     4.7201     6.3011 </r>
       <r>    -1.5272     4.6664     6.6061 </r>
       <r>    -1.4619     4.5963     6.9066 </r>
       <r>    -1.3965     4.5112     7.2014 </r>
       <r>    -1.3311     4.4028     7.4892 </r>
       <r>    -1.2658     4.2723     7.7684 </r>
       <r>    -1.2004     4.2060     8.0433 </r>
       <r>    -1.1350     4.3850     8.3300 </r>
       <r>    -1.0697     4.9256     8.6519 </r>
       <r>    -1.0043     5.6737     9.0227 </r>
       <r>    -0.9390     6.2255     9.4296 </r>
       <r>    -0.8736     6.2366     9.8373 </r>
       <r>    -0.8082     5.7363    10.2122 </r>
       <r>    -0.7429     5.1217    10.5470 </r>
       <r>    -0.6775     4.8324    10.8628 </r>
       <r>    -0.6122     5.0227    11.1911 </r>
       <r>    -0.5468     5.5109    11.5513 </r>
       <r>    -0.4814     5.9838    11.9424 </r>
       <r>    -0.4161     6.2285    12.3495 </r>
       <r>    -0.3507     6.2032    12.7550 </r>
       <r>    -0.2853     5.9519    13.1440 </r>
       <r>    -0.2200     5.5287    13.5054 </r>
       <r>    -0.1546     5.0517    13.8356 </r>
       <r>    -0.0893     4.7759    14.1477 </r>
       <r>    -0.0239     4.9935    14.4741 </r>
       <r>     0.0415     5.7752    14.8516 </r>
       <r>     0.1068     6.8081    15.2966 </r>
       <r>     0.1722     7.5587    15.7906 </r>
       <r>     0.2375     7.6777    16.2924 </r>
       <r>     0.3029     7.2533    16.7665 </r>
       <r>     0.3683     6.6372    17.2003 </r>
       <r>     0.4336     6.1009    17.5991 </r>
       <r>     0.4990     5.7615    17.9757 </r>
       <r>     0.5644     5.7308    18.3503 </r>
       <r>     0.6297     6.1061    18.7494 </r>
       <r>     0.6951     6.7769    19.1923 </r>
       <r>     0.7604     7.4122    19.6768 </r>
       <r>     0.8258     7.7286    20.1819 </r>
       <r>     0.8912     7.6951    20.6849 </r>
       <r>     0.9565     7.4434    21.1714 </r>
       <r>     1.0219     7.1013    21.6356 </r>
       <r>     1.0872     6.7903    22.0794 </r>
       <r>     1.1526     6.6866    22.5164 </r>
       <r>     1.2180     6.9386    22.9700 </r>
       <r>     1.2833     7.4909    23.4596 </r>
       <r>     1.3487     8.0478    23.9856 </r>
       <r>     1.4141     8.2703    24.5262 </r>
       <r>     1.4794     8.0148    25.0500 </r>
       <r>     1.5448     7.4028    25.5339 </r>
       <r>     1.6101     6.7465    25.9748 </r>
       <r>     1.6755     6.4235    26.3947 </r>
       <r>     1.7409     6.6771    26.8311 </r>
       <r>     1.8062     7.4258    27.3165 </r>
       <r>     1.8716     8.2911    27.8584 </r>
       <r>     1.9369     8.8539    28.4371 </r>
       <r>     2.0023     8.9024    29.0190 </r>
       <r>     2.0677     8.5089    29.5751 </r>
       <r>     2.1330     7.9504    30.0948 </r>
       <r>     2.1984     7.5468    30.5881 </r>
       <r>     2.2638     7.4892    31.0776 </r>
       <r>     2.3291     7.7658    31.5851 </r>
       <r>     2.3945     8.2437    32.1240 </r>
       <r>     2.4598     8.7867    32.6983 </r>
       <r>     2.5252     9.2542    33.3031 </r>
       <r>     2.5906     9.4513    33.9209 </r>
       <r>     2.6559     9.2227    34.5237 </r>
       <r>     2.7213     8.6471    35.0889 </r>
       <r>     2.7866     8.0578    35.6156 </r>
       <r>     2.8520     7.7784    36.1240 </r>
       <r>     2.9174     7.8369    36.6362 </r>
       <r>     2.9827     8.0073    37.1596 </r>
       <r>     3.0481     8.1413    37.6917 </r>
       <r>     3.1135     8.3568    38.2379 </r>
       <r>     3.1788     8.8310    38.8151 </r>
       <r>     3.2442     9.4935    39.4356 </r>
       <r>     3.3095    10.0339    40.0915 </r>
       <r>     3.3749    10.1996    40.7581 </r>
       <r>     3.4403    10.0170    41.4129 </r>
       <r>     3.5056     9.7246    42.0485 </r>
       <r>     3.5710     9.5647    42.6736 </r>
       <r>     3.6363     9.6455    43.3041 </r>
       <r>     3.7017     9.8920    43.9506 </r>
       <r>     3.7671    10.0626    44.6083 </r>
       <r>     3.8324     9.9048    45.2557 </r>
       <r>     3.8978     9.3796    45.8688 </r>
       <r>     3.9632     8.7004    46.4375 </r>
       <r>     4.0285     8.1764    46.9719 </r>
       <r>     4.0939     8.0883    47.5005 </r>
       <r>     4.1592     8.6183    48.0639 </r>
       <r>     4.2246     9.6876    48.6971 </r>
       <r>     4.2900    10.8577    49.4067 </r>
       <r>     4.3553    11.5819    50.1637 </r>
       <r>     4.4207    11.6323    50.9240 </r>
       <r>     4.4860    11.2364    51.6585 </r>
       <r>     4.5514    10.8197    52.3657 </r>
       <r>     4.6168    10.6491    53.0617 </r>
       <r>     4.6821    10.6665    53.7589 </r>
       <r>     4.7475    10.6124    54.4525 </r>
       <r>     4.8129    10.3191    55.1270 </r>
       <r>     4.8782     9.8897    55.7734 </r>
       <r>     4.9436     9.5905    56.4003 </r>
       <r>     5.0089     9.5838    57.0267 </r>
       <r>     5.0743     9.7861    57.6663 </r>
       <r>     5.1397     9.9926    58.3194 </r>
       <r>     5.2050    10.1131    58.9804 </r>
       <r>     5.2704    10.2444    59.6500 </r>
       <r>     5.3357    10.5289    60.3382 </r>
       <r>     5.4011    10.9735    61.0555 </r>
       <r>     5.4665    11.3699    61.7986 </r>
       <r>     5.5318    11.3590    62.5411 </r>
       <r>     5.5972    10.6736    63.2387 </r>
       <r>     5.6626     9.4440    63.8560 </r>
       <r>     5.7279     8.2483    64.3951 </r>
       <r>     5.7933     7.7531    64.9019 </r>
       <r>     5.8586     8.2228    65.4393 </r>
       <r>     5.9240     9.3570    66.0509 </r>
       <r>     5.9894    10.5936    66.7433 </r>
       <r>     6.0547    11.5380    67.4975 </r>
       <r>     6.1201    12.1094    68.2890 </r>
       <r>     6.1854    12.3812    69.0982 </r>
       <r>     6.2508    12.4011    69.9088 </r>
       <r>     6.3162    12.1852    70.7052 </r>
       <r>     6.3815    11.8094    71.4771 </r>
       <r>     6.4469    11.4109    72.2229 </r>
       <r>     6.5123    11.0740    72.9467 </r>
       <r>     6.5776    10.7771    73.6511 </r>
       <r>     6.6430    10.4687    74.3354 </r>
       <r>     6.7083    10.1138    74.9965 </r>
       <r>     6.7737     9.6681    75.6284 </r>
       <r>     6.8391     9.1667    76.2275 </r>
       <r>     6.9044     8.8861    76.8083 </r>
       <r>     6.9698     9.2284    77.4115 </r>
       <r>     7.0351    10.2945    78.0844 </r>
       <r>     7.1005    11.6627    78.8467 </r>
       <r>     7.1659    12.7049    79.6771 </r>
       <r>     7.2312    13.0854    80.5324 </r>
       <r>     7.2966    12.9311    81.3776 </r>
       <r>     7.3620    12.6077    82.2016 </r>
       <r>     7.4273    12.3753    83.0105 </r>
       <r>     7.4927    12.2212    83.8093 </r>
       <r>     7.5580    12.0007    84.5937 </r>
       <r>     7.6234    11.7080    85.3589 </r>
       <r>     7.6888    11.5422    86.1133 </r>
       <r>     7.7541    11.6665    86.8759 </r>
       <r>     7.8195    11.9512    87.6570 </r>
       <r>     7.8848    12.0675    88.4458 </r>
       <r>     7.9502    11.8726    89.2218 </r>
       <r>     8.0156    11.5830    89.9789 </r>
       <r>     8.0809    11.4869    90.7297 </r>
       <r>     8.1463    11.5957    91.4876 </r>
       <r>     8.2117    11.6952    92.2520 </r>
       <r>     8.2770    11.6716    93.0149 </r>
       <r>     8.3424    11.6673    93.7775 </r>
       <r>     8.4077    11.9191    94.5565 </r>
       <r>     8.4731    12.4876    95.3727 </r>
       <r>     8.5385    13.1354    96.2313 </r>
       <r>     8.6038    13.4677    97.1116 </r>
       <r>     8.6692    13.2343    97.9766 </r>
       <r>     8.7345    12.5017    98.7937 </r>
       <r>     8.7999    11.5611    99.5494 </r>
       <r>     8.8653    10.7585   100.2525 </r>
       <r>     8.9306    10.4000   100.9323 </r>
       <r>     8.9960    10.6584   101.6290 </r>
       <r>     9.0614    11.4576   102.3778 </r>
       <r>     9.1267    12.4970   103.1947 </r>
       <r>     9.1921    13.4585   104.0743 </r>
       <r>     9.2574    14.1736   105.0007 </r>
       <r>     9.3228    14.5921   105.9545 </r>
       <r>     9.3882    14.6969   106.9151 </r>
       <r>     9.4535    14.5088   107.8634 </r>
       <r>     9.5189    14.0962   108.7848 </r>
       <r>     9.5842    13.5465   109.6702 </r>
       <r>     9.6496    12.9855   110.5189 </r>
       <r>     9.7150    12.5796   111.3412 </r>
       <r>     9.7803    12.4144   112.1526 </r>
       <r>     9.8457    12.4144   112.9640 </r>
       <r>     9.9111    12.4687   113.7790 </r>
       <r>     9.9764    12.5605   114.6000 </r>
       <r>    10.0418    12.7026   115.4302 </r>
       <r>    10.1071    12.8392   116.2694 </r>
       <r>    10.1725    12.8885   117.1118 </r>
       <r>    10.2379    12.8084   117.9490 </r>
       <r>    10.3032    12.6036   118.7728 </r>
       <r>    10.3686    12.3627   119.5808 </r>
       <r>    10.4339    12.2834   120.3837 </r>
       <r>    10.4993    12.5464   121.2038 </r>
       <r>    10.5647    13.1372   122.0624 </r>
       <r>    10.6300    13.8143   122.9653 </r>
       <r>    10.6954    14.2202   123.8948 </r>
       <r>    10.7608    14.0307   124.8119 </r>
       <r>    10.8261    13.0870   125.6673 </r>
       <r>    10.8915    11.4374   126.4148 </r>
       <r>    10.9568     9.2522   127.0196 </r>
       <r>    11.0222     6.7490   127.4607 </r>
       <r>    11.0876     4.2298   127.7371 </r>
       <r>    11.1529     2.0890   127.8737 </r>
       <r>    11.2183     0.6438   127.9158 </r>
       <r>    11.2836    -0.0617   127.9117 </r>
       <r>    11.3490    -0.2452   127.8957 </r>
       <r>    11.4144    -0.1921   127.8832 </r>
       <r>    11.4797    -0.0877   127.8774 </r>
       <r>    11.5451     0.0075   127.8779 </r>
       <r>    11.6105     0.0933   127.8840 </r>
       <r>    11.6758     0.1688   127.8950 </r>
       <r>    11.7412     0.2193   127.9094 </r>
       <r>    11.8065     0.2387   127.9250 </r>
       <r>    11.8719     0.2449   127.9410 </r>
       <r>    11.9373     0.2550   127.9577 </r>
       <r>    12.0026     0.2557   127.9744 </r>
       <r>    12.0680     0.2175   127.9886 </r>
       <r>    12.1333     0.1400   127.9977 </r>
       <r>    12.1987     0.0582   128.0015 </r>
       <r>    12.2641     0.0061   128.0019 </r>
       <r>    12.3294    -0.0116   128.0012 </r>
       <r>    12.3948    -0.0104   128.0005 </r>
       <r>    12.4602    -0.0052   128.0002 </r>
       <r>    12.5255    -0.0018   128.0000 </r>
       <r>    12.5909    -0.0005   128.0000 </r>
       <r>    12.6562    -0.0001   128.0000 </r>
       <r>    12.7216    -0.0000   128.0000 </r>
       <r>    12.7870    -0.0000   128.0000 </r>
       <r>    12.8523    -0.0000   128.0000 </r>
       <r>    12.9177    -0.0000   128.0000 </r>
       <r>    12.9830    -0.0000   128.0000 </r>
       <r>    13.0484    -0.0000   128.0000 </r>
       <r>    13.1138    -0.0000   128.0000 </r>
       <r>    13.1791    -0.0000   128.0000 </r>
       <r>    13.2445    -0.0000   128.0000 </r>
       <r>    13.3099    -0.0000   128.0000 </r>
       <r>    13.3752     0.0000   128.0000 </r>
       <r>    13.4406     0.0000   128.0000 </r>
       <r>    13.5059     0.0000   128.0000 </r>
       <r>    13.5713     0.0000   128.0000 </r>
       <r>    13.6367     0.0000   128.0000 </r>
       <r>    13.7020     0.0000   128.0000 </r>
       <r>    13.7674     0.0000   128.0000 </r>
       <r>    13.8327     0.0000   128.0000 </r>
       <r>    13.8981     0.0000   128.0000 </r>
       <r>    13.9635     0.0000   128.0000 </r>
       <r>    14.0288     0.0000   128.0000 </r>
      </set>
     </set>
    </array>
   </total>
  </dos>
 </calculation>
 <structure name="finalpos" >
  <crystal>
   <varray name="basis" >
    <v>       0.00000000       6.19650000       6.19650000 </v>
    <v>       6.19650000       0.00000000       6.19650000 </v>
    <v>       6.19650000       6.19650000       0.00000000 </v>
   </varray>
   <i name="volume">    475.84921561 </i>
   <varray name="rec_basis" >
    <v>      -0.08069071       0.08069071       0.08069071 </v>
    <v>       0.08069071      -0.08069071       0.08069071 </v>
    <v>       0.08069071       0.08069071      -0.08069071 </v>
   </varray>
  </crystal>
  <varray name="positions" >
   <v>       0.02181100       0.00919521       0.95897247 </v>
   <v>       0.01352279       0.03165782       0.30242949 </v>
   <v>       0.98986914       0.04140728       0.64668956 </v>
   <v>       0.95916336       0.34393411       0.00780887 </v>
   <v>       0.97611942       0.36185777       0.30922553 </v>
   <v>       0.00088144       0.35763005       0.68087198 </v>
   <v>       0.02066256       0.62541196       0.01153034 </v>
   <v>       0.99626492       0.68894079       0.35289107 </v>
   <v>       0.97514728       0.70132606       0.67720580 </v>
   <v>       0.36804001       0.00637234       0.96816771 </v>
   <v>       0.30631611       0.03902844       0.32427219 </v>
   <v>       0.29955488       0.03020491       0.65653179 </v>
   <v>       0.36468914       0.34368257       0.96529093 </v>
   <v>       0.36315256       0.29599779       0.33305537 </v>
   <v>       0.29803795       0.35628354       0.68857582 </v>
   <v>       0.34035900       0.63048528       0.03131817 </v>
   <v>       0.35935659       0.62721693       0.34323480 </v>
   <v>       0.33577273       0.63566903       0.70296131 </v>
   <v>       0.65355388       0.03917013       0.99918239 </v>
   <v>       0.70368707       0.00572030       0.30826562 </v>
   <v>       0.66315761       0.96777256       0.66644504 </v>
   <v>       0.66703725       0.29502664       0.02782362 </v>
   <v>       0.69689911       0.32001482       0.30132289 </v>
   <v>       0.65556450       0.32278807       0.64687020 </v>
   <v>       0.67133394       0.62608808       0.01403512 </v>
   <v>       0.68730939       0.65960525       0.29674549 </v>
   <v>       0.65820048       0.63142122       0.68241161 </v>
  </varray>
 </structure>
</modeling>
