<?xml version="1.0" encoding="ISO-8859-1"?>
<modeling>
 <generator>
  <i name="program" type="string">vasp </i>
  <i name="version" type="string">5.3.5  </i>
  <i name="subversion" type="string">31Mar14 (build Jun 17 2014 14:04:22) complex                          parallel </i>
  <i name="platform" type="string">LinuxIfort </i>
  <i name="date" type="string">2025 12 23 </i>
  <i name="time" type="string">01:16:00 </i>
 </generator>
 <incar>
  <i type="string" name="SYSTEM"> Al Random Displacement</i>
  <i type="string" name="PREC">normal</i>
  <i type="string" name="ALGO"> Fast</i>
  <i type="int" name="IBRION">    -1</i>
  <i type="int" name="NSW">     0</i>
  <i name="ENCUT">    300.00000000</i>
  <i type="string" name="LREAL"> Auto</i>
  <i type="int" name="ISMEAR">     1</i>
  <i name="SIGMA">      0.20000000</i>
  <i type="logical" name="LWAVE"> F  </i>
  <i type="logical" name="LCHARG"> F  </i>
 </incar>
 <kpoints>
  <generation param="Monkhorst-Pack">
   <v type="int" name="divisions">       4        4        4 </v>
   <v name="usershift">      0.00000000       0.00000000       0.00000000 </v>
   <v name="genvec1">      0.25000000       0.00000000       0.00000000 </v>
   <v name="genvec2">      0.00000000       0.25000000       0.00000000 </v>
   <v name="genvec3">      0.00000000       0.00000000       0.25000000 </v>
   <v name="shift">      0.50000000       0.50000000       0.50000000 </v>
  </generation>
  <varray name="kpointlist" >
   <v>       0.12500000       0.12500000       0.12500000 </v>
   <v>       0.12500000       0.00000000       0.00000000 </v>
   <v>       0.00000000       0.00000000      -0.12500000 </v>
   <v>       0.00000000       0.12500000       0.00000000 </v>
   <v>       0.37500000       0.12500000       0.12500000 </v>
   <v>       0.12500000       0.37500000       0.12500000 </v>
   <v>       0.12500000       0.12500000       0.37500000 </v>
   <v>       0.12500000       0.00000000      -0.25000000 </v>
   <v>       0.37500000       0.25000000       0.25000000 </v>
   <v>       0.12500000      -0.25000000       0.00000000 </v>
   <v>       0.00000000       0.25000000      -0.12500000 </v>
   <v>       0.25000000       0.00000000      -0.12500000 </v>
   <v>      -0.25000000      -0.25000000      -0.37500000 </v>
   <v>       0.25000000       0.37500000       0.25000000 </v>
   <v>       0.00000000       0.12500000      -0.25000000 </v>
   <v>      -0.25000000       0.12500000       0.00000000 </v>
   <v>      -0.37500000       0.12500000       0.12500000 </v>
   <v>       0.12500000      -0.37500000       0.12500000 </v>
   <v>       0.12500000       0.12500000      -0.37500000 </v>
   <v>       0.12500000       0.00000000       0.50000000 </v>
   <v>      -0.37500000       0.50000000       0.50000000 </v>
   <v>       0.12500000       0.50000000       0.00000000 </v>
   <v>       0.00000000       0.50000000      -0.12500000 </v>
   <v>       0.50000000       0.00000000      -0.12500000 </v>
   <v>       0.50000000       0.50000000       0.37500000 </v>
   <v>       0.50000000      -0.37500000       0.50000000 </v>
   <v>       0.00000000       0.12500000       0.50000000 </v>
   <v>       0.50000000       0.12500000       0.00000000 </v>
   <v>      -0.12500000       0.12500000       0.12500000 </v>
   <v>       0.12500000      -0.12500000       0.12500000 </v>
   <v>       0.12500000       0.12500000      -0.12500000 </v>
   <v>       0.12500000       0.00000000       0.25000000 </v>
   <v>      -0.12500000      -0.25000000      -0.25000000 </v>
   <v>       0.12500000       0.25000000       0.00000000 </v>
   <v>       0.00000000      -0.25000000      -0.12500000 </v>
   <v>      -0.25000000       0.00000000      -0.12500000 </v>
   <v>       0.25000000       0.25000000       0.12500000 </v>
   <v>      -0.25000000      -0.12500000      -0.25000000 </v>
   <v>       0.00000000       0.12500000       0.25000000 </v>
   <v>       0.25000000       0.12500000       0.00000000 </v>
   <v>       0.37500000       0.37500000       0.12500000 </v>
   <v>       0.12500000       0.37500000       0.37500000 </v>
   <v>       0.37500000       0.12500000       0.37500000 </v>
   <v>       0.37500000       0.25000000       0.00000000 </v>
   <v>       0.37500000       0.00000000       0.25000000 </v>
   <v>       0.12500000      -0.25000000      -0.25000000 </v>
   <v>       0.25000000       0.25000000      -0.12500000 </v>
   <v>       0.00000000      -0.25000000      -0.37500000 </v>
   <v>      -0.25000000       0.00000000      -0.37500000 </v>
   <v>       0.25000000       0.37500000       0.00000000 </v>
   <v>      -0.25000000       0.12500000      -0.25000000 </v>
   <v>       0.00000000       0.37500000       0.25000000 </v>
   <v>      -0.37500000       0.37500000       0.12500000 </v>
   <v>       0.12500000      -0.37500000       0.37500000 </v>
   <v>       0.37500000       0.12500000      -0.37500000 </v>
   <v>       0.37500000       0.25000000      -0.25000000 </v>
   <v>      -0.37500000       0.25000000       0.50000000 </v>
   <v>       0.12500000       0.50000000      -0.25000000 </v>
   <v>       0.25000000       0.50000000      -0.12500000 </v>
   <v>       0.25000000      -0.25000000      -0.37500000 </v>
   <v>       0.50000000      -0.25000000       0.37500000 </v>
   <v>       0.50000000      -0.37500000       0.25000000 </v>
   <v>      -0.25000000       0.12500000       0.50000000 </v>
   <v>      -0.25000000       0.37500000       0.25000000 </v>
   <v>      -0.12500000       0.25000000       0.50000000 </v>
   <v>      -0.37500000       0.25000000      -0.25000000 </v>
   <v>       0.37500000       0.50000000      -0.25000000 </v>
   <v>       0.25000000       0.50000000      -0.37500000 </v>
   <v>       0.50000000      -0.25000000       0.12500000 </v>
   <v>       0.25000000      -0.25000000       0.37500000 </v>
   <v>       0.50000000      -0.12500000       0.25000000 </v>
   <v>      -0.25000000      -0.37500000       0.25000000 </v>
   <v>      -0.25000000       0.37500000       0.50000000 </v>
   <v>       0.37500000      -0.12500000      -0.37500000 </v>
   <v>      -0.37500000       0.37500000      -0.12500000 </v>
   <v>      -0.12500000      -0.37500000       0.37500000 </v>
   <v>      -0.12500000       0.37500000       0.12500000 </v>
   <v>       0.12500000      -0.12500000       0.37500000 </v>
   <v>       0.37500000       0.12500000      -0.12500000 </v>
   <v>       0.37500000       0.25000000       0.50000000 </v>
   <v>      -0.12500000       0.50000000      -0.25000000 </v>
   <v>       0.12500000       0.25000000      -0.25000000 </v>
   <v>       0.25000000      -0.25000000      -0.12500000 </v>
   <v>       0.50000000      -0.25000000      -0.37500000 </v>
   <v>       0.25000000       0.50000000       0.12500000 </v>
   <v>      -0.25000000      -0.12500000       0.50000000 </v>
   <v>      -0.25000000       0.12500000       0.25000000 </v>
   <v>       0.50000000       0.37500000       0.25000000 </v>
   <v>      -0.12500000       0.25000000      -0.25000000 </v>
   <v>      -0.37500000       0.50000000      -0.25000000 </v>
   <v>       0.12500000       0.25000000       0.50000000 </v>
   <v>       0.50000000      -0.25000000      -0.12500000 </v>
   <v>       0.25000000      -0.25000000       0.12500000 </v>
   <v>       0.25000000       0.50000000       0.37500000 </v>
   <v>      -0.25000000      -0.12500000       0.25000000 </v>
   <v>      -0.25000000      -0.37500000       0.50000000 </v>
   <v>       0.50000000       0.12500000       0.25000000 </v>
   <v>       0.12500000      -0.12500000      -0.37500000 </v>
   <v>      -0.37500000       0.12500000      -0.12500000 </v>
   <v>      -0.12500000      -0.37500000       0.12500000 </v>
   <v>      -0.37500000      -0.37500000       0.12500000 </v>
   <v>       0.12500000      -0.37500000      -0.37500000 </v>
   <v>      -0.37500000       0.12500000      -0.37500000 </v>
   <v>      -0.37500000       0.50000000       0.00000000 </v>
   <v>      -0.37500000       0.00000000       0.50000000 </v>
   <v>       0.12500000       0.50000000       0.50000000 </v>
   <v>       0.50000000       0.50000000      -0.12500000 </v>
   <v>       0.00000000       0.50000000       0.37500000 </v>
   <v>       0.50000000       0.00000000       0.37500000 </v>
   <v>       0.50000000      -0.37500000       0.00000000 </v>
   <v>       0.50000000       0.12500000       0.50000000 </v>
   <v>       0.00000000      -0.37500000       0.50000000 </v>
   <v>       0.37500000       0.37500000       0.37500000 </v>
   <v>       0.37500000       0.00000000       0.00000000 </v>
   <v>       0.00000000       0.00000000      -0.37500000 </v>
   <v>       0.00000000       0.37500000       0.00000000 </v>
   <v>      -0.37500000       0.37500000       0.37500000 </v>
   <v>       0.37500000      -0.37500000       0.37500000 </v>
   <v>       0.37500000       0.37500000      -0.37500000 </v>
   <v>       0.37500000       0.00000000      -0.25000000 </v>
   <v>      -0.37500000       0.25000000       0.25000000 </v>
   <v>       0.37500000      -0.25000000       0.00000000 </v>
   <v>       0.00000000       0.25000000      -0.37500000 </v>
   <v>       0.25000000       0.00000000      -0.37500000 </v>
   <v>      -0.25000000      -0.25000000       0.37500000 </v>
   <v>       0.25000000      -0.37500000       0.25000000 </v>
   <v>       0.00000000       0.37500000      -0.25000000 </v>
   <v>      -0.25000000       0.37500000       0.00000000 </v>
  </varray>
  <varray name="weights" >
   <v>       0.00781250 </v>
   <v>       0.00781250 </v>
   <v>       0.00781250 </v>
   <v>       0.00781250 </v>
   <v>       0.00781250 </v>
   <v>       0.00781250 </v>
   <v>       0.00781250 </v>
   <v>       0.00781250 </v>
   <v>       0.00781250 </v>
   <v>       0.00781250 </v>
   <v>       0.00781250 </v>
   <v>       0.00781250 </v>
   <v>       0.00781250 </v>
   <v>       0.00781250 </v>
   <v>       0.00781250 </v>
   <v>       0.00781250 </v>
   <v>       0.00781250 </v>
   <v>       0.00781250 </v>
   <v>       0.00781250 </v>
   <v>       0.00781250 </v>
   <v>       0.00781250 </v>
   <v>       0.00781250 </v>
   <v>       0.00781250 </v>
   <v>       0.00781250 </v>
   <v>       0.00781250 </v>
   <v>       0.00781250 </v>
   <v>       0.00781250 </v>
   <v>       0.00781250 </v>
   <v>       0.00781250 </v>
   <v>       0.00781250 </v>
   <v>       0.00781250 </v>
   <v>       0.00781250 </v>
   <v>       0.00781250 </v>
   <v>       0.00781250 </v>
   <v>       0.00781250 </v>
   <v>       0.00781250 </v>
   <v>       0.00781250 </v>
   <v>       0.00781250 </v>
   <v>       0.00781250 </v>
   <v>       0.00781250 </v>
   <v>       0.00781250 </v>
   <v>       0.00781250 </v>
   <v>       0.00781250 </v>
   <v>       0.00781250 </v>
   <v>       0.00781250 </v>
   <v>       0.00781250 </v>
   <v>       0.00781250 </v>
   <v>       0.00781250 </v>
   <v>       0.00781250 </v>
   <v>       0.00781250 </v>
   <v>       0.00781250 </v>
   <v>       0.00781250 </v>
   <v>       0.00781250 </v>
   <v>       0.00781250 </v>
   <v>       0.00781250 </v>
   <v>       0.00781250 </v>
   <v>       0.00781250 </v>
   <v>       0.00781250 </v>
   <v>       0.00781250 </v>
   <v>       0.00781250 </v>
   <v>       0.00781250 </v>
   <v>       0.00781250 </v>
   <v>       0.00781250 </v>
   <v>       0.00781250 </v>
   <v>       0.00781250 </v>
   <v>       0.00781250 </v>
   <v>       0.00781250 </v>
   <v>       0.00781250 </v>
   <v>       0.00781250 </v>
   <v>       0.00781250 </v>
   <v>       0.00781250 </v>
   <v>       0.00781250 </v>
   <v>       0.00781250 </v>
   <v>       0.00781250 </v>
   <v>       0.00781250 </v>
   <v>       0.00781250 </v>
   <v>       0.00781250 </v>
   <v>       0.00781250 </v>
   <v>       0.00781250 </v>
   <v>       0.00781250 </v>
   <v>       0.00781250 </v>
   <v>       0.00781250 </v>
   <v>       0.00781250 </v>
   <v>       0.00781250 </v>
   <v>       0.00781250 </v>
   <v>       0.00781250 </v>
   <v>       0.00781250 </v>
   <v>       0.00781250 </v>
   <v>       0.00781250 </v>
   <v>       0.00781250 </v>
   <v>       0.00781250 </v>
   <v>       0.00781250 </v>
   <v>       0.00781250 </v>
   <v>       0.00781250 </v>
   <v>       0.00781250 </v>
   <v>       0.00781250 </v>
   <v>       0.00781250 </v>
   <v>       0.00781250 </v>
   <v>       0.00781250 </v>
   <v>       0.00781250 </v>
   <v>       0.00781250 </v>
   <v>       0.00781250 </v>
   <v>       0.00781250 </v>
   <v>       0.00781250 </v>
   <v>       0.00781250 </v>
   <v>       0.00781250 </v>
   <v>       0.00781250 </v>
   <v>       0.00781250 </v>
   <v>       0.00781250 </v>
   <v>       0.00781250 </v>
   <v>       0.00781250 </v>
   <v>       0.00781250 </v>
   <v>       0.00781250 </v>
   <v>       0.00781250 </v>
   <v>       0.00781250 </v>
   <v>       0.00781250 </v>
   <v>       0.00781250 </v>
   <v>       0.00781250 </v>
   <v>       0.00781250 </v>
   <v>       0.00781250 </v>
   <v>       0.00781250 </v>
   <v>       0.00781250 </v>
   <v>       0.00781250 </v>
   <v>       0.00781250 </v>
   <v>       0.00781250 </v>
   <v>       0.00781250 </v>
   <v>       0.00781250 </v>
   <v>       0.00781250 </v>
  </varray>
 </kpoints>
 <parameters>
  <separator name="general" >
   <i type="string" name="SYSTEM">Al Random Displacement</i>
   <i type="logical" name="LCOMPAT"> F  </i>
  </separator>
  <separator name="electronic" >
   <i type="string" name="PREC">normal</i>
   <i name="ENMAX">    300.00000000</i>
   <i name="ENAUG">    291.05200000</i>
   <i name="EDIFF">      0.00010000</i>
   <i type="int" name="IALGO">    68</i>
   <i type="int" name="IWAVPR">    10</i>
   <i type="int" name="NBANDS">    64</i>
   <i name="NELECT">     81.00000000</i>
   <i type="int" name="TURBO">     0</i>
   <i type="int" name="IRESTART">     0</i>
   <i type="int" name="NREBOOT">     0</i>
   <i type="int" name="NMIN">     0</i>
   <i name="EREF">      0.00000000</i>
   <separator name="electronic smearing" >
    <i type="int" name="ISMEAR">     1</i>
    <i name="SIGMA">      0.20000000</i>
    <i name="KSPACING">      0.50000000</i>
    <i type="logical" name="KGAMMA"> T  </i>
   </separator>
   <separator name="electronic projectors" >
    <i type="logical" name="LREAL"> T  </i>
    <v name="ROPT">     -0.00050000</v>
    <i type="int" name="LMAXPAW">  -100</i>
    <i type="int" name="LMAXMIX">     2</i>
    <i type="logical" name="NLSPLINE"> F  </i>
   </separator>
   <separator name="electronic startup" >
    <i type="int" name="ISTART">     0</i>
    <i type="int" name="ICHARG">     2</i>
    <i type="int" name="INIWAV">     1</i>
   </separator>
   <separator name="electronic spin" >
    <i type="int" name="ISPIN">     1</i>
    <i type="logical" name="LNONCOLLINEAR"> F  </i>
    <v name="MAGMOM">      1.00000000      1.00000000      1.00000000      1.00000000      1.00000000      1.00000000      1.00000000      1.00000000      1.00000000      1.00000000      1.00000000      1.00000000      1.00000000      1.00000000      1.00000000      1.00000000      1.00000000      1.00000000      1.00000000      1.00000000
      1.00000000      1.00000000      1.00000000      1.00000000      1.00000000      1.00000000      1.00000000</v>
    <i name="NUPDOWN">     -1.00000000</i>
    <i type="logical" name="LSORBIT"> F  </i>
    <v name="SAXIS">      0.00000000      0.00000000      1.00000000</v>
    <i type="logical" name="LSPIRAL"> F  </i>
    <v name="QSPIRAL">      0.00000000      0.00000000      0.00000000</v>
    <i type="logical" name="LZEROZ"> F  </i>
   </separator>
   <separator name="electronic exchange-correlation" >
    <i type="logical" name="LASPH"> F  </i>
    <i type="logical" name="LMETAGGA"> F  </i>
   </separator>
   <separator name="electronic convergence" >
    <i type="int" name="NELM">    60</i>
    <i type="int" name="NELMDL">    -5</i>
    <i type="int" name="NELMIN">     2</i>
    <i name="ENINI">    300.00000000</i>
    <separator name="electronic convergence detail" >
     <i type="logical" name="LDIAG"> T  </i>
     <i type="logical" name="LSUBROT"> F  </i>
     <i name="WEIMIN">      0.00000000</i>
     <i name="EBREAK">      0.00000039</i>
     <i name="DEPER">      0.30000000</i>
     <i type="int" name="NRMM">     4</i>
     <i name="TIME">      0.40000000</i>
    </separator>
   </separator>
   <separator name="electronic mixer" >
    <i name="AMIX">      0.40000000</i>
    <i name="BMIX">      1.00000000</i>
    <i name="AMIN">      0.10000000</i>
    <i name="AMIX_MAG">      1.60000000</i>
    <i name="BMIX_MAG">      1.00000000</i>
    <separator name="electronic mixer details" >
     <i type="int" name="IMIX">     4</i>
     <i type="int" name="MAXMIX">   -45</i>
     <i name="WC">    100.00000000</i>
     <i type="int" name="INIMIX">     1</i>
     <i type="int" name="MIXPRE">     1</i>
     <i type="int" name="MREMOVE">     5</i>
    </separator>
   </separator>
   <separator name="electronic dipolcorrection" >
    <i type="logical" name="LDIPOL"> F  </i>
    <i type="logical" name="LMONO"> F  </i>
    <i type="int" name="IDIPOL">     0</i>
    <i name="EPSILON">      1.00000000</i>
    <v name="DIPOL">   -100.00000000   -100.00000000   -100.00000000</v>
    <i name="EFIELD">      0.00000000</i>
   </separator>
  </separator>
  <separator name="grids" >
   <i type="int" name="NGX">    36</i>
   <i type="int" name="NGY">    36</i>
   <i type="int" name="NGZ">    36</i>
   <i type="int" name="NGXF">    72</i>
   <i type="int" name="NGYF">    72</i>
   <i type="int" name="NGZF">    72</i>
   <i type="logical" name="ADDGRID"> F  </i>
  </separator>
  <separator name="ionic" >
   <i type="int" name="NSW">     0</i>
   <i type="int" name="IBRION">    -1</i>
   <i type="int" name="ISIF">     2</i>
   <i name="PSTRESS">      0.00000000</i>
   <i name="EDIFFG">      0.00100000</i>
   <i type="int" name="NFREE">     0</i>
   <i name="POTIM">      0.50000000</i>
   <i name="SMASS">     -3.00000000</i>
   <i name="SCALEE">      1.00000000</i>
  </separator>
  <separator name="ionic md" >
   <i name="TEBEG">      0.00010000</i>
   <i name="TEEND">      0.00010000</i>
   <i type="int" name="NBLOCK">     1</i>
   <i type="int" name="KBLOCK">     1</i>
   <i type="int" name="NPACO">   256</i>
   <i name="APACO">     16.00000000</i>
  </separator>
  <separator name="symmetry" >
   <i type="int" name="ISYM">     2</i>
   <i name="SYMPREC">      0.00001000</i>
  </separator>
  <separator name="dos" >
   <i type="logical" name="LORBIT"> F  </i>
   <v name="RWIGS">     -1.00000000</v>
   <i type="int" name="NEDOS">   301</i>
   <i name="EMIN">     10.00000000</i>
   <i name="EMAX">    -10.00000000</i>
   <i name="EFERMI">      0.00000000</i>
  </separator>
  <separator name="writing" >
   <i type="int" name="NWRITE">     2</i>
   <i type="logical" name="LWAVE"> F  </i>
   <i type="logical" name="LCHARG"> F  </i>
   <i type="logical" name="LPARD"> F  </i>
   <i type="logical" name="LVTOT"> F  </i>
   <i type="logical" name="LVHAR"> F  </i>
   <i type="logical" name="LELF"> F  </i>
   <i type="logical" name="LOPTICS"> F  </i>
   <v name="STM">      0.00000000      0.00000000      0.00000000      0.00000000      0.00000000      0.00000000      0.00000000</v>
  </separator>
  <separator name="performance" >
   <i type="int" name="NPAR">    16</i>
   <i type="int" name="NSIM">     4</i>
   <i type="int" name="NBLK">    -1</i>
   <i type="logical" name="LPLANE"> T  </i>
   <i type="logical" name="LSCALAPACK"> F  </i>
   <i type="logical" name="LSCAAWARE"> F  </i>
   <i type="logical" name="LSCALU"> F  </i>
   <i type="logical" name="LASYNC"> F  </i>
   <i type="logical" name="LORBITALREAL"> F  </i>
  </separator>
  <separator name="miscellaneous" >
   <i type="int" name="IDIOT">     3</i>
   <i type="logical" name="LMUSIC"> F  </i>
   <v name="POMASS">     26.98100000</v>
   <v name="DARWINR">      0.00000000</v>
   <v name="DARWINV">      1.00000000</v>
   <i type="logical" name="LCORR"> T  </i>
  </separator>
  <i type="logical" name="GGA_COMPAT"> T  </i>
  <i type="logical" name="LBERRY"> F  </i>
  <i type="int" name="ICORELEVEL">     0</i>
  <i type="logical" name="LDAU"> F  </i>
  <i type="int" name="I_CONSTRAINED_M">     0</i>
  <separator name="electronic exchange-correlation" >
   <i type="string" name="GGA">--</i>
   <i type="int" name="VOSKOWN">     0</i>
   <i type="logical" name="LHFCALC"> F  </i>
   <i type="string" name="PRECFOCK"></i>
   <i type="logical" name="LSYMGRAD"> F  </i>
   <i type="logical" name="LHFONE"> F  </i>
   <i type="logical" name="LRHFCALC"> F  </i>
   <i type="logical" name="LTHOMAS"> F  </i>
   <i type="logical" name="LMODELHF"> F  </i>
   <i name="ENCUT4O">     -1.00000000</i>
   <i type="int" name="EXXOEP">     0</i>
   <i type="int" name="FOURORBIT">     0</i>
   <i name="AEXX">      0.00000000</i>
   <i name="HFALPHA">      0.00000000</i>
   <i name="MCALPHA">      0.00000000</i>
   <i name="ALDAX">      1.00000000</i>
   <i name="AGGAX">      1.00000000</i>
   <i name="ALDAC">      1.00000000</i>
   <i name="AGGAC">      1.00000000</i>
   <i type="int" name="NKREDX">     1</i>
   <i type="int" name="NKREDY">     1</i>
   <i type="int" name="NKREDZ">     1</i>
   <i type="logical" name="SHIFTRED"> F  </i>
   <i type="logical" name="ODDONLY"> F  </i>
   <i type="logical" name="EVENONLY"> F  </i>
   <i type="int" name="LMAXFOCK">     0</i>
   <i type="int" name="NMAXFOCKAE">     0</i>
   <i type="logical" name="LFOCKAEDFT"> F  </i>
   <i name="HFSCREEN">      0.00000000</i>
   <i name="HFSCREENC">      0.00000000</i>
   <i type="int" name="NBANDSGWLOW">     0</i>
  </separator>
  <separator name="vdW DFT" >
   <i type="logical" name="LUSE_VDW"> F  </i>
   <i name="Zab_VDW">     -0.84910000</i>
   <i name="PARAM1">      0.12340000</i>
   <i name="PARAM2">      1.00000000</i>
   <i name="PARAM3">      0.00000000</i>
  </separator>
  <separator name="model GW" >
   <i type="int" name="MODEL_GW">     0</i>
   <i name="MODEL_EPS0">      8.54332926</i>
   <i name="MODEL_ALPHA">      1.00000000</i>
  </separator>
  <separator name="linear response parameters" >
   <i type="logical" name="LEPSILON"> F  </i>
   <i type="logical" name="LRPA"> F  </i>
   <i type="logical" name="LNABLA"> F  </i>
   <i type="logical" name="LVEL"> F  </i>
   <i type="int" name="KINTER">     0</i>
   <i name="CSHIFT">      0.10000000</i>
   <i name="OMEGAMAX">     -1.00000000</i>
   <i name="DEG_THRESHOLD">      0.00200000</i>
  </separator>
  <separator name="orbital magnetization" >
   <i type="logical" name="NUCIND"> F  </i>
   <v name="MAGPOS">      0.00000000      0.00000000      0.00000000</v>
   <i type="logical" name="LNICSALL"> T  </i>
   <i type="logical" name="ORBITALMAG"> F  </i>
   <i type="logical" name="LMAGBLOCH"> F  </i>
   <i type="logical" name="LCHIMAG"> F  </i>
   <i type="logical" name="LGAUGE"> T  </i>
   <i type="int" name="MAGATOM">     0</i>
   <v name="MAGDIPOL">      0.00000000      0.00000000      0.00000000</v>
   <v name="AVECCONST">      0.00000000      0.00000000      0.00000000</v>
  </separator>
  <separator name="response functions" >
   <i type="logical" name="LADDER"> F  </i>
   <i type="logical" name="LFXC"> F  </i>
   <i type="logical" name="LHARTREE"> T  </i>
   <i type="int" name="IBSE">     0</i>
   <i type="logical" name="LTCTE"> F  </i>
   <i type="logical" name="LTETE"> F  </i>
   <i type="logical" name="LTRIPLET"> F  </i>
   <i type="logical" name="LFXCEPS"> F  </i>
   <i type="logical" name="LFXHEG"> F  </i>
   <i type="logical" name="L2ORDER"> F  </i>
   <i type="logical" name="LUSEW"> F  </i>
   <i name="ENCUTGW">     -2.00000000</i>
   <i name="ENCUTGWSOFT">     -2.00000000</i>
   <i name="ENCUTLF">     -1.00000000</i>
   <i type="int" name="LMAXMP2">    -1</i>
   <i name="SCISSOR">      0.00000000</i>
   <i type="int" name="NOMEGA">     0</i>
   <i type="int" name="NOMEGAR">     0</i>
   <i type="int" name="NBANDSGW">    -1</i>
   <i type="int" name="NBANDSO">    -1</i>
   <i type="int" name="NBANDSV">    -1</i>
   <i type="int" name="NELM">     1</i>
   <i type="int" name="DIM">     3</i>
   <i type="int" name="ANTIRES">     0</i>
   <i name="OMEGAMAX">    -30.00000000</i>
   <i name="OMEGAMIN">    -30.00000000</i>
   <i name="OMEGATL">   -200.00000000</i>
   <i type="int" name="OMEGAGRID">     0</i>
   <i name="CSHIFT">     -0.10000000</i>
   <i type="logical" name="SELFENERGY"> F  </i>
   <i type="logical" name="LSPECTRAL"> F  </i>
   <i type="logical" name="ODDONLYGW"> F  </i>
   <i type="logical" name="EVENONLYGW"> F  </i>
   <i type="int" name="NKREDLFX">     1</i>
   <i type="int" name="NKREDLFY">     1</i>
   <i type="int" name="NKREDLFZ">     1</i>
   <i type="int" name="MAXMEM">  1800</i>
   <i type="int" name="TELESCOPE">     0</i>
   <i type="int" name="TAUPAR">     1</i>
  </separator>
  <separator name="External order field" >
   <i name="OFIELD_KAPPA">      0.00000000</i>
   <v name="OFIELD_K">      0.00000000      0.00000000      0.00000000</v>
   <i name="OFIELD_Q6_NEAR">      0.00000000</i>
   <i name="OFIELD_Q6_FAR">      0.00000000</i>
   <i name="OFIELD_A">      0.00000000</i>
  </separator>
 </parameters>
 <atominfo>
  <atoms>      27 </atoms>
  <types>       1 </types>
  <array name="atoms" >
   <dimension dim="1">ion</dimension>
   <field type="string">element</field>
   <field type="int">atomtype</field>
   <set>
    <rc><c>Al</c><c>   1</c></rc>
    <rc><c>Al</c><c>   1</c></rc>
    <rc><c>Al</c><c>   1</c></rc>
    <rc><c>Al</c><c>   1</c></rc>
    <rc><c>Al</c><c>   1</c></rc>
    <rc><c>Al</c><c>   1</c></rc>
    <rc><c>Al</c><c>   1</c></rc>
    <rc><c>Al</c><c>   1</c></rc>
    <rc><c>Al</c><c>   1</c></rc>
    <rc><c>Al</c><c>   1</c></rc>
    <rc><c>Al</c><c>   1</c></rc>
    <rc><c>Al</c><c>   1</c></rc>
    <rc><c>Al</c><c>   1</c></rc>
    <rc><c>Al</c><c>   1</c></rc>
    <rc><c>Al</c><c>   1</c></rc>
    <rc><c>Al</c><c>   1</c></rc>
    <rc><c>Al</c><c>   1</c></rc>
    <rc><c>Al</c><c>   1</c></rc>
    <rc><c>Al</c><c>   1</c></rc>
    <rc><c>Al</c><c>   1</c></rc>
    <rc><c>Al</c><c>   1</c></rc>
    <rc><c>Al</c><c>   1</c></rc>
    <rc><c>Al</c><c>   1</c></rc>
    <rc><c>Al</c><c>   1</c></rc>
    <rc><c>Al</c><c>   1</c></rc>
    <rc><c>Al</c><c>   1</c></rc>
    <rc><c>Al</c><c>   1</c></rc>
   </set>
  </array>
  <array name="atomtypes" >
   <dimension dim="1">type</dimension>
   <field type="int">atomspertype</field>
   <field type="string">element</field>
   <field>mass</field>
   <field>valence</field>
   <field type="string">pseudopotential</field>
   <set>
    <rc><c>  27</c><c>Al</c><c>     26.98100000</c><c>      3.00000000</c><c>  PAW_PBE Al 04Jan2001                  </c></rc>
   </set>
  </array>
 </atominfo>
 <structure name="initialpos" >
  <crystal>
   <varray name="basis" >
    <v>       0.00000000       5.77125000       5.77125000 </v>
    <v>       5.77125000       0.00000000       5.77125000 </v>
    <v>       5.77125000       5.77125000       0.00000000 </v>
   </varray>
   <i name="volume">    384.44981685 </i>
   <varray name="rec_basis" >
    <v>      -0.08663634       0.08663634       0.08663634 </v>
    <v>       0.08663634      -0.08663634       0.08663634 </v>
    <v>       0.08663634       0.08663634      -0.08663634 </v>
   </varray>
  </crystal>
  <varray name="positions" >
   <v>       0.00295478       0.98662491       0.01061011 </v>
   <v>       0.01472285       0.99586383       0.32576786 </v>
   <v>       0.99183540       0.99333907       0.66778231 </v>
   <v>       0.00023333       0.34702246       0.99022184 </v>
   <v>       0.00276798       0.32827286       0.34597602 </v>
   <v>       0.99562347       0.34493603       0.65529636 </v>
   <v>       0.01122320       0.66279566       0.98819181 </v>
   <v>       0.00309904       0.65419034       0.34476752 </v>
   <v>       0.98531156       0.67415572       0.66915223 </v>
   <v>       0.32462080       0.00254146       0.01305614 </v>
   <v>       0.34149982       0.00843898       0.32153378 </v>
   <v>       0.33867025       0.99048844       0.65946507 </v>
   <v>       0.33059539       0.32127270       0.01174555 </v>
   <v>       0.33372049       0.31907839       0.34086864 </v>
   <v>       0.32265425       0.33845475       0.67794605 </v>
   <v>       0.34779917       0.66341094       0.99143346 </v>
   <v>       0.33019647       0.66460301       0.32425856 </v>
   <v>       0.32693070       0.67865077       0.67094860 </v>
   <v>       0.67521957       0.98777945       0.99587503 </v>
   <v>       0.66108197       0.98882512       0.34034825 </v>
   <v>       0.66924235       0.00037965       0.67721166 </v>
   <v>       0.65651339       0.34116624       0.99300240 </v>
   <v>       0.66926255       0.32358260       0.32761499 </v>
   <v>       0.67342703       0.31860148       0.66895948 </v>
   <v>       0.65899594       0.67147533       0.01177935 </v>
   <v>       0.65298962       0.66600024       0.33828460 </v>
   <v>       0.65766974       0.67658787       0.65844463 </v>
  </varray>
 </structure>
 <calculation>
  <scstep>
   <time name="dav">    7.24    7.25</time>
   <time name="total">    7.26    7.28</time>
   <energy>
    <i name="alphaZ">     -6.36903000 </i>
    <i name="ewald">  -2079.05701140 </i>
    <i name="hartreedc">     -4.00458262 </i>
    <i name="XCdc">   -701.06399649 </i>
    <i name="pawpsdc">   1787.40424240 </i>
    <i name="pawaedc">   -924.63176043 </i>
    <i name="eentropy">      0.00051318 </i>
    <i name="bandstr">    539.92213667 </i>
    <i name="atom">   1445.51584806 </i>
    <i name="e_fr_energy">     57.71635937 </i>
    <i name="e_wo_entrp">     57.71584619 </i>
    <i name="e_0_energy">     57.71618831 </i>
   </energy>
  </scstep>
  <scstep>
   <time name="dav">    8.77    8.77</time>
   <time name="total">    8.77    8.79</time>
   <energy>
    <i name="e_fr_energy">    -92.41609623 </i>
    <i name="e_wo_entrp">    -92.41196347 </i>
    <i name="e_0_energy">    -92.41471865 </i>
   </energy>
  </scstep>
  <scstep>
   <time name="dav">    8.95    8.95</time>
   <time name="total">    8.95    8.97</time>
   <energy>
    <i name="e_fr_energy">    -98.06510249 </i>
    <i name="e_wo_entrp">    -98.06099403 </i>
    <i name="e_0_energy">    -98.06373301 </i>
   </energy>
  </scstep>
  <scstep>
   <time name="dav">    8.30    8.31</time>
   <time name="total">    8.31    8.32</time>
   <energy>
    <i name="e_fr_energy">    -98.11096060 </i>
    <i name="e_wo_entrp">    -98.10683171 </i>
    <i name="e_0_energy">    -98.10958430 </i>
   </energy>
  </scstep>
  <scstep>
   <time name="dav">    8.90    8.91</time>
   <time name="total">    9.22    9.25</time>
   <energy>
    <i name="e_fr_energy">    -98.11140987 </i>
    <i name="e_wo_entrp">    -98.10728036 </i>
    <i name="e_0_energy">    -98.11003337 </i>
   </energy>
  </scstep>
  <scstep>
   <time name="diag">    1.13    1.13</time>
   <time name="diis">    3.57    3.58</time>
   <time name="orth">    0.18    0.18</time>
   <time name="total">    5.22    5.24</time>
   <energy>
    <i name="e_fr_energy">    -97.42877326 </i>
    <i name="e_wo_entrp">    -97.42610317 </i>
    <i name="e_0_energy">    -97.42788323 </i>
   </energy>
  </scstep>
  <scstep>
   <time name="diag">    1.13    1.13</time>
   <time name="diis">    4.00    4.01</time>
   <time name="orth">    0.18    0.18</time>
   <time name="total">    5.65    5.67</time>
   <energy>
    <i name="e_fr_energy">    -97.13986905 </i>
    <i name="e_wo_entrp">    -97.13842037 </i>
    <i name="e_0_energy">    -97.13938616 </i>
   </energy>
  </scstep>
  <scstep>
   <time name="diag">    1.13    1.13</time>
   <time name="diis">    4.40    4.41</time>
   <time name="orth">    0.18    0.18</time>
   <time name="total">    6.05    6.07</time>
   <energy>
    <i name="e_fr_energy">    -97.10814558 </i>
    <i name="e_wo_entrp">    -97.10642178 </i>
    <i name="e_0_energy">    -97.10757098 </i>
   </energy>
  </scstep>
  <scstep>
   <time name="diag">    1.13    1.13</time>
   <time name="diis">    4.24    4.24</time>
   <time name="orth">    0.18    0.18</time>
   <time name="total">    5.89    5.90</time>
   <energy>
    <i name="e_fr_energy">    -97.10578093 </i>
    <i name="e_wo_entrp">    -97.10380407 </i>
    <i name="e_0_energy">    -97.10512198 </i>
   </energy>
  </scstep>
  <scstep>
   <time name="diag">    1.13    1.13</time>
   <time name="diis">    3.75    3.75</time>
   <time name="orth">    0.18    0.18</time>
   <time name="total">    5.40    5.42</time>
   <energy>
    <i name="e_fr_energy">    -97.10542937 </i>
    <i name="e_wo_entrp">    -97.10341489 </i>
    <i name="e_0_energy">    -97.10475788 </i>
   </energy>
  </scstep>
  <scstep>
   <time name="diag">    1.13    1.13</time>
   <time name="diis">    3.05    3.05</time>
   <time name="orth">    0.18    0.18</time>
   <time name="total">    4.38    4.40</time>
   <energy>
    <i name="alphaZ">     -6.36903000 </i>
    <i name="ewald">  -2079.05701140 </i>
    <i name="hartreedc">     -7.13338671 </i>
    <i name="XCdc">   -697.15604584 </i>
    <i name="pawpsdc">   5521.95450784 </i>
    <i name="pawaedc">  -4660.45350430 </i>
    <i name="eentropy">     -0.00198419 </i>
    <i name="bandstr">    385.59520565 </i>
    <i name="atom">   1445.51584806 </i>
    <i name="e_fr_energy">    -97.10540089 </i>
    <i name="e_wo_entrp">    -97.10341670 </i>
    <i name="e_0_energy">    -97.10473950 </i>
   </energy>
  </scstep>
  <structure>
   <crystal>
    <varray name="basis" >
     <v>       0.00000000       5.77125000       5.77125000 </v>
     <v>       5.77125000       0.00000000       5.77125000 </v>
     <v>       5.77125000       5.77125000       0.00000000 </v>
    </varray>
    <i name="volume">    384.44981685 </i>
    <varray name="rec_basis" >
     <v>      -0.08663634       0.08663634       0.08663634 </v>
     <v>       0.08663634      -0.08663634       0.08663634 </v>
     <v>       0.08663634       0.08663634      -0.08663634 </v>
    </varray>
   </crystal>
   <varray name="positions" >
    <v>       0.00295478       0.98662491       0.01061011 </v>
    <v>       0.01472285       0.99586383       0.32576786 </v>
    <v>       0.99183540       0.99333907       0.66778231 </v>
    <v>       0.00023333       0.34702246       0.99022184 </v>
    <v>       0.00276798       0.32827286       0.34597602 </v>
    <v>       0.99562347       0.34493603       0.65529636 </v>
    <v>       0.01122320       0.66279566       0.98819181 </v>
    <v>       0.00309904       0.65419034       0.34476752 </v>
    <v>       0.98531156       0.67415572       0.66915223 </v>
    <v>       0.32462080       0.00254146       0.01305614 </v>
    <v>       0.34149982       0.00843898       0.32153378 </v>
    <v>       0.33867025       0.99048844       0.65946507 </v>
    <v>       0.33059539       0.32127270       0.01174555 </v>
    <v>       0.33372049       0.31907839       0.34086864 </v>
    <v>       0.32265425       0.33845475       0.67794605 </v>
    <v>       0.34779917       0.66341094       0.99143346 </v>
    <v>       0.33019647       0.66460301       0.32425856 </v>
    <v>       0.32693070       0.67865077       0.67094860 </v>
    <v>       0.67521957       0.98777945       0.99587503 </v>
    <v>       0.66108197       0.98882512       0.34034825 </v>
    <v>       0.66924235       0.00037965       0.67721166 </v>
    <v>       0.65651339       0.34116624       0.99300240 </v>
    <v>       0.66926255       0.32358260       0.32761499 </v>
    <v>       0.67342703       0.31860148       0.66895948 </v>
    <v>       0.65899594       0.67147533       0.01177935 </v>
    <v>       0.65298962       0.66600024       0.33828460 </v>
    <v>       0.65766974       0.67658787       0.65844463 </v>
   </varray>
  </structure>
  <varray name="forces" >
   <v>       0.03127328      -0.60890857       0.34296795 </v>
   <v>       0.73580204      -0.40688989      -0.59467563 </v>
   <v>       0.05411699       0.56817091       1.02557612 </v>
   <v>      -0.00300755       0.09055780      -1.02199376 </v>
   <v>      -0.46413746      -1.04367701      -0.13037088 </v>
   <v>       0.27931242       1.19541925      -0.87598363 </v>
   <v>       0.80122809       0.55977831      -0.47016920 </v>
   <v>      -0.21196598      -1.00044664       0.48351670 </v>
   <v>      -0.44047962       0.18768178       0.20308643 </v>
   <v>      -1.01314954      -0.54492276       0.39636524 </v>
   <v>      -0.06890865       0.30770243      -1.13343117 </v>
   <v>       1.50656721      -0.05742446       0.16309227 </v>
   <v>       0.06530461      -0.47264828       0.87528830 </v>
   <v>       0.38731898      -0.00269203       0.76861275 </v>
   <v>      -0.70186996      -0.07121824       0.38522028 </v>
   <v>       0.56661404      -0.25803291      -0.62775006 </v>
   <v>       0.43333438       0.80623784      -0.28432245 </v>
   <v>      -1.22199882      -0.23167792      -0.52823576 </v>
   <v>       0.89545518       0.37978029       0.21585503 </v>
   <v>      -0.20730507       0.11846549       1.12516522 </v>
   <v>      -0.50457105      -1.18059466      -0.66027126 </v>
   <v>      -0.46368864       0.81090125       0.11736202 </v>
   <v>       0.28323207       0.27883160       0.05277728 </v>
   <v>       0.73028264      -0.71659973       0.21628524 </v>
   <v>      -0.81919720      -0.14149557      -0.03410688 </v>
   <v>      -0.42998393       0.53257334       0.08307721 </v>
   <v>      -0.21957846       0.90112836      -0.09293737 </v>
  </varray>
  <varray name="stress" >
   <v>     171.66352884       0.57451327       0.14605177 </v>
   <v>       0.57451371     169.44465686      -2.25177022 </v>
   <v>       0.14605209      -2.25177009     172.80624299 </v>
  </varray>
  <energy>
   <i name="e_fr_energy">    -97.10540089 </i>
   <i name="e_wo_entrp">    -97.10473950 </i>
   <i name="e_0_energy">     -0.00198419 </i>
  </energy>
  <time name="totalsc">   83.57   83.83</time>
  <eigenvalues>
   <array>
    <dimension dim="1">band</dimension>
    <dimension dim="2">kpoint</dimension>
    <dimension dim="3">spin</dimension>
    <field>eigene</field>
    <field>occ</field>
    <set>
     <set comment="spin 1">
      <set comment="kpoint 1">
       <r>   -2.5441    1.0000 </r>
       <r>   -0.1246    1.0000 </r>
       <r>    0.3592    1.0000 </r>
       <r>    0.4284    1.0000 </r>
       <r>    0.5336    1.0000 </r>
       <r>    0.9215    1.0000 </r>
       <r>    0.9781    1.0000 </r>
       <r>    1.1138    1.0000 </r>
       <r>    1.2398    1.0000 </r>
       <r>    1.3168    1.0000 </r>
       <r>    1.3915    1.0000 </r>
       <r>    1.6441    1.0000 </r>
       <r>    2.3019    1.0000 </r>
       <r>    2.3840    1.0000 </r>
       <r>    2.4781    1.0000 </r>
       <r>    4.8655    1.0000 </r>
       <r>    4.9635    1.0000 </r>
       <r>    5.0589    1.0000 </r>
       <r>    5.8780    1.0000 </r>
       <r>    5.9083    1.0000 </r>
       <r>    5.9762    1.0000 </r>
       <r>    6.0231    1.0000 </r>
       <r>    6.0788    1.0000 </r>
       <r>    6.1212    1.0000 </r>
       <r>    6.8756    1.0000 </r>
       <r>    6.9713    1.0000 </r>
       <r>    7.0732    1.0000 </r>
       <r>    7.5352    1.0000 </r>
       <r>    7.6038    1.0000 </r>
       <r>    7.6787    1.0000 </r>
       <r>    8.0147    1.0000 </r>
       <r>    8.0433    1.0000 </r>
       <r>    8.0655    1.0000 </r>
       <r>    8.0938    1.0000 </r>
       <r>    8.1944    1.0000 </r>
       <r>    8.2670    1.0000 </r>
       <r>    8.6041    1.0000 </r>
       <r>    8.6684    1.0000 </r>
       <r>    8.7147    1.0000 </r>
       <r>    8.7577    1.0000 </r>
       <r>    9.6579    0.6942 </r>
       <r>    9.6966    0.5364 </r>
       <r>    9.7488    0.3205 </r>
       <r>    9.9997   -0.0289 </r>
       <r>   10.0453   -0.0185 </r>
       <r>   10.0838   -0.0111 </r>
       <r>   10.4318   -0.0000 </r>
       <r>   10.4984   -0.0000 </r>
       <r>   10.5570   -0.0000 </r>
       <r>   10.5980   -0.0000 </r>
       <r>   10.6114   -0.0000 </r>
       <r>   10.6286   -0.0000 </r>
       <r>   10.7214   -0.0000 </r>
       <r>   10.7695   -0.0000 </r>
       <r>   10.8170   -0.0000 </r>
       <r>   11.0533   -0.0000 </r>
       <r>   11.1543   -0.0000 </r>
       <r>   11.2169   -0.0000 </r>
       <r>   11.7714   -0.0000 </r>
       <r>   13.3364   -0.0000 </r>
       <r>   13.3682   -0.0000 </r>
       <r>   13.4286   -0.0000 </r>
       <r>   14.8782   -0.0000 </r>
       <r>   14.9640   -0.0000 </r>
      </set>
      <set comment="kpoint 2">
       <r>   -2.5439    1.0000 </r>
       <r>   -0.1173    1.0000 </r>
       <r>    0.3037    1.0000 </r>
       <r>    0.4325    1.0000 </r>
       <r>    0.5986    1.0000 </r>
       <r>    0.8786    1.0000 </r>
       <r>    0.9759    1.0000 </r>
       <r>    1.1669    1.0000 </r>
       <r>    1.1912    1.0000 </r>
       <r>    1.2916    1.0000 </r>
       <r>    1.4709    1.0000 </r>
       <r>    1.6354    1.0000 </r>
       <r>    2.2465    1.0000 </r>
       <r>    2.3521    1.0000 </r>
       <r>    2.5401    1.0000 </r>
       <r>    4.8265    1.0000 </r>
       <r>    4.9414    1.0000 </r>
       <r>    5.1536    1.0000 </r>
       <r>    5.8014    1.0000 </r>
       <r>    5.8580    1.0000 </r>
       <r>    5.9250    1.0000 </r>
       <r>    6.0763    1.0000 </r>
       <r>    6.1394    1.0000 </r>
       <r>    6.1946    1.0000 </r>
       <r>    6.8017    1.0000 </r>
       <r>    6.9355    1.0000 </r>
       <r>    7.1468    1.0000 </r>
       <r>    7.4913    1.0000 </r>
       <r>    7.5877    1.0000 </r>
       <r>    7.7397    1.0000 </r>
       <r>    7.9316    1.0000 </r>
       <r>    7.9955    1.0000 </r>
       <r>    8.0585    1.0000 </r>
       <r>    8.1703    1.0000 </r>
       <r>    8.2534    1.0000 </r>
       <r>    8.3058    1.0000 </r>
       <r>    8.5929    1.0000 </r>
       <r>    8.6401    1.0000 </r>
       <r>    8.7157    1.0000 </r>
       <r>    8.7672    1.0000 </r>
       <r>    9.6545    0.7073 </r>
       <r>    9.6835    0.5912 </r>
       <r>    9.7627    0.2678 </r>
       <r>    9.9952   -0.0298 </r>
       <r>   10.0479   -0.0180 </r>
       <r>   10.1147   -0.0068 </r>
       <r>   10.4155   -0.0000 </r>
       <r>   10.4416   -0.0000 </r>
       <r>   10.4888   -0.0000 </r>
       <r>   10.5999   -0.0000 </r>
       <r>   10.6488   -0.0000 </r>
       <r>   10.6885   -0.0000 </r>
       <r>   10.7384   -0.0000 </r>
       <r>   10.7663   -0.0000 </r>
       <r>   10.8116   -0.0000 </r>
       <r>   11.0372   -0.0000 </r>
       <r>   11.1014   -0.0000 </r>
       <r>   11.2800   -0.0000 </r>
       <r>   11.7698   -0.0000 </r>
       <r>   13.3105   -0.0000 </r>
       <r>   13.3675   -0.0000 </r>
       <r>   13.4586   -0.0000 </r>
       <r>   14.8197   -0.0000 </r>
       <r>   14.9482   -0.0000 </r>
      </set>
      <set comment="kpoint 3">
       <r>   -2.5439    1.0000 </r>
       <r>   -0.1269    1.0000 </r>
       <r>    0.3365    1.0000 </r>
       <r>    0.4597    1.0000 </r>
       <r>    0.5307    1.0000 </r>
       <r>    0.8816    1.0000 </r>
       <r>    1.0255    1.0000 </r>
       <r>    1.1292    1.0000 </r>
       <r>    1.2382    1.0000 </r>
       <r>    1.3096    1.0000 </r>
       <r>    1.3706    1.0000 </r>
       <r>    1.6474    1.0000 </r>
       <r>    2.2854    1.0000 </r>
       <r>    2.4042    1.0000 </r>
       <r>    2.4748    1.0000 </r>
       <r>    4.8428    1.0000 </r>
       <r>    4.9898    1.0000 </r>
       <r>    5.0607    1.0000 </r>
       <r>    5.8522    1.0000 </r>
       <r>    5.9268    1.0000 </r>
       <r>    5.9902    1.0000 </r>
       <r>    6.0006    1.0000 </r>
       <r>    6.0829    1.0000 </r>
       <r>    6.1291    1.0000 </r>
       <r>    6.8463    1.0000 </r>
       <r>    6.9966    1.0000 </r>
       <r>    7.0718    1.0000 </r>
       <r>    7.5202    1.0000 </r>
       <r>    7.6077    1.0000 </r>
       <r>    7.6793    1.0000 </r>
       <r>    7.9713    1.0000 </r>
       <r>    8.0457    1.0000 </r>
       <r>    8.0902    1.0000 </r>
       <r>    8.1266    1.0000 </r>
       <r>    8.1855    1.0000 </r>
       <r>    8.2758    1.0000 </r>
       <r>    8.5982    1.0000 </r>
       <r>    8.6504    1.0000 </r>
       <r>    8.7440    1.0000 </r>
       <r>    8.7715    1.0000 </r>
       <r>    9.6673    0.6574 </r>
       <r>    9.7015    0.5158 </r>
       <r>    9.7363    0.3704 </r>
       <r>    9.9866   -0.0315 </r>
       <r>   10.0516   -0.0172 </r>
       <r>   10.0885   -0.0104 </r>
       <r>   10.4389   -0.0000 </r>
       <r>   10.4853   -0.0000 </r>
       <r>   10.5088   -0.0000 </r>
       <r>   10.5640   -0.0000 </r>
       <r>   10.6055   -0.0000 </r>
       <r>   10.6778   -0.0000 </r>
       <r>   10.7281   -0.0000 </r>
       <r>   10.7752   -0.0000 </r>
       <r>   10.8060   -0.0000 </r>
       <r>   11.0659   -0.0000 </r>
       <r>   11.1533   -0.0000 </r>
       <r>   11.2212   -0.0000 </r>
       <r>   11.7763   -0.0000 </r>
       <r>   13.3185   -0.0000 </r>
       <r>   13.3882   -0.0000 </r>
       <r>   13.4288   -0.0000 </r>
       <r>   14.8594   -0.0000 </r>
       <r>   15.0086   -0.0000 </r>
      </set>
      <set comment="kpoint 4">
       <r>   -2.5440    1.0000 </r>
       <r>   -0.1095    1.0000 </r>
       <r>    0.2853    1.0000 </r>
       <r>    0.4411    1.0000 </r>
       <r>    0.6079    1.0000 </r>
       <r>    0.8487    1.0000 </r>
       <r>    0.9834    1.0000 </r>
       <r>    1.1546    1.0000 </r>
       <r>    1.2064    1.0000 </r>
       <r>    1.3095    1.0000 </r>
       <r>    1.4640    1.0000 </r>
       <r>    1.6484    1.0000 </r>
       <r>    2.2092    1.0000 </r>
       <r>    2.3806    1.0000 </r>
       <r>    2.5367    1.0000 </r>
       <r>    4.8070    1.0000 </r>
       <r>    4.9734    1.0000 </r>
       <r>    5.1520    1.0000 </r>
       <r>    5.7704    1.0000 </r>
       <r>    5.8498    1.0000 </r>
       <r>    5.9831    1.0000 </r>
       <r>    6.0285    1.0000 </r>
       <r>    6.1521    1.0000 </r>
       <r>    6.2021    1.0000 </r>
       <r>    6.7780    1.0000 </r>
       <r>    6.9620    1.0000 </r>
       <r>    7.1362    1.0000 </r>
       <r>    7.4662    1.0000 </r>
       <r>    7.6036    1.0000 </r>
       <r>    7.7617    1.0000 </r>
       <r>    7.9452    1.0000 </r>
       <r>    7.9769    1.0000 </r>
       <r>    8.0816    1.0000 </r>
       <r>    8.1286    1.0000 </r>
       <r>    8.2231    1.0000 </r>
       <r>    8.3620    1.0000 </r>
       <r>    8.5709    1.0000 </r>
       <r>    8.6601    1.0000 </r>
       <r>    8.7082    1.0000 </r>
       <r>    8.7823    1.0000 </r>
       <r>    9.6272    0.8040 </r>
       <r>    9.7013    0.5167 </r>
       <r>    9.7626    0.2681 </r>
       <r>    9.9969   -0.0295 </r>
       <r>   10.0484   -0.0179 </r>
       <r>   10.1165   -0.0066 </r>
       <r>   10.3623   -0.0000 </r>
       <r>   10.4654   -0.0000 </r>
       <r>   10.5483   -0.0000 </r>
       <r>   10.5745   -0.0000 </r>
       <r>   10.6346   -0.0000 </r>
       <r>   10.6876   -0.0000 </r>
       <r>   10.7191   -0.0000 </r>
       <r>   10.7756   -0.0000 </r>
       <r>   10.8019   -0.0000 </r>
       <r>   11.0287   -0.0000 </r>
       <r>   11.1368   -0.0000 </r>
       <r>   11.2700   -0.0000 </r>
       <r>   11.7724   -0.0000 </r>
       <r>   13.2942   -0.0000 </r>
       <r>   13.3764   -0.0000 </r>
       <r>   13.4660   -0.0000 </r>
       <r>   14.8198   -0.0000 </r>
       <r>   14.9564   -0.0000 </r>
      </set>
      <set comment="kpoint 5">
       <r>   -2.2697    1.0000 </r>
       <r>   -0.9050    1.0000 </r>
       <r>   -0.3668    1.0000 </r>
       <r>    0.3960    1.0000 </r>
       <r>    0.4854    1.0000 </r>
       <r>    0.7269    1.0000 </r>
       <r>    0.8144    1.0000 </r>
       <r>    1.2439    1.0000 </r>
       <r>    1.3282    1.0000 </r>
       <r>    1.5865    1.0000 </r>
       <r>    2.3678    1.0000 </r>
       <r>    2.6154    1.0000 </r>
       <r>    2.9228    1.0000 </r>
       <r>    3.1485    1.0000 </r>
       <r>    3.6325    1.0000 </r>
       <r>    3.7449    1.0000 </r>
       <r>    4.1583    1.0000 </r>
       <r>    4.2723    1.0000 </r>
       <r>    5.1522    1.0000 </r>
       <r>    5.2647    1.0000 </r>
       <r>    5.8996    1.0000 </r>
       <r>    5.9748    1.0000 </r>
       <r>    6.2154    1.0000 </r>
       <r>    6.2832    1.0000 </r>
       <r>    6.3828    1.0000 </r>
       <r>    6.4851    1.0000 </r>
       <r>    6.7879    1.0000 </r>
       <r>    6.9073    1.0000 </r>
       <r>    7.3518    1.0000 </r>
       <r>    7.4646    1.0000 </r>
       <r>    7.5841    1.0000 </r>
       <r>    7.6470    1.0000 </r>
       <r>    7.8842    1.0000 </r>
       <r>    8.0829    1.0000 </r>
       <r>    8.1339    1.0000 </r>
       <r>    8.2662    1.0000 </r>
       <r>    8.3504    1.0000 </r>
       <r>    8.3937    1.0000 </r>
       <r>    8.4700    1.0000 </r>
       <r>    8.7872    1.0000 </r>
       <r>    9.7754    0.2225 </r>
       <r>    9.8755   -0.0020 </r>
       <r>    9.9632   -0.0349 </r>
       <r>   10.0188   -0.0246 </r>
       <r>   10.6806   -0.0000 </r>
       <r>   10.7720   -0.0000 </r>
       <r>   10.9052   -0.0000 </r>
       <r>   10.9579   -0.0000 </r>
       <r>   11.0883   -0.0000 </r>
       <r>   11.1410   -0.0000 </r>
       <r>   11.5218   -0.0000 </r>
       <r>   11.5622   -0.0000 </r>
       <r>   11.6068   -0.0000 </r>
       <r>   11.6473   -0.0000 </r>
       <r>   12.3530   -0.0000 </r>
       <r>   12.4684   -0.0000 </r>
       <r>   12.5283   -0.0000 </r>
       <r>   12.6472   -0.0000 </r>
       <r>   12.9515   -0.0000 </r>
       <r>   13.0713   -0.0000 </r>
       <r>   13.0893   -0.0000 </r>
       <r>   13.2059   -0.0000 </r>
       <r>   13.3591   -0.0000 </r>
       <r>   13.4711   -0.0000 </r>
      </set>
      <set comment="kpoint 6">
       <r>   -2.2697    1.0000 </r>
       <r>   -0.9116    1.0000 </r>
       <r>   -0.3398    1.0000 </r>
       <r>    0.3498    1.0000 </r>
       <r>    0.5146    1.0000 </r>
       <r>    0.6986    1.0000 </r>
       <r>    0.8035    1.0000 </r>
       <r>    1.2385    1.0000 </r>
       <r>    1.3765    1.0000 </r>
       <r>    1.5952    1.0000 </r>
       <r>    2.3575    1.0000 </r>
       <r>    2.6087    1.0000 </r>
       <r>    2.9334    1.0000 </r>
       <r>    3.1469    1.0000 </r>
       <r>    3.6150    1.0000 </r>
       <r>    3.7487    1.0000 </r>
       <r>    4.1418    1.0000 </r>
       <r>    4.3008    1.0000 </r>
       <r>    5.1391    1.0000 </r>
       <r>    5.2943    1.0000 </r>
       <r>    5.8537    1.0000 </r>
       <r>    5.9823    1.0000 </r>
       <r>    6.1923    1.0000 </r>
       <r>    6.2515    1.0000 </r>
       <r>    6.3987    1.0000 </r>
       <r>    6.5298    1.0000 </r>
       <r>    6.7984    1.0000 </r>
       <r>    6.9125    1.0000 </r>
       <r>    7.3431    1.0000 </r>
       <r>    7.4659    1.0000 </r>
       <r>    7.5793    1.0000 </r>
       <r>    7.6115    1.0000 </r>
       <r>    7.8996    1.0000 </r>
       <r>    8.0900    1.0000 </r>
       <r>    8.1605    1.0000 </r>
       <r>    8.2209    1.0000 </r>
       <r>    8.3589    1.0000 </r>
       <r>    8.4280    1.0000 </r>
       <r>    8.4928    1.0000 </r>
       <r>    8.7994    1.0000 </r>
       <r>    9.7716    0.2356 </r>
       <r>    9.8521    0.0287 </r>
       <r>    9.9499   -0.0355 </r>
       <r>   10.0250   -0.0231 </r>
       <r>   10.6787   -0.0000 </r>
       <r>   10.7925   -0.0000 </r>
       <r>   10.9170   -0.0000 </r>
       <r>   10.9745   -0.0000 </r>
       <r>   11.0463   -0.0000 </r>
       <r>   11.0908   -0.0000 </r>
       <r>   11.5149   -0.0000 </r>
       <r>   11.5711   -0.0000 </r>
       <r>   11.6181   -0.0000 </r>
       <r>   11.6859   -0.0000 </r>
       <r>   12.3215   -0.0000 </r>
       <r>   12.4332   -0.0000 </r>
       <r>   12.5310   -0.0000 </r>
       <r>   12.6329   -0.0000 </r>
       <r>   12.9500   -0.0000 </r>
       <r>   13.0367   -0.0000 </r>
       <r>   13.1515   -0.0000 </r>
       <r>   13.2347   -0.0000 </r>
       <r>   13.3289   -0.0000 </r>
       <r>   13.5252   -0.0000 </r>
      </set>
      <set comment="kpoint 7">
       <r>   -2.2694    1.0000 </r>
       <r>   -0.9133    1.0000 </r>
       <r>   -0.3522    1.0000 </r>
       <r>    0.4118    1.0000 </r>
       <r>    0.4877    1.0000 </r>
       <r>    0.7235    1.0000 </r>
       <r>    0.7779    1.0000 </r>
       <r>    1.2636    1.0000 </r>
       <r>    1.3162    1.0000 </r>
       <r>    1.5848    1.0000 </r>
       <r>    2.3687    1.0000 </r>
       <r>    2.6223    1.0000 </r>
       <r>    2.9254    1.0000 </r>
       <r>    3.1569    1.0000 </r>
       <r>    3.6752    1.0000 </r>
       <r>    3.7044    1.0000 </r>
       <r>    4.1806    1.0000 </r>
       <r>    4.2272    1.0000 </r>
       <r>    5.1879    1.0000 </r>
       <r>    5.2404    1.0000 </r>
       <r>    5.9035    1.0000 </r>
       <r>    5.9780    1.0000 </r>
       <r>    6.2237    1.0000 </r>
       <r>    6.2535    1.0000 </r>
       <r>    6.4095    1.0000 </r>
       <r>    6.4639    1.0000 </r>
       <r>    6.7801    1.0000 </r>
       <r>    6.9200    1.0000 </r>
       <r>    7.3903    1.0000 </r>
       <r>    7.4202    1.0000 </r>
       <r>    7.5957    1.0000 </r>
       <r>    7.6206    1.0000 </r>
       <r>    7.9105    1.0000 </r>
       <r>    8.1065    1.0000 </r>
       <r>    8.1260    1.0000 </r>
       <r>    8.2803    1.0000 </r>
       <r>    8.3607    1.0000 </r>
       <r>    8.4000    1.0000 </r>
       <r>    8.4353    1.0000 </r>
       <r>    8.7717    1.0000 </r>
       <r>    9.8028    0.1367 </r>
       <r>    9.8800   -0.0066 </r>
       <r>    9.9436   -0.0353 </r>
       <r>    9.9941   -0.0300 </r>
       <r>   10.7196   -0.0000 </r>
       <r>   10.7539   -0.0000 </r>
       <r>   10.8935   -0.0000 </r>
       <r>   10.9577   -0.0000 </r>
       <r>   11.0945   -0.0000 </r>
       <r>   11.1258   -0.0000 </r>
       <r>   11.5359   -0.0000 </r>
       <r>   11.5538   -0.0000 </r>
       <r>   11.6202   -0.0000 </r>
       <r>   11.6492   -0.0000 </r>
       <r>   12.3726   -0.0000 </r>
       <r>   12.4555   -0.0000 </r>
       <r>   12.5559   -0.0000 </r>
       <r>   12.6028   -0.0000 </r>
       <r>   12.9229   -0.0000 </r>
       <r>   13.0506   -0.0000 </r>
       <r>   13.1433   -0.0000 </r>
       <r>   13.1845   -0.0000 </r>
       <r>   13.3927   -0.0000 </r>
       <r>   13.4495   -0.0000 </r>
      </set>
      <set comment="kpoint 8">
       <r>   -2.2684    1.0000 </r>
       <r>   -0.9228    1.0000 </r>
       <r>   -0.3375    1.0000 </r>
       <r>    0.3997    1.0000 </r>
       <r>    0.5188    1.0000 </r>
       <r>    0.6721    1.0000 </r>
       <r>    0.7816    1.0000 </r>
       <r>    1.2276    1.0000 </r>
       <r>    1.3951    1.0000 </r>
       <r>    1.5876    1.0000 </r>
       <r>    2.3337    1.0000 </r>
       <r>    2.6356    1.0000 </r>
       <r>    2.9331    1.0000 </r>
       <r>    3.1492    1.0000 </r>
       <r>    3.6267    1.0000 </r>
       <r>    3.7460    1.0000 </r>
       <r>    4.1302    1.0000 </r>
       <r>    4.2811    1.0000 </r>
       <r>    5.1565    1.0000 </r>
       <r>    5.3109    1.0000 </r>
       <r>    5.8534    1.0000 </r>
       <r>    5.9590    1.0000 </r>
       <r>    6.2042    1.0000 </r>
       <r>    6.2722    1.0000 </r>
       <r>    6.3909    1.0000 </r>
       <r>    6.5391    1.0000 </r>
       <r>    6.7746    1.0000 </r>
       <r>    6.9025    1.0000 </r>
       <r>    7.3207    1.0000 </r>
       <r>    7.4649    1.0000 </r>
       <r>    7.5699    1.0000 </r>
       <r>    7.6339    1.0000 </r>
       <r>    7.9106    1.0000 </r>
       <r>    8.1131    1.0000 </r>
       <r>    8.1435    1.0000 </r>
       <r>    8.2594    1.0000 </r>
       <r>    8.3345    1.0000 </r>
       <r>    8.4362    1.0000 </r>
       <r>    8.4793    1.0000 </r>
       <r>    8.7858    1.0000 </r>
       <r>    9.8057    0.1286 </r>
       <r>    9.8703    0.0037 </r>
       <r>    9.9394   -0.0350 </r>
       <r>    9.9879   -0.0313 </r>
       <r>   10.6785   -0.0000 </r>
       <r>   10.7714   -0.0000 </r>
       <r>   10.9248   -0.0000 </r>
       <r>   10.9739   -0.0000 </r>
       <r>   11.0672   -0.0000 </r>
       <r>   11.1186   -0.0000 </r>
       <r>   11.5155   -0.0000 </r>
       <r>   11.5705   -0.0000 </r>
       <r>   11.6139   -0.0000 </r>
       <r>   11.6689   -0.0000 </r>
       <r>   12.3479   -0.0000 </r>
       <r>   12.4195   -0.0000 </r>
       <r>   12.5220   -0.0000 </r>
       <r>   12.6238   -0.0000 </r>
       <r>   12.9142   -0.0000 </r>
       <r>   13.0596   -0.0000 </r>
       <r>   13.1169   -0.0000 </r>
       <r>   13.2339   -0.0000 </r>
       <r>   13.3432   -0.0000 </r>
       <r>   13.5139   -0.0000 </r>
      </set>
      <set comment="kpoint 9">
       <r>   -2.2702    1.0000 </r>
       <r>   -0.9065    1.0000 </r>
       <r>   -0.3579    1.0000 </r>
       <r>    0.3961    1.0000 </r>
       <r>    0.4895    1.0000 </r>
       <r>    0.7223    1.0000 </r>
       <r>    0.7968    1.0000 </r>
       <r>    1.2454    1.0000 </r>
       <r>    1.3562    1.0000 </r>
       <r>    1.5553    1.0000 </r>
       <r>    2.3585    1.0000 </r>
       <r>    2.6426    1.0000 </r>
       <r>    2.9237    1.0000 </r>
       <r>    3.1565    1.0000 </r>
       <r>    3.6302    1.0000 </r>
       <r>    3.7362    1.0000 </r>
       <r>    4.1526    1.0000 </r>
       <r>    4.2588    1.0000 </r>
       <r>    5.1694    1.0000 </r>
       <r>    5.2781    1.0000 </r>
       <r>    5.8965    1.0000 </r>
       <r>    5.9969    1.0000 </r>
       <r>    6.2174    1.0000 </r>
       <r>    6.2663    1.0000 </r>
       <r>    6.3856    1.0000 </r>
       <r>    6.4737    1.0000 </r>
       <r>    6.7987    1.0000 </r>
       <r>    6.9071    1.0000 </r>
       <r>    7.3510    1.0000 </r>
       <r>    7.4316    1.0000 </r>
       <r>    7.5952    1.0000 </r>
       <r>    7.6211    1.0000 </r>
       <r>    7.8679    1.0000 </r>
       <r>    8.0832    1.0000 </r>
       <r>    8.1605    1.0000 </r>
       <r>    8.2621    1.0000 </r>
       <r>    8.3605    1.0000 </r>
       <r>    8.4153    1.0000 </r>
       <r>    8.4627    1.0000 </r>
       <r>    8.7786    1.0000 </r>
       <r>    9.7810    0.2035 </r>
       <r>    9.8626    0.0134 </r>
       <r>    9.9396   -0.0350 </r>
       <r>   10.0356   -0.0207 </r>
       <r>   10.6967   -0.0000 </r>
       <r>   10.7788   -0.0000 </r>
       <r>   10.8906   -0.0000 </r>
       <r>   10.9586   -0.0000 </r>
       <r>   11.1080   -0.0000 </r>
       <r>   11.1384   -0.0000 </r>
       <r>   11.5223   -0.0000 </r>
       <r>   11.5727   -0.0000 </r>
       <r>   11.5997   -0.0000 </r>
       <r>   11.6509   -0.0000 </r>
       <r>   12.3526   -0.0000 </r>
       <r>   12.4634   -0.0000 </r>
       <r>   12.5376   -0.0000 </r>
       <r>   12.6482   -0.0000 </r>
       <r>   12.9527   -0.0000 </r>
       <r>   13.0252   -0.0000 </r>
       <r>   13.0864   -0.0000 </r>
       <r>   13.2040   -0.0000 </r>
       <r>   13.3656   -0.0000 </r>
       <r>   13.4840   -0.0000 </r>
      </set>
      <set comment="kpoint 10">
       <r>   -2.2698    1.0000 </r>
       <r>   -0.9046    1.0000 </r>
       <r>   -0.3524    1.0000 </r>
       <r>    0.3268    1.0000 </r>
       <r>    0.5703    1.0000 </r>
       <r>    0.6235    1.0000 </r>
       <r>    0.8860    1.0000 </r>
       <r>    1.1758    1.0000 </r>
       <r>    1.4183    1.0000 </r>
       <r>    1.5831    1.0000 </r>
       <r>    2.3575    1.0000 </r>
       <r>    2.6319    1.0000 </r>
       <r>    2.9113    1.0000 </r>
       <r>    3.1616    1.0000 </r>
       <r>    3.5510    1.0000 </r>
       <r>    3.8098    1.0000 </r>
       <r>    4.0776    1.0000 </r>
       <r>    4.3524    1.0000 </r>
       <r>    5.0753    1.0000 </r>
       <r>    5.3640    1.0000 </r>
       <r>    5.8011    1.0000 </r>
       <r>    6.0638    1.0000 </r>
       <r>    6.1699    1.0000 </r>
       <r>    6.2646    1.0000 </r>
       <r>    6.3691    1.0000 </r>
       <r>    6.5677    1.0000 </r>
       <r>    6.7947    1.0000 </r>
       <r>    6.8930    1.0000 </r>
       <r>    7.2819    1.0000 </r>
       <r>    7.4840    1.0000 </r>
       <r>    7.6073    1.0000 </r>
       <r>    7.6606    1.0000 </r>
       <r>    7.8900    1.0000 </r>
       <r>    8.0745    1.0000 </r>
       <r>    8.1481    1.0000 </r>
       <r>    8.2045    1.0000 </r>
       <r>    8.2545    1.0000 </r>
       <r>    8.4839    1.0000 </r>
       <r>    8.5578    1.0000 </r>
       <r>    8.7782    1.0000 </r>
       <r>    9.7981    0.1502 </r>
       <r>    9.8656    0.0095 </r>
       <r>    9.9404   -0.0351 </r>
       <r>   10.0080   -0.0270 </r>
       <r>   10.6399   -0.0000 </r>
       <r>   10.8437   -0.0000 </r>
       <r>   10.8897   -0.0000 </r>
       <r>   10.9699   -0.0000 </r>
       <r>   11.0709   -0.0000 </r>
       <r>   11.1423   -0.0000 </r>
       <r>   11.4917   -0.0000 </r>
       <r>   11.5502   -0.0000 </r>
       <r>   11.5855   -0.0000 </r>
       <r>   11.7210   -0.0000 </r>
       <r>   12.3446   -0.0000 </r>
       <r>   12.4057   -0.0000 </r>
       <r>   12.5010   -0.0000 </r>
       <r>   12.7104   -0.0000 </r>
       <r>   12.9085   -0.0000 </r>
       <r>   13.0431   -0.0000 </r>
       <r>   13.0631   -0.0000 </r>
       <r>   13.2608   -0.0000 </r>
       <r>   13.3059   -0.0000 </r>
       <r>   13.5679   -0.0000 </r>
      </set>
      <set comment="kpoint 11">
       <r>   -2.2700    1.0000 </r>
       <r>   -0.9006    1.0000 </r>
       <r>   -0.3704    1.0000 </r>
       <r>    0.3694    1.0000 </r>
       <r>    0.5357    1.0000 </r>
       <r>    0.6845    1.0000 </r>
       <r>    0.8256    1.0000 </r>
       <r>    1.2213    1.0000 </r>
       <r>    1.3493    1.0000 </r>
       <r>    1.5997    1.0000 </r>
       <r>    2.3759    1.0000 </r>
       <r>    2.6153    1.0000 </r>
       <r>    2.9048    1.0000 </r>
       <r>    3.1550    1.0000 </r>
       <r>    3.6162    1.0000 </r>
       <r>    3.7580    1.0000 </r>
       <r>    4.1509    1.0000 </r>
       <r>    4.2914    1.0000 </r>
       <r>    5.1365    1.0000 </r>
       <r>    5.2914    1.0000 </r>
       <r>    5.8511    1.0000 </r>
       <r>    5.9998    1.0000 </r>
       <r>    6.1855    1.0000 </r>
       <r>    6.2590    1.0000 </r>
       <r>    6.3761    1.0000 </r>
       <r>    6.5131    1.0000 </r>
       <r>    6.8074    1.0000 </r>
       <r>    6.9135    1.0000 </r>
       <r>    7.3511    1.0000 </r>
       <r>    7.4839    1.0000 </r>
       <r>    7.5915    1.0000 </r>
       <r>    7.6384    1.0000 </r>
       <r>    7.8884    1.0000 </r>
       <r>    8.0744    1.0000 </r>
       <r>    8.1326    1.0000 </r>
       <r>    8.2613    1.0000 </r>
       <r>    8.3282    1.0000 </r>
       <r>    8.3934    1.0000 </r>
       <r>    8.4961    1.0000 </r>
       <r>    8.8116    1.0000 </r>
       <r>    9.8039    0.1335 </r>
       <r>    9.8507    0.0310 </r>
       <r>    9.9608   -0.0351 </r>
       <r>   10.0031   -0.0281 </r>
       <r>   10.6764   -0.0000 </r>
       <r>   10.7720   -0.0000 </r>
       <r>   10.9210   -0.0000 </r>
       <r>   10.9661   -0.0000 </r>
       <r>   11.0845   -0.0000 </r>
       <r>   11.1213   -0.0000 </r>
       <r>   11.5008   -0.0000 </r>
       <r>   11.5525   -0.0000 </r>
       <r>   11.5940   -0.0000 </r>
       <r>   11.6811   -0.0000 </r>
       <r>   12.3261   -0.0000 </r>
       <r>   12.4450   -0.0000 </r>
       <r>   12.5218   -0.0000 </r>
       <r>   12.6670   -0.0000 </r>
       <r>   12.9118   -0.0000 </r>
       <r>   13.0602   -0.0000 </r>
       <r>   13.1326   -0.0000 </r>
       <r>   13.2169   -0.0000 </r>
       <r>   13.3552   -0.0000 </r>
       <r>   13.5051   -0.0000 </r>
      </set>
      <set comment="kpoint 12">
       <r>   -2.2685    1.0000 </r>
       <r>   -0.9179    1.0000 </r>
       <r>   -0.3475    1.0000 </r>
       <r>    0.3984    1.0000 </r>
       <r>    0.5051    1.0000 </r>
       <r>    0.6856    1.0000 </r>
       <r>    0.7986    1.0000 </r>
       <r>    1.2237    1.0000 </r>
       <r>    1.3815    1.0000 </r>
       <r>    1.5974    1.0000 </r>
       <r>    2.3496    1.0000 </r>
       <r>    2.6247    1.0000 </r>
       <r>    2.9181    1.0000 </r>
       <r>    3.1449    1.0000 </r>
       <r>    3.6262    1.0000 </r>
       <r>    3.7498    1.0000 </r>
       <r>    4.1380    1.0000 </r>
       <r>    4.2951    1.0000 </r>
       <r>    5.1470    1.0000 </r>
       <r>    5.2977    1.0000 </r>
       <r>    5.8542    1.0000 </r>
       <r>    5.9525    1.0000 </r>
       <r>    6.1985    1.0000 </r>
       <r>    6.2574    1.0000 </r>
       <r>    6.4054    1.0000 </r>
       <r>    6.5352    1.0000 </r>
       <r>    6.8111    1.0000 </r>
       <r>    6.9004    1.0000 </r>
       <r>    7.3636    1.0000 </r>
       <r>    7.4792    1.0000 </r>
       <r>    7.5508    1.0000 </r>
       <r>    7.6154    1.0000 </r>
       <r>    7.8602    1.0000 </r>
       <r>    8.1150    1.0000 </r>
       <r>    8.1527    1.0000 </r>
       <r>    8.2550    1.0000 </r>
       <r>    8.3548    1.0000 </r>
       <r>    8.3847    1.0000 </r>
       <r>    8.5109    1.0000 </r>
       <r>    8.8109    1.0000 </r>
       <r>    9.7612    0.2731 </r>
       <r>    9.8394    0.0507 </r>
       <r>    9.9707   -0.0341 </r>
       <r>   10.0196   -0.0244 </r>
       <r>   10.6761   -0.0000 </r>
       <r>   10.7824   -0.0000 </r>
       <r>   10.9365   -0.0000 </r>
       <r>   10.9684   -0.0000 </r>
       <r>   11.0515   -0.0000 </r>
       <r>   11.1229   -0.0000 </r>
       <r>   11.5220   -0.0000 </r>
       <r>   11.5687   -0.0000 </r>
       <r>   11.6142   -0.0000 </r>
       <r>   11.6672   -0.0000 </r>
       <r>   12.3449   -0.0000 </r>
       <r>   12.4197   -0.0000 </r>
       <r>   12.5133   -0.0000 </r>
       <r>   12.6007   -0.0000 </r>
       <r>   12.9329   -0.0000 </r>
       <r>   13.0514   -0.0000 </r>
       <r>   13.1369   -0.0000 </r>
       <r>   13.2439   -0.0000 </r>
       <r>   13.3449   -0.0000 </r>
       <r>   13.5286   -0.0000 </r>
      </set>
      <set comment="kpoint 13">
       <r>   -2.2701    1.0000 </r>
       <r>   -0.9094    1.0000 </r>
       <r>   -0.3540    1.0000 </r>
       <r>    0.4154    1.0000 </r>
       <r>    0.4834    1.0000 </r>
       <r>    0.7132    1.0000 </r>
       <r>    0.7861    1.0000 </r>
       <r>    1.2692    1.0000 </r>
       <r>    1.3069    1.0000 </r>
       <r>    1.5908    1.0000 </r>
       <r>    2.3509    1.0000 </r>
       <r>    2.6464    1.0000 </r>
       <r>    2.9184    1.0000 </r>
       <r>    3.1599    1.0000 </r>
       <r>    3.6687    1.0000 </r>
       <r>    3.7031    1.0000 </r>
       <r>    4.1787    1.0000 </r>
       <r>    4.2324    1.0000 </r>
       <r>    5.1902    1.0000 </r>
       <r>    5.2465    1.0000 </r>
       <r>    5.9131    1.0000 </r>
       <r>    5.9639    1.0000 </r>
       <r>    6.2270    1.0000 </r>
       <r>    6.2484    1.0000 </r>
       <r>    6.4133    1.0000 </r>
       <r>    6.4652    1.0000 </r>
       <r>    6.7969    1.0000 </r>
       <r>    6.9153    1.0000 </r>
       <r>    7.3781    1.0000 </r>
       <r>    7.4371    1.0000 </r>
       <r>    7.5955    1.0000 </r>
       <r>    7.6086    1.0000 </r>
       <r>    7.8688    1.0000 </r>
       <r>    8.0960    1.0000 </r>
       <r>    8.1394    1.0000 </r>
       <r>    8.3105    1.0000 </r>
       <r>    8.3565    1.0000 </r>
       <r>    8.3817    1.0000 </r>
       <r>    8.4516    1.0000 </r>
       <r>    8.7685    1.0000 </r>
       <r>    9.8055    0.1292 </r>
       <r>    9.8390    0.0514 </r>
       <r>    9.9545   -0.0354 </r>
       <r>   10.0191   -0.0245 </r>
       <r>   10.7094   -0.0000 </r>
       <r>   10.7578   -0.0000 </r>
       <r>   10.9005   -0.0000 </r>
       <r>   10.9296   -0.0000 </r>
       <r>   11.1279   -0.0000 </r>
       <r>   11.1440   -0.0000 </r>
       <r>   11.5377   -0.0000 </r>
       <r>   11.5641   -0.0000 </r>
       <r>   11.6134   -0.0000 </r>
       <r>   11.6415   -0.0000 </r>
       <r>   12.3644   -0.0000 </r>
       <r>   12.4424   -0.0000 </r>
       <r>   12.5639   -0.0000 </r>
       <r>   12.6000   -0.0000 </r>
       <r>   12.9393   -0.0000 </r>
       <r>   13.0453   -0.0000 </r>
       <r>   13.1425   -0.0000 </r>
       <r>   13.1786   -0.0000 </r>
       <r>   13.3988   -0.0000 </r>
       <r>   13.4523   -0.0000 </r>
      </set>
      <set comment="kpoint 14">
       <r>   -2.2698    1.0000 </r>
       <r>   -0.9173    1.0000 </r>
       <r>   -0.3259    1.0000 </r>
       <r>    0.3543    1.0000 </r>
       <r>    0.4993    1.0000 </r>
       <r>    0.6998    1.0000 </r>
       <r>    0.8060    1.0000 </r>
       <r>    1.2453    1.0000 </r>
       <r>    1.3778    1.0000 </r>
       <r>    1.5774    1.0000 </r>
       <r>    2.3363    1.0000 </r>
       <r>    2.6280    1.0000 </r>
       <r>    2.9509    1.0000 </r>
       <r>    3.1575    1.0000 </r>
       <r>    3.6117    1.0000 </r>
       <r>    3.7434    1.0000 </r>
       <r>    4.1260    1.0000 </r>
       <r>    4.2829    1.0000 </r>
       <r>    5.1573    1.0000 </r>
       <r>    5.3184    1.0000 </r>
       <r>    5.8583    1.0000 </r>
       <r>    5.9822    1.0000 </r>
       <r>    6.2044    1.0000 </r>
       <r>    6.2792    1.0000 </r>
       <r>    6.3751    1.0000 </r>
       <r>    6.5192    1.0000 </r>
       <r>    6.7811    1.0000 </r>
       <r>    6.9209    1.0000 </r>
       <r>    7.3218    1.0000 </r>
       <r>    7.4670    1.0000 </r>
       <r>    7.5427    1.0000 </r>
       <r>    7.6287    1.0000 </r>
       <r>    7.8786    1.0000 </r>
       <r>    8.1083    1.0000 </r>
       <r>    8.1479    1.0000 </r>
       <r>    8.2789    1.0000 </r>
       <r>    8.3167    1.0000 </r>
       <r>    8.4367    1.0000 </r>
       <r>    8.5143    1.0000 </r>
       <r>    8.7713    1.0000 </r>
       <r>    9.7924    0.1671 </r>
       <r>    9.8246    0.0815 </r>
       <r>    9.9622   -0.0349 </r>
       <r>   10.0161   -0.0252 </r>
       <r>   10.6895   -0.0000 </r>
       <r>   10.8038   -0.0000 </r>
       <r>   10.9142   -0.0000 </r>
       <r>   10.9600   -0.0000 </r>
       <r>   11.0684   -0.0000 </r>
       <r>   11.1011   -0.0000 </r>
       <r>   11.5118   -0.0000 </r>
       <r>   11.5648   -0.0000 </r>
       <r>   11.6278   -0.0000 </r>
       <r>   11.6846   -0.0000 </r>
       <r>   12.3149   -0.0000 </r>
       <r>   12.4557   -0.0000 </r>
       <r>   12.5273   -0.0000 </r>
       <r>   12.6344   -0.0000 </r>
       <r>   12.9331   -0.0000 </r>
       <r>   13.0374   -0.0000 </r>
       <r>   13.1339   -0.0000 </r>
       <r>   13.2395   -0.0000 </r>
       <r>   13.3409   -0.0000 </r>
       <r>   13.5067   -0.0000 </r>
      </set>
      <set comment="kpoint 15">
       <r>   -2.2694    1.0000 </r>
       <r>   -0.9108    1.0000 </r>
       <r>   -0.3539    1.0000 </r>
       <r>    0.3566    1.0000 </r>
       <r>    0.5417    1.0000 </r>
       <r>    0.7054    1.0000 </r>
       <r>    0.8115    1.0000 </r>
       <r>    1.2060    1.0000 </r>
       <r>    1.3694    1.0000 </r>
       <r>    1.5794    1.0000 </r>
       <r>    2.3664    1.0000 </r>
       <r>    2.6214    1.0000 </r>
       <r>    2.9278    1.0000 </r>
       <r>    3.1577    1.0000 </r>
       <r>    3.6156    1.0000 </r>
       <r>    3.7572    1.0000 </r>
       <r>    4.1304    1.0000 </r>
       <r>    4.2761    1.0000 </r>
       <r>    5.1575    1.0000 </r>
       <r>    5.3040    1.0000 </r>
       <r>    5.8629    1.0000 </r>
       <r>    5.9973    1.0000 </r>
       <r>    6.1929    1.0000 </r>
       <r>    6.2744    1.0000 </r>
       <r>    6.3796    1.0000 </r>
       <r>    6.4926    1.0000 </r>
       <r>    6.7681    1.0000 </r>
       <r>    6.9280    1.0000 </r>
       <r>    7.3329    1.0000 </r>
       <r>    7.4778    1.0000 </r>
       <r>    7.5872    1.0000 </r>
       <r>    7.6393    1.0000 </r>
       <r>    7.8902    1.0000 </r>
       <r>    8.0983    1.0000 </r>
       <r>    8.1263    1.0000 </r>
       <r>    8.2529    1.0000 </r>
       <r>    8.3326    1.0000 </r>
       <r>    8.4233    1.0000 </r>
       <r>    8.5001    1.0000 </r>
       <r>    8.7829    1.0000 </r>
       <r>    9.8002    0.1441 </r>
       <r>    9.8618    0.0145 </r>
       <r>    9.9532   -0.0354 </r>
       <r>    9.9990   -0.0290 </r>
       <r>   10.6838   -0.0000 </r>
       <r>   10.7812   -0.0000 </r>
       <r>   10.9361   -0.0000 </r>
       <r>   10.9902   -0.0000 </r>
       <r>   11.0593   -0.0000 </r>
       <r>   11.1029   -0.0000 </r>
       <r>   11.5336   -0.0000 </r>
       <r>   11.5609   -0.0000 </r>
       <r>   11.5700   -0.0000 </r>
       <r>   11.6687   -0.0000 </r>
       <r>   12.3339   -0.0000 </r>
       <r>   12.4561   -0.0000 </r>
       <r>   12.5201   -0.0000 </r>
       <r>   12.6652   -0.0000 </r>
       <r>   12.9194   -0.0000 </r>
       <r>   13.0208   -0.0000 </r>
       <r>   13.1319   -0.0000 </r>
       <r>   13.2085   -0.0000 </r>
       <r>   13.3660   -0.0000 </r>
       <r>   13.5053   -0.0000 </r>
      </set>
      <set comment="kpoint 16">
       <r>   -2.2694    1.0000 </r>
       <r>   -0.9093    1.0000 </r>
       <r>   -0.3463    1.0000 </r>
       <r>    0.3139    1.0000 </r>
       <r>    0.5644    1.0000 </r>
       <r>    0.6532    1.0000 </r>
       <r>    0.8851    1.0000 </r>
       <r>    1.1658    1.0000 </r>
       <r>    1.4139    1.0000 </r>
       <r>    1.5866    1.0000 </r>
       <r>    2.3558    1.0000 </r>
       <r>    2.6160    1.0000 </r>
       <r>    2.9337    1.0000 </r>
       <r>    3.1593    1.0000 </r>
       <r>    3.5495    1.0000 </r>
       <r>    3.8126    1.0000 </r>
       <r>    4.0675    1.0000 </r>
       <r>    4.3488    1.0000 </r>
       <r>    5.0837    1.0000 </r>
       <r>    5.3656    1.0000 </r>
       <r>    5.8018    1.0000 </r>
       <r>    6.0564    1.0000 </r>
       <r>    6.1902    1.0000 </r>
       <r>    6.2903    1.0000 </r>
       <r>    6.3419    1.0000 </r>
       <r>    6.5650    1.0000 </r>
       <r>    6.7585    1.0000 </r>
       <r>    6.9178    1.0000 </r>
       <r>    7.3016    1.0000 </r>
       <r>    7.5170    1.0000 </r>
       <r>    7.5805    1.0000 </r>
       <r>    7.6352    1.0000 </r>
       <r>    7.8789    1.0000 </r>
       <r>    8.0676    1.0000 </r>
       <r>    8.1308    1.0000 </r>
       <r>    8.2141    1.0000 </r>
       <r>    8.2817    1.0000 </r>
       <r>    8.4742    1.0000 </r>
       <r>    8.5650    1.0000 </r>
       <r>    8.7747    1.0000 </r>
       <r>    9.7772    0.2162 </r>
       <r>    9.8584    0.0192 </r>
       <r>    9.9366   -0.0347 </r>
       <r>   10.0437   -0.0189 </r>
       <r>   10.6457   -0.0000 </r>
       <r>   10.8264   -0.0000 </r>
       <r>   10.9099   -0.0000 </r>
       <r>   10.9933   -0.0000 </r>
       <r>   11.0596   -0.0000 </r>
       <r>   11.1152   -0.0000 </r>
       <r>   11.5168   -0.0000 </r>
       <r>   11.5539   -0.0000 </r>
       <r>   11.6007   -0.0000 </r>
       <r>   11.6964   -0.0000 </r>
       <r>   12.3595   -0.0000 </r>
       <r>   12.4023   -0.0000 </r>
       <r>   12.4814   -0.0000 </r>
       <r>   12.7136   -0.0000 </r>
       <r>   12.9031   -0.0000 </r>
       <r>   13.0271   -0.0000 </r>
       <r>   13.0911   -0.0000 </r>
       <r>   13.2367   -0.0000 </r>
       <r>   13.3118   -0.0000 </r>
       <r>   13.5768   -0.0000 </r>
      </set>
      <set comment="kpoint 17">
       <r>   -1.8611    1.0000 </r>
       <r>   -1.5805    1.0000 </r>
       <r>   -0.2420    1.0000 </r>
       <r>    0.0205    1.0000 </r>
       <r>    0.1044    1.0000 </r>
       <r>    0.8425    1.0000 </r>
       <r>    0.9361    1.0000 </r>
       <r>    1.1756    1.0000 </r>
       <r>    1.6854    1.0000 </r>
       <r>    2.4142    1.0000 </r>
       <r>    2.5234    1.0000 </r>
       <r>    2.7450    1.0000 </r>
       <r>    2.8284    1.0000 </r>
       <r>    3.5758    1.0000 </r>
       <r>    4.0041    1.0000 </r>
       <r>    4.0889    1.0000 </r>
       <r>    4.2857    1.0000 </r>
       <r>    4.3135    1.0000 </r>
       <r>    5.0870    1.0000 </r>
       <r>    5.2271    1.0000 </r>
       <r>    5.3094    1.0000 </r>
       <r>    5.4008    1.0000 </r>
       <r>    5.5195    1.0000 </r>
       <r>    5.6233    1.0000 </r>
       <r>    5.7849    1.0000 </r>
       <r>    5.9098    1.0000 </r>
       <r>    6.7261    1.0000 </r>
       <r>    6.8063    1.0000 </r>
       <r>    6.8293    1.0000 </r>
       <r>    6.8830    1.0000 </r>
       <r>    7.5095    1.0000 </r>
       <r>    7.7130    1.0000 </r>
       <r>    7.8065    1.0000 </r>
       <r>    7.9401    1.0000 </r>
       <r>    8.0368    1.0000 </r>
       <r>    8.2752    1.0000 </r>
       <r>    8.3073    1.0000 </r>
       <r>    9.4665    1.0353 </r>
       <r>    9.5247    1.0118 </r>
       <r>    9.6719    0.6388 </r>
       <r>    9.9547   -0.0354 </r>
       <r>   10.0378   -0.0202 </r>
       <r>   10.1736   -0.0023 </r>
       <r>   10.2945   -0.0001 </r>
       <r>   10.7958   -0.0000 </r>
       <r>   10.8894   -0.0000 </r>
       <r>   10.9870   -0.0000 </r>
       <r>   11.0673   -0.0000 </r>
       <r>   11.3151   -0.0000 </r>
       <r>   11.5773   -0.0000 </r>
       <r>   11.6865   -0.0000 </r>
       <r>   12.0475   -0.0000 </r>
       <r>   12.1699   -0.0000 </r>
       <r>   12.1895   -0.0000 </r>
       <r>   12.3794   -0.0000 </r>
       <r>   12.5266   -0.0000 </r>
       <r>   12.5624   -0.0000 </r>
       <r>   12.6511   -0.0000 </r>
       <r>   12.6871   -0.0000 </r>
       <r>   13.1810   -0.0000 </r>
       <r>   13.2393   -0.0000 </r>
       <r>   13.2878   -0.0000 </r>
       <r>   13.3450   -0.0000 </r>
       <r>   13.6260   -0.0000 </r>
      </set>
      <set comment="kpoint 18">
       <r>   -1.8710    1.0000 </r>
       <r>   -1.5669    1.0000 </r>
       <r>   -0.2192    1.0000 </r>
       <r>   -0.0261    1.0000 </r>
       <r>    0.1251    1.0000 </r>
       <r>    0.8210    1.0000 </r>
       <r>    0.9446    1.0000 </r>
       <r>    1.1770    1.0000 </r>
       <r>    1.6888    1.0000 </r>
       <r>    2.4013    1.0000 </r>
       <r>    2.5594    1.0000 </r>
       <r>    2.7115    1.0000 </r>
       <r>    2.8621    1.0000 </r>
       <r>    3.5685    1.0000 </r>
       <r>    3.9811    1.0000 </r>
       <r>    4.1173    1.0000 </r>
       <r>    4.2742    1.0000 </r>
       <r>    4.3153    1.0000 </r>
       <r>    5.0883    1.0000 </r>
       <r>    5.2317    1.0000 </r>
       <r>    5.2868    1.0000 </r>
       <r>    5.4055    1.0000 </r>
       <r>    5.4986    1.0000 </r>
       <r>    5.6228    1.0000 </r>
       <r>    5.8192    1.0000 </r>
       <r>    5.9256    1.0000 </r>
       <r>    6.6993    1.0000 </r>
       <r>    6.7556    1.0000 </r>
       <r>    6.8360    1.0000 </r>
       <r>    6.9169    1.0000 </r>
       <r>    7.5087    1.0000 </r>
       <r>    7.6895    1.0000 </r>
       <r>    7.7959    1.0000 </r>
       <r>    7.9429    1.0000 </r>
       <r>    8.0955    1.0000 </r>
       <r>    8.2731    1.0000 </r>
       <r>    8.3246    1.0000 </r>
       <r>    9.4672    1.0353 </r>
       <r>    9.5149    1.0194 </r>
       <r>    9.6394    0.7624 </r>
       <r>    9.9532   -0.0354 </r>
       <r>   10.0582   -0.0158 </r>
       <r>   10.1670   -0.0026 </r>
       <r>   10.2840   -0.0002 </r>
       <r>   10.7629   -0.0000 </r>
       <r>   10.9386   -0.0000 </r>
       <r>   10.9832   -0.0000 </r>
       <r>   11.0671   -0.0000 </r>
       <r>   11.3323   -0.0000 </r>
       <r>   11.5417   -0.0000 </r>
       <r>   11.6922   -0.0000 </r>
       <r>   12.0369   -0.0000 </r>
       <r>   12.1734   -0.0000 </r>
       <r>   12.2293   -0.0000 </r>
       <r>   12.3870   -0.0000 </r>
       <r>   12.4971   -0.0000 </r>
       <r>   12.5705   -0.0000 </r>
       <r>   12.6368   -0.0000 </r>
       <r>   12.6918   -0.0000 </r>
       <r>   13.1501   -0.0000 </r>
       <r>   13.2392   -0.0000 </r>
       <r>   13.3079   -0.0000 </r>
       <r>   13.3593   -0.0000 </r>
       <r>   13.6084   -0.0000 </r>
      </set>
      <set comment="kpoint 19">
       <r>   -1.8580    1.0000 </r>
       <r>   -1.5872    1.0000 </r>
       <r>   -0.2349    1.0000 </r>
       <r>    0.0405    1.0000 </r>
       <r>    0.0996    1.0000 </r>
       <r>    0.8436    1.0000 </r>
       <r>    0.9059    1.0000 </r>
       <r>    1.1608    1.0000 </r>
       <r>    1.7052    1.0000 </r>
       <r>    2.4550    1.0000 </r>
       <r>    2.4908    1.0000 </r>
       <r>    2.7474    1.0000 </r>
       <r>    2.8184    1.0000 </r>
       <r>    3.5654    1.0000 </r>
       <r>    4.0189    1.0000 </r>
       <r>    4.0869    1.0000 </r>
       <r>    4.2934    1.0000 </r>
       <r>    4.3202    1.0000 </r>
       <r>    5.0730    1.0000 </r>
       <r>    5.2121    1.0000 </r>
       <r>    5.3387    1.0000 </r>
       <r>    5.3744    1.0000 </r>
       <r>    5.5777    1.0000 </r>
       <r>    5.6185    1.0000 </r>
       <r>    5.8051    1.0000 </r>
       <r>    5.8570    1.0000 </r>
       <r>    6.7655    1.0000 </r>
       <r>    6.8034    1.0000 </r>
       <r>    6.8239    1.0000 </r>
       <r>    6.8343    1.0000 </r>
       <r>    7.5200    1.0000 </r>
       <r>    7.7292    1.0000 </r>
       <r>    7.7689    1.0000 </r>
       <r>    7.9690    1.0000 </r>
       <r>    8.0146    1.0000 </r>
       <r>    8.2870    1.0000 </r>
       <r>    8.2952    1.0000 </r>
       <r>    9.4950    1.0297 </r>
       <r>    9.5028    1.0263 </r>
       <r>    9.6913    0.5586 </r>
       <r>    9.9637   -0.0348 </r>
       <r>   10.0748   -0.0127 </r>
       <r>   10.1161   -0.0067 </r>
       <r>   10.2870   -0.0002 </r>
       <r>   10.8137   -0.0000 </r>
       <r>   10.8849   -0.0000 </r>
       <r>   11.0195   -0.0000 </r>
       <r>   11.0366   -0.0000 </r>
       <r>   11.3166   -0.0000 </r>
       <r>   11.6004   -0.0000 </r>
       <r>   11.6539   -0.0000 </r>
       <r>   12.0384   -0.0000 </r>
       <r>   12.1645   -0.0000 </r>
       <r>   12.1993   -0.0000 </r>
       <r>   12.3702   -0.0000 </r>
       <r>   12.5371   -0.0000 </r>
       <r>   12.5573   -0.0000 </r>
       <r>   12.6673   -0.0000 </r>
       <r>   12.6797   -0.0000 </r>
       <r>   13.2062   -0.0000 </r>
       <r>   13.2485   -0.0000 </r>
       <r>   13.2877   -0.0000 </r>
       <r>   13.3089   -0.0000 </r>
       <r>   13.6249   -0.0000 </r>
      </set>
      <set comment="kpoint 20">
       <r>   -1.8603    1.0000 </r>
       <r>   -1.5843    1.0000 </r>
       <r>   -0.2377    1.0000 </r>
       <r>    0.0240    1.0000 </r>
       <r>    0.1315    1.0000 </r>
       <r>    0.7969    1.0000 </r>
       <r>    0.9277    1.0000 </r>
       <r>    1.1727    1.0000 </r>
       <r>    1.6904    1.0000 </r>
       <r>    2.4149    1.0000 </r>
       <r>    2.5872    1.0000 </r>
       <r>    2.7055    1.0000 </r>
       <r>    2.8368    1.0000 </r>
       <r>    3.5494    1.0000 </r>
       <r>    3.9783    1.0000 </r>
       <r>    4.1104    1.0000 </r>
       <r>    4.2999    1.0000 </r>
       <r>    4.3349    1.0000 </r>
       <r>    5.0785    1.0000 </r>
       <r>    5.1871    1.0000 </r>
       <r>    5.3230    1.0000 </r>
       <r>    5.3998    1.0000 </r>
       <r>    5.5296    1.0000 </r>
       <r>    5.6690    1.0000 </r>
       <r>    5.7799    1.0000 </r>
       <r>    5.8975    1.0000 </r>
       <r>    6.7528    1.0000 </r>
       <r>    6.7900    1.0000 </r>
       <r>    6.7968    1.0000 </r>
       <r>    6.8783    1.0000 </r>
       <r>    7.5192    1.0000 </r>
       <r>    7.6760    1.0000 </r>
       <r>    7.8035    1.0000 </r>
       <r>    7.9243    1.0000 </r>
       <r>    8.0666    1.0000 </r>
       <r>    8.2691    1.0000 </r>
       <r>    8.3209    1.0000 </r>
       <r>    9.4815    1.0335 </r>
       <r>    9.5367    1.0001 </r>
       <r>    9.6958    0.5400 </r>
       <r>    9.9477   -0.0354 </r>
       <r>   10.0381   -0.0201 </r>
       <r>   10.1392   -0.0044 </r>
       <r>   10.2789   -0.0002 </r>
       <r>   10.8014   -0.0000 </r>
       <r>   10.9447   -0.0000 </r>
       <r>   10.9789   -0.0000 </r>
       <r>   11.0700   -0.0000 </r>
       <r>   11.2965   -0.0000 </r>
       <r>   11.5539   -0.0000 </r>
       <r>   11.6909   -0.0000 </r>
       <r>   12.0014   -0.0000 </r>
       <r>   12.1905   -0.0000 </r>
       <r>   12.2204   -0.0000 </r>
       <r>   12.3869   -0.0000 </r>
       <r>   12.5188   -0.0000 </r>
       <r>   12.5620   -0.0000 </r>
       <r>   12.6513   -0.0000 </r>
       <r>   12.6843   -0.0000 </r>
       <r>   13.1748   -0.0000 </r>
       <r>   13.2428   -0.0000 </r>
       <r>   13.2853   -0.0000 </r>
       <r>   13.3587   -0.0000 </r>
       <r>   13.5871   -0.0000 </r>
      </set>
      <set comment="kpoint 21">
       <r>   -1.8686    1.0000 </r>
       <r>   -1.5723    1.0000 </r>
       <r>   -0.2327    1.0000 </r>
       <r>    0.0202    1.0000 </r>
       <r>    0.1108    1.0000 </r>
       <r>    0.8380    1.0000 </r>
       <r>    0.9147    1.0000 </r>
       <r>    1.1577    1.0000 </r>
       <r>    1.7083    1.0000 </r>
       <r>    2.4273    1.0000 </r>
       <r>    2.5206    1.0000 </r>
       <r>    2.7248    1.0000 </r>
       <r>    2.8361    1.0000 </r>
       <r>    3.5502    1.0000 </r>
       <r>    4.0116    1.0000 </r>
       <r>    4.1071    1.0000 </r>
       <r>    4.3049    1.0000 </r>
       <r>    4.3266    1.0000 </r>
       <r>    5.0749    1.0000 </r>
       <r>    5.2298    1.0000 </r>
       <r>    5.3040    1.0000 </r>
       <r>    5.4010    1.0000 </r>
       <r>    5.5385    1.0000 </r>
       <r>    5.6282    1.0000 </r>
       <r>    5.7850    1.0000 </r>
       <r>    5.8940    1.0000 </r>
       <r>    6.7254    1.0000 </r>
       <r>    6.7859    1.0000 </r>
       <r>    6.8434    1.0000 </r>
       <r>    6.8958    1.0000 </r>
       <r>    7.4908    1.0000 </r>
       <r>    7.6985    1.0000 </r>
       <r>    7.7693    1.0000 </r>
       <r>    7.9444    1.0000 </r>
       <r>    8.0323    1.0000 </r>
       <r>    8.2679    1.0000 </r>
       <r>    8.3335    1.0000 </r>
       <r>    9.4759    1.0344 </r>
       <r>    9.5159    1.0187 </r>
       <r>    9.7253    0.4154 </r>
       <r>    9.9511   -0.0355 </r>
       <r>   10.0339   -0.0211 </r>
       <r>   10.1153   -0.0068 </r>
       <r>   10.2991   -0.0001 </r>
       <r>   10.8024   -0.0000 </r>
       <r>   10.9131   -0.0000 </r>
       <r>   10.9943   -0.0000 </r>
       <r>   11.0320   -0.0000 </r>
       <r>   11.3476   -0.0000 </r>
       <r>   11.5867   -0.0000 </r>
       <r>   11.6967   -0.0000 </r>
       <r>   12.0134   -0.0000 </r>
       <r>   12.1529   -0.0000 </r>
       <r>   12.2215   -0.0000 </r>
       <r>   12.3773   -0.0000 </r>
       <r>   12.5301   -0.0000 </r>
       <r>   12.5752   -0.0000 </r>
       <r>   12.6516   -0.0000 </r>
       <r>   12.6759   -0.0000 </r>
       <r>   13.1792   -0.0000 </r>
       <r>   13.2494   -0.0000 </r>
       <r>   13.3088   -0.0000 </r>
       <r>   13.3346   -0.0000 </r>
       <r>   13.6190   -0.0000 </r>
      </set>
      <set comment="kpoint 22">
       <r>   -1.8699    1.0000 </r>
       <r>   -1.5674    1.0000 </r>
       <r>   -0.2363    1.0000 </r>
       <r>   -0.0539    1.0000 </r>
       <r>    0.1980    1.0000 </r>
       <r>    0.7391    1.0000 </r>
       <r>    1.0127    1.0000 </r>
       <r>    1.1636    1.0000 </r>
       <r>    1.7001    1.0000 </r>
       <r>    2.3578    1.0000 </r>
       <r>    2.6124    1.0000 </r>
       <r>    2.6498    1.0000 </r>
       <r>    2.9112    1.0000 </r>
       <r>    3.5571    1.0000 </r>
       <r>    3.9225    1.0000 </r>
       <r>    4.1787    1.0000 </r>
       <r>    4.2906    1.0000 </r>
       <r>    4.3303    1.0000 </r>
       <r>    5.0809    1.0000 </r>
       <r>    5.1734    1.0000 </r>
       <r>    5.2447    1.0000 </r>
       <r>    5.4425    1.0000 </r>
       <r>    5.4789    1.0000 </r>
       <r>    5.6878    1.0000 </r>
       <r>    5.7717    1.0000 </r>
       <r>    5.9646    1.0000 </r>
       <r>    6.6672    1.0000 </r>
       <r>    6.7897    1.0000 </r>
       <r>    6.8509    1.0000 </r>
       <r>    6.9461    1.0000 </r>
       <r>    7.5046    1.0000 </r>
       <r>    7.6238    1.0000 </r>
       <r>    7.8105    1.0000 </r>
       <r>    7.9201    1.0000 </r>
       <r>    8.1333    1.0000 </r>
       <r>    8.2437    1.0000 </r>
       <r>    8.3420    1.0000 </r>
       <r>    9.4604    1.0355 </r>
       <r>    9.5545    0.9773 </r>
       <r>    9.6989    0.5267 </r>
       <r>    9.9128   -0.0286 </r>
       <r>    9.9861   -0.0316 </r>
       <r>   10.1833   -0.0019 </r>
       <r>   10.2864   -0.0002 </r>
       <r>   10.6964   -0.0000 </r>
       <r>   10.9585   -0.0000 </r>
       <r>   11.0049   -0.0000 </r>
       <r>   11.1129   -0.0000 </r>
       <r>   11.3140   -0.0000 </r>
       <r>   11.4707   -0.0000 </r>
       <r>   11.7970   -0.0000 </r>
       <r>   12.0269   -0.0000 </r>
       <r>   12.1733   -0.0000 </r>
       <r>   12.2095   -0.0000 </r>
       <r>   12.3657   -0.0000 </r>
       <r>   12.5128   -0.0000 </r>
       <r>   12.5955   -0.0000 </r>
       <r>   12.6650   -0.0000 </r>
       <r>   12.6861   -0.0000 </r>
       <r>   13.1563   -0.0000 </r>
       <r>   13.2479   -0.0000 </r>
       <r>   13.2950   -0.0000 </r>
       <r>   13.3564   -0.0000 </r>
       <r>   13.4992   -0.0000 </r>
      </set>
      <set comment="kpoint 23">
       <r>   -1.8694    1.0000 </r>
       <r>   -1.5679    1.0000 </r>
       <r>   -0.2451    1.0000 </r>
       <r>   -0.0126    1.0000 </r>
       <r>    0.1443    1.0000 </r>
       <r>    0.8114    1.0000 </r>
       <r>    0.9493    1.0000 </r>
       <r>    1.1762    1.0000 </r>
       <r>    1.6847    1.0000 </r>
       <r>    2.4312    1.0000 </r>
       <r>    2.5550    1.0000 </r>
       <r>    2.7059    1.0000 </r>
       <r>    2.8338    1.0000 </r>
       <r>    3.5789    1.0000 </r>
       <r>    3.9763    1.0000 </r>
       <r>    4.1141    1.0000 </r>
       <r>    4.2881    1.0000 </r>
       <r>    4.3180    1.0000 </r>
       <r>    5.0886    1.0000 </r>
       <r>    5.2073    1.0000 </r>
       <r>    5.2808    1.0000 </r>
       <r>    5.4229    1.0000 </r>
       <r>    5.4996    1.0000 </r>
       <r>    5.6663    1.0000 </r>
       <r>    5.7825    1.0000 </r>
       <r>    5.8853    1.0000 </r>
       <r>    6.7001    1.0000 </r>
       <r>    6.7857    1.0000 </r>
       <r>    6.8738    1.0000 </r>
       <r>    6.9085    1.0000 </r>
       <r>    7.5089    1.0000 </r>
       <r>    7.6813    1.0000 </r>
       <r>    7.8164    1.0000 </r>
       <r>    7.9532    1.0000 </r>
       <r>    8.0602    1.0000 </r>
       <r>    8.2592    1.0000 </r>
       <r>    8.3190    1.0000 </r>
       <r>    9.4661    1.0353 </r>
       <r>    9.5274    1.0095 </r>
       <r>    9.6657    0.6639 </r>
       <r>    9.9549   -0.0354 </r>
       <r>   10.0408   -0.0195 </r>
       <r>   10.1452   -0.0040 </r>
       <r>   10.2818   -0.0002 </r>
       <r>   10.7326   -0.0000 </r>
       <r>   10.9426   -0.0000 </r>
       <r>   11.0143   -0.0000 </r>
       <r>   11.0910   -0.0000 </r>
       <r>   11.3167   -0.0000 </r>
       <r>   11.5390   -0.0000 </r>
       <r>   11.6918   -0.0000 </r>
       <r>   12.0461   -0.0000 </r>
       <r>   12.1800   -0.0000 </r>
       <r>   12.2106   -0.0000 </r>
       <r>   12.3581   -0.0000 </r>
       <r>   12.5357   -0.0000 </r>
       <r>   12.5863   -0.0000 </r>
       <r>   12.6334   -0.0000 </r>
       <r>   12.6823   -0.0000 </r>
       <r>   13.1848   -0.0000 </r>
       <r>   13.2266   -0.0000 </r>
       <r>   13.2983   -0.0000 </r>
       <r>   13.3417   -0.0000 </r>
       <r>   13.5976   -0.0000 </r>
      </set>
      <set comment="kpoint 24">
       <r>   -1.8636    1.0000 </r>
       <r>   -1.5774    1.0000 </r>
       <r>   -0.2476    1.0000 </r>
       <r>    0.0247    1.0000 </r>
       <r>    0.1198    1.0000 </r>
       <r>    0.8042    1.0000 </r>
       <r>    0.9417    1.0000 </r>
       <r>    1.1919    1.0000 </r>
       <r>    1.6749    1.0000 </r>
       <r>    2.4289    1.0000 </r>
       <r>    2.5437    1.0000 </r>
       <r>    2.6971    1.0000 </r>
       <r>    2.8661    1.0000 </r>
       <r>    3.5655    1.0000 </r>
       <r>    3.9758    1.0000 </r>
       <r>    4.1000    1.0000 </r>
       <r>    4.3047    1.0000 </r>
       <r>    4.3122    1.0000 </r>
       <r>    5.0899    1.0000 </r>
       <r>    5.1833    1.0000 </r>
       <r>    5.3307    1.0000 </r>
       <r>    5.4159    1.0000 </r>
       <r>    5.5231    1.0000 </r>
       <r>    5.6750    1.0000 </r>
       <r>    5.7581    1.0000 </r>
       <r>    5.8894    1.0000 </r>
       <r>    6.7291    1.0000 </r>
       <r>    6.8042    1.0000 </r>
       <r>    6.8253    1.0000 </r>
       <r>    6.8783    1.0000 </r>
       <r>    7.4955    1.0000 </r>
       <r>    7.6968    1.0000 </r>
       <r>    7.8077    1.0000 </r>
       <r>    7.9318    1.0000 </r>
       <r>    8.0682    1.0000 </r>
       <r>    8.2813    1.0000 </r>
       <r>    8.3195    1.0000 </r>
       <r>    9.4508    1.0351 </r>
       <r>    9.5222    1.0140 </r>
       <r>    9.6820    0.5978 </r>
       <r>    9.9467   -0.0354 </r>
       <r>   10.0377   -0.0202 </r>
       <r>   10.1536   -0.0034 </r>
       <r>   10.2956   -0.0001 </r>
       <r>   10.7904   -0.0000 </r>
       <r>   10.9426   -0.0000 </r>
       <r>   10.9665   -0.0000 </r>
       <r>   11.0803   -0.0000 </r>
       <r>   11.3147   -0.0000 </r>
       <r>   11.5502   -0.0000 </r>
       <r>   11.6968   -0.0000 </r>
       <r>   12.0288   -0.0000 </r>
       <r>   12.1687   -0.0000 </r>
       <r>   12.2126   -0.0000 </r>
       <r>   12.3968   -0.0000 </r>
       <r>   12.5125   -0.0000 </r>
       <r>   12.5437   -0.0000 </r>
       <r>   12.6563   -0.0000 </r>
       <r>   12.7081   -0.0000 </r>
       <r>   13.1801   -0.0000 </r>
       <r>   13.2540   -0.0000 </r>
       <r>   13.2769   -0.0000 </r>
       <r>   13.3370   -0.0000 </r>
       <r>   13.6175   -0.0000 </r>
      </set>
      <set comment="kpoint 25">
       <r>   -1.8690    1.0000 </r>
       <r>   -1.5720    1.0000 </r>
       <r>   -0.2368    1.0000 </r>
       <r>    0.0426    1.0000 </r>
       <r>    0.0955    1.0000 </r>
       <r>    0.8345    1.0000 </r>
       <r>    0.9114    1.0000 </r>
       <r>    1.1635    1.0000 </r>
       <r>    1.6969    1.0000 </r>
       <r>    2.4647    1.0000 </r>
       <r>    2.5169    1.0000 </r>
       <r>    2.7399    1.0000 </r>
       <r>    2.7878    1.0000 </r>
       <r>    3.5566    1.0000 </r>
       <r>    4.0322    1.0000 </r>
       <r>    4.0854    1.0000 </r>
       <r>    4.3060    1.0000 </r>
       <r>    4.3238    1.0000 </r>
       <r>    5.0793    1.0000 </r>
       <r>    5.2176    1.0000 </r>
       <r>    5.3396    1.0000 </r>
       <r>    5.3796    1.0000 </r>
       <r>    5.5673    1.0000 </r>
       <r>    5.6297    1.0000 </r>
       <r>    5.8066    1.0000 </r>
       <r>    5.8420    1.0000 </r>
       <r>    6.7328    1.0000 </r>
       <r>    6.7791    1.0000 </r>
       <r>    6.8555    1.0000 </r>
       <r>    6.8712    1.0000 </r>
       <r>    7.5033    1.0000 </r>
       <r>    7.7194    1.0000 </r>
       <r>    7.7622    1.0000 </r>
       <r>    7.9547    1.0000 </r>
       <r>    8.0149    1.0000 </r>
       <r>    8.2901    1.0000 </r>
       <r>    8.2975    1.0000 </r>
       <r>    9.4835    1.0330 </r>
       <r>    9.5059    1.0248 </r>
       <r>    9.7096    0.4815 </r>
       <r>    9.9541   -0.0354 </r>
       <r>   10.0584   -0.0158 </r>
       <r>   10.0979   -0.0090 </r>
       <r>   10.3037   -0.0001 </r>
       <r>   10.8380   -0.0000 </r>
       <r>   10.8831   -0.0000 </r>
       <r>   11.0006   -0.0000 </r>
       <r>   11.0626   -0.0000 </r>
       <r>   11.3301   -0.0000 </r>
       <r>   11.5990   -0.0000 </r>
       <r>   11.6603   -0.0000 </r>
       <r>   12.0366   -0.0000 </r>
       <r>   12.1531   -0.0000 </r>
       <r>   12.1742   -0.0000 </r>
       <r>   12.3677   -0.0000 </r>
       <r>   12.5522   -0.0000 </r>
       <r>   12.5840   -0.0000 </r>
       <r>   12.6645   -0.0000 </r>
       <r>   12.6790   -0.0000 </r>
       <r>   13.1926   -0.0000 </r>
       <r>   13.2324   -0.0000 </r>
       <r>   13.2916   -0.0000 </r>
       <r>   13.3657   -0.0000 </r>
       <r>   13.6387   -0.0000 </r>
      </set>
      <set comment="kpoint 26">
       <r>   -1.8704    1.0000 </r>
       <r>   -1.5710    1.0000 </r>
       <r>   -0.2076    1.0000 </r>
       <r>   -0.0175    1.0000 </r>
       <r>    0.1249    1.0000 </r>
       <r>    0.8119    1.0000 </r>
       <r>    0.9425    1.0000 </r>
       <r>    1.1558    1.0000 </r>
       <r>    1.6918    1.0000 </r>
       <r>    2.4302    1.0000 </r>
       <r>    2.5745    1.0000 </r>
       <r>    2.6942    1.0000 </r>
       <r>    2.8313    1.0000 </r>
       <r>    3.5443    1.0000 </r>
       <r>    3.9963    1.0000 </r>
       <r>    4.1317    1.0000 </r>
       <r>    4.2795    1.0000 </r>
       <r>    4.3355    1.0000 </r>
       <r>    5.0834    1.0000 </r>
       <r>    5.2384    1.0000 </r>
       <r>    5.2896    1.0000 </r>
       <r>    5.4057    1.0000 </r>
       <r>    5.5013    1.0000 </r>
       <r>    5.6870    1.0000 </r>
       <r>    5.7789    1.0000 </r>
       <r>    5.9142    1.0000 </r>
       <r>    6.6678    1.0000 </r>
       <r>    6.8139    1.0000 </r>
       <r>    6.8399    1.0000 </r>
       <r>    6.8743    1.0000 </r>
       <r>    7.4922    1.0000 </r>
       <r>    7.6653    1.0000 </r>
       <r>    7.8097    1.0000 </r>
       <r>    7.9313    1.0000 </r>
       <r>    8.0600    1.0000 </r>
       <r>    8.2717    1.0000 </r>
       <r>    8.3279    1.0000 </r>
       <r>    9.4598    1.0355 </r>
       <r>    9.5260    1.0107 </r>
       <r>    9.6977    0.5317 </r>
       <r>    9.9594   -0.0352 </r>
       <r>   10.0267   -0.0227 </r>
       <r>   10.1601   -0.0030 </r>
       <r>   10.2890   -0.0001 </r>
       <r>   10.7866   -0.0000 </r>
       <r>   10.9376   -0.0000 </r>
       <r>   10.9744   -0.0000 </r>
       <r>   11.0759   -0.0000 </r>
       <r>   11.3463   -0.0000 </r>
       <r>   11.5369   -0.0000 </r>
       <r>   11.7075   -0.0000 </r>
       <r>   12.0114   -0.0000 </r>
       <r>   12.1480   -0.0000 </r>
       <r>   12.2160   -0.0000 </r>
       <r>   12.3684   -0.0000 </r>
       <r>   12.5286   -0.0000 </r>
       <r>   12.5610   -0.0000 </r>
       <r>   12.6689   -0.0000 </r>
       <r>   12.6930   -0.0000 </r>
       <r>   13.1911   -0.0000 </r>
       <r>   13.2358   -0.0000 </r>
       <r>   13.3196   -0.0000 </r>
       <r>   13.3566   -0.0000 </r>
       <r>   13.5773   -0.0000 </r>
      </set>
      <set comment="kpoint 27">
       <r>   -1.8578    1.0000 </r>
       <r>   -1.5872    1.0000 </r>
       <r>   -0.2295    1.0000 </r>
       <r>   -0.0119    1.0000 </r>
       <r>    0.1519    1.0000 </r>
       <r>    0.8203    1.0000 </r>
       <r>    0.9269    1.0000 </r>
       <r>    1.1576    1.0000 </r>
       <r>    1.7026    1.0000 </r>
       <r>    2.4148    1.0000 </r>
       <r>    2.5656    1.0000 </r>
       <r>    2.7048    1.0000 </r>
       <r>    2.8332    1.0000 </r>
       <r>    3.5646    1.0000 </r>
       <r>    3.9862    1.0000 </r>
       <r>    4.1156    1.0000 </r>
       <r>    4.2949    1.0000 </r>
       <r>    4.3289    1.0000 </r>
       <r>    5.0716    1.0000 </r>
       <r>    5.2016    1.0000 </r>
       <r>    5.2867    1.0000 </r>
       <r>    5.4211    1.0000 </r>
       <r>    5.5456    1.0000 </r>
       <r>    5.6729    1.0000 </r>
       <r>    5.7448    1.0000 </r>
       <r>    5.8937    1.0000 </r>
       <r>    6.7545    1.0000 </r>
       <r>    6.7947    1.0000 </r>
       <r>    6.8382    1.0000 </r>
       <r>    6.8677    1.0000 </r>
       <r>    7.5106    1.0000 </r>
       <r>    7.7001    1.0000 </r>
       <r>    7.7927    1.0000 </r>
       <r>    7.9157    1.0000 </r>
       <r>    8.0498    1.0000 </r>
       <r>    8.2832    1.0000 </r>
       <r>    8.3184    1.0000 </r>
       <r>    9.4728    1.0348 </r>
       <r>    9.5299    1.0071 </r>
       <r>    9.7109    0.4761 </r>
       <r>    9.9579   -0.0352 </r>
       <r>   10.0283   -0.0223 </r>
       <r>   10.1378   -0.0046 </r>
       <r>   10.2781   -0.0002 </r>
       <r>   10.7651   -0.0000 </r>
       <r>   10.9362   -0.0000 </r>
       <r>   10.9777   -0.0000 </r>
       <r>   11.0885   -0.0000 </r>
       <r>   11.3210   -0.0000 </r>
       <r>   11.5544   -0.0000 </r>
       <r>   11.7112   -0.0000 </r>
       <r>   12.0244   -0.0000 </r>
       <r>   12.1788   -0.0000 </r>
       <r>   12.2364   -0.0000 </r>
       <r>   12.3415   -0.0000 </r>
       <r>   12.5078   -0.0000 </r>
       <r>   12.5541   -0.0000 </r>
       <r>   12.6560   -0.0000 </r>
       <r>   12.6836   -0.0000 </r>
       <r>   13.1759   -0.0000 </r>
       <r>   13.2652   -0.0000 </r>
       <r>   13.2883   -0.0000 </r>
       <r>   13.3376   -0.0000 </r>
       <r>   13.5824   -0.0000 </r>
      </set>
      <set comment="kpoint 28">
       <r>   -1.8618    1.0000 </r>
       <r>   -1.5796    1.0000 </r>
       <r>   -0.2304    1.0000 </r>
       <r>   -0.0566    1.0000 </r>
       <r>    0.1981    1.0000 </r>
       <r>    0.7518    1.0000 </r>
       <r>    1.0069    1.0000 </r>
       <r>    1.1661    1.0000 </r>
       <r>    1.6920    1.0000 </r>
       <r>    2.3694    1.0000 </r>
       <r>    2.6074    1.0000 </r>
       <r>    2.6306    1.0000 </r>
       <r>    2.9144    1.0000 </r>
       <r>    3.5603    1.0000 </r>
       <r>    3.9280    1.0000 </r>
       <r>    4.1784    1.0000 </r>
       <r>    4.2791    1.0000 </r>
       <r>    4.3315    1.0000 </r>
       <r>    5.0799    1.0000 </r>
       <r>    5.1662    1.0000 </r>
       <r>    5.2771    1.0000 </r>
       <r>    5.4602    1.0000 </r>
       <r>    5.4823    1.0000 </r>
       <r>    5.6656    1.0000 </r>
       <r>    5.7611    1.0000 </r>
       <r>    5.9682    1.0000 </r>
       <r>    6.7006    1.0000 </r>
       <r>    6.7838    1.0000 </r>
       <r>    6.8432    1.0000 </r>
       <r>    6.9209    1.0000 </r>
       <r>    7.5013    1.0000 </r>
       <r>    7.6442    1.0000 </r>
       <r>    7.8060    1.0000 </r>
       <r>    7.9037    1.0000 </r>
       <r>    8.1183    1.0000 </r>
       <r>    8.2455    1.0000 </r>
       <r>    8.3472    1.0000 </r>
       <r>    9.4570    1.0354 </r>
       <r>    9.5376    0.9992 </r>
       <r>    9.7146    0.4605 </r>
       <r>    9.9446   -0.0353 </r>
       <r>    9.9807   -0.0326 </r>
       <r>   10.1737   -0.0023 </r>
       <r>   10.2906   -0.0001 </r>
       <r>   10.6993   -0.0000 </r>
       <r>   10.9431   -0.0000 </r>
       <r>   11.0094   -0.0000 </r>
       <r>   11.1196   -0.0000 </r>
       <r>   11.3254   -0.0000 </r>
       <r>   11.4839   -0.0000 </r>
       <r>   11.7909   -0.0000 </r>
       <r>   12.0172   -0.0000 </r>
       <r>   12.1707   -0.0000 </r>
       <r>   12.2219   -0.0000 </r>
       <r>   12.3648   -0.0000 </r>
       <r>   12.5082   -0.0000 </r>
       <r>   12.5510   -0.0000 </r>
       <r>   12.6609   -0.0000 </r>
       <r>   12.7011   -0.0000 </r>
       <r>   13.1711   -0.0000 </r>
       <r>   13.2335   -0.0000 </r>
       <r>   13.3014   -0.0000 </r>
       <r>   13.3719   -0.0000 </r>
       <r>   13.5134   -0.0000 </r>
      </set>
      <set comment="kpoint 29">
       <r>   -2.4061    1.0000 </r>
       <r>   -0.5201    1.0000 </r>
       <r>    0.0041    1.0000 </r>
       <r>    0.0830    1.0000 </r>
       <r>    0.3294    1.0000 </r>
       <r>    0.6360    1.0000 </r>
       <r>    1.1345    1.0000 </r>
       <r>    1.3600    1.0000 </r>
       <r>    1.4618    1.0000 </r>
       <r>    1.6734    1.0000 </r>
       <r>    1.7763    1.0000 </r>
       <r>    2.2565    1.0000 </r>
       <r>    2.4684    1.0000 </r>
       <r>    2.5580    1.0000 </r>
       <r>    3.5637    1.0000 </r>
       <r>    4.0231    1.0000 </r>
       <r>    4.0979    1.0000 </r>
       <r>    5.0480    1.0000 </r>
       <r>    5.1205    1.0000 </r>
       <r>    5.1564    1.0000 </r>
       <r>    6.0165    1.0000 </r>
       <r>    6.1010    1.0000 </r>
       <r>    6.2593    1.0000 </r>
       <r>    6.9027    1.0000 </r>
       <r>    6.9877    1.0000 </r>
       <r>    7.0235    1.0000 </r>
       <r>    7.1305    1.0000 </r>
       <r>    7.1677    1.0000 </r>
       <r>    7.2405    1.0000 </r>
       <r>    7.2938    1.0000 </r>
       <r>    7.5224    1.0000 </r>
       <r>    7.6985    1.0000 </r>
       <r>    7.7822    1.0000 </r>
       <r>    7.9012    1.0000 </r>
       <r>    8.0674    1.0000 </r>
       <r>    8.2079    1.0000 </r>
       <r>    8.6618    1.0000 </r>
       <r>    8.7421    1.0000 </r>
       <r>    8.8214    1.0000 </r>
       <r>    8.8661    1.0000 </r>
       <r>    9.2499    1.0030 </r>
       <r>    9.3387    1.0132 </r>
       <r>    9.7050    0.5011 </r>
       <r>    9.7777    0.2144 </r>
       <r>    9.8444    0.0416 </r>
       <r>   10.1682   -0.0025 </r>
       <r>   10.2402   -0.0005 </r>
       <r>   10.8240   -0.0000 </r>
       <r>   11.1278   -0.0000 </r>
       <r>   11.1765   -0.0000 </r>
       <r>   11.4075   -0.0000 </r>
       <r>   11.4938   -0.0000 </r>
       <r>   11.6923   -0.0000 </r>
       <r>   11.7385   -0.0000 </r>
       <r>   11.8203   -0.0000 </r>
       <r>   11.8864   -0.0000 </r>
       <r>   11.9582   -0.0000 </r>
       <r>   12.0438   -0.0000 </r>
       <r>   12.5563   -0.0000 </r>
       <r>   12.8812   -0.0000 </r>
       <r>   13.3234   -0.0000 </r>
       <r>   13.3906   -0.0000 </r>
       <r>   13.8169   -0.0000 </r>
       <r>   13.8532   -0.0000 </r>
      </set>
      <set comment="kpoint 30">
       <r>   -2.4070    1.0000 </r>
       <r>   -0.5036    1.0000 </r>
       <r>   -0.0239    1.0000 </r>
       <r>    0.1055    1.0000 </r>
       <r>    0.3205    1.0000 </r>
       <r>    0.6139    1.0000 </r>
       <r>    1.1578    1.0000 </r>
       <r>    1.3442    1.0000 </r>
       <r>    1.4756    1.0000 </r>
       <r>    1.6584    1.0000 </r>
       <r>    1.8059    1.0000 </r>
       <r>    2.2618    1.0000 </r>
       <r>    2.4327    1.0000 </r>
       <r>    2.5630    1.0000 </r>
       <r>    3.5709    1.0000 </r>
       <r>    3.9923    1.0000 </r>
       <r>    4.1436    1.0000 </r>
       <r>    5.0281    1.0000 </r>
       <r>    5.1211    1.0000 </r>
       <r>    5.1809    1.0000 </r>
       <r>    6.0094    1.0000 </r>
       <r>    6.1000    1.0000 </r>
       <r>    6.2428    1.0000 </r>
       <r>    6.9460    1.0000 </r>
       <r>    6.9739    1.0000 </r>
       <r>    7.0322    1.0000 </r>
       <r>    7.1067    1.0000 </r>
       <r>    7.1597    1.0000 </r>
       <r>    7.2450    1.0000 </r>
       <r>    7.3115    1.0000 </r>
       <r>    7.4982    1.0000 </r>
       <r>    7.6773    1.0000 </r>
       <r>    7.7970    1.0000 </r>
       <r>    7.8848    1.0000 </r>
       <r>    8.0560    1.0000 </r>
       <r>    8.2102    1.0000 </r>
       <r>    8.6774    1.0000 </r>
       <r>    8.7674    1.0000 </r>
       <r>    8.8309    1.0000 </r>
       <r>    8.8902    1.0000 </r>
       <r>    9.2424    1.0025 </r>
       <r>    9.3089    1.0085 </r>
       <r>    9.7179    0.4464 </r>
       <r>    9.7339    0.3800 </r>
       <r>    9.8934   -0.0179 </r>
       <r>   10.1165   -0.0066 </r>
       <r>   10.2341   -0.0006 </r>
       <r>   10.8338   -0.0000 </r>
       <r>   11.1300   -0.0000 </r>
       <r>   11.2005   -0.0000 </r>
       <r>   11.4235   -0.0000 </r>
       <r>   11.5067   -0.0000 </r>
       <r>   11.6345   -0.0000 </r>
       <r>   11.7527   -0.0000 </r>
       <r>   11.8599   -0.0000 </r>
       <r>   11.8941   -0.0000 </r>
       <r>   11.9547   -0.0000 </r>
       <r>   12.0427   -0.0000 </r>
       <r>   12.5286   -0.0000 </r>
       <r>   12.8826   -0.0000 </r>
       <r>   13.2880   -0.0000 </r>
       <r>   13.4396   -0.0000 </r>
       <r>   13.8259   -0.0000 </r>
       <r>   13.8828   -0.0000 </r>
      </set>
      <set comment="kpoint 31">
       <r>   -2.4062    1.0000 </r>
       <r>   -0.5239    1.0000 </r>
       <r>    0.0090    1.0000 </r>
       <r>    0.0747    1.0000 </r>
       <r>    0.3490    1.0000 </r>
       <r>    0.6453    1.0000 </r>
       <r>    1.1179    1.0000 </r>
       <r>    1.3721    1.0000 </r>
       <r>    1.4326    1.0000 </r>
       <r>    1.6919    1.0000 </r>
       <r>    1.7378    1.0000 </r>
       <r>    2.2648    1.0000 </r>
       <r>    2.5148    1.0000 </r>
       <r>    2.5425    1.0000 </r>
       <r>    3.5567    1.0000 </r>
       <r>    4.0169    1.0000 </r>
       <r>    4.0946    1.0000 </r>
       <r>    5.0951    1.0000 </r>
       <r>    5.1170    1.0000 </r>
       <r>    5.1410    1.0000 </r>
       <r>    6.0470    1.0000 </r>
       <r>    6.0678    1.0000 </r>
       <r>    6.2538    1.0000 </r>
       <r>    6.9452    1.0000 </r>
       <r>    6.9746    1.0000 </r>
       <r>    7.0192    1.0000 </r>
       <r>    7.0633    1.0000 </r>
       <r>    7.1358    1.0000 </r>
       <r>    7.2257    1.0000 </r>
       <r>    7.3288    1.0000 </r>
       <r>    7.5223    1.0000 </r>
       <r>    7.6947    1.0000 </r>
       <r>    7.8152    1.0000 </r>
       <r>    7.9090    1.0000 </r>
       <r>    8.1346    1.0000 </r>
       <r>    8.1501    1.0000 </r>
       <r>    8.6866    1.0000 </r>
       <r>    8.7453    1.0000 </r>
       <r>    8.8162    1.0000 </r>
       <r>    8.8510    1.0000 </r>
       <r>    9.2703    1.0044 </r>
       <r>    9.3063    1.0081 </r>
       <r>    9.7006    0.5195 </r>
       <r>    9.7584    0.2836 </r>
       <r>    9.8594    0.0178 </r>
       <r>   10.1720   -0.0024 </r>
       <r>   10.2308   -0.0006 </r>
       <r>   10.8342   -0.0000 </r>
       <r>   11.1395   -0.0000 </r>
       <r>   11.1692   -0.0000 </r>
       <r>   11.4208   -0.0000 </r>
       <r>   11.5014   -0.0000 </r>
       <r>   11.6553   -0.0000 </r>
       <r>   11.7386   -0.0000 </r>
       <r>   11.8375   -0.0000 </r>
       <r>   11.8915   -0.0000 </r>
       <r>   11.9647   -0.0000 </r>
       <r>   12.0296   -0.0000 </r>
       <r>   12.5458   -0.0000 </r>
       <r>   12.8892   -0.0000 </r>
       <r>   13.3406   -0.0000 </r>
       <r>   13.3793   -0.0000 </r>
       <r>   13.8037   -0.0000 </r>
       <r>   13.8846   -0.0000 </r>
      </set>
      <set comment="kpoint 32">
       <r>   -2.4069    1.0000 </r>
       <r>   -0.5124    1.0000 </r>
       <r>   -0.0229    1.0000 </r>
       <r>    0.1068    1.0000 </r>
       <r>    0.3552    1.0000 </r>
       <r>    0.6059    1.0000 </r>
       <r>    1.1170    1.0000 </r>
       <r>    1.3797    1.0000 </r>
       <r>    1.4554    1.0000 </r>
       <r>    1.6512    1.0000 </r>
       <r>    1.7964    1.0000 </r>
       <r>    2.2489    1.0000 </r>
       <r>    2.4663    1.0000 </r>
       <r>    2.5722    1.0000 </r>
       <r>    3.5639    1.0000 </r>
       <r>    3.9920    1.0000 </r>
       <r>    4.1504    1.0000 </r>
       <r>    5.0371    1.0000 </r>
       <r>    5.0900    1.0000 </r>
       <r>    5.1829    1.0000 </r>
       <r>    6.0102    1.0000 </r>
       <r>    6.0933    1.0000 </r>
       <r>    6.2881    1.0000 </r>
       <r>    6.9066    1.0000 </r>
       <r>    6.9847    1.0000 </r>
       <r>    7.0190    1.0000 </r>
       <r>    7.0982    1.0000 </r>
       <r>    7.1743    1.0000 </r>
       <r>    7.2446    1.0000 </r>
       <r>    7.3214    1.0000 </r>
       <r>    7.4941    1.0000 </r>
       <r>    7.6911    1.0000 </r>
       <r>    7.8019    1.0000 </r>
       <r>    7.8853    1.0000 </r>
       <r>    8.0540    1.0000 </r>
       <r>    8.2099    1.0000 </r>
       <r>    8.6566    1.0000 </r>
       <r>    8.7840    1.0000 </r>
       <r>    8.8235    1.0000 </r>
       <r>    8.8535    1.0000 </r>
       <r>    9.2567    1.0034 </r>
       <r>    9.3317    1.0120 </r>
       <r>    9.6906    0.5617 </r>
       <r>    9.7499    0.3163 </r>
       <r>    9.8717    0.0022 </r>
       <r>   10.1381   -0.0045 </r>
       <r>   10.2432   -0.0005 </r>
       <r>   10.8189   -0.0000 </r>
       <r>   11.1315   -0.0000 </r>
       <r>   11.1991   -0.0000 </r>
       <r>   11.4411   -0.0000 </r>
       <r>   11.5145   -0.0000 </r>
       <r>   11.6514   -0.0000 </r>
       <r>   11.7633   -0.0000 </r>
       <r>   11.8303   -0.0000 </r>
       <r>   11.8921   -0.0000 </r>
       <r>   11.9380   -0.0000 </r>
       <r>   12.0671   -0.0000 </r>
       <r>   12.5168   -0.0000 </r>
       <r>   12.8796   -0.0000 </r>
       <r>   13.3047   -0.0000 </r>
       <r>   13.4296   -0.0000 </r>
       <r>   13.8292   -0.0000 </r>
       <r>   13.8949   -0.0000 </r>
      </set>
      <set comment="kpoint 33">
       <r>   -2.4065    1.0000 </r>
       <r>   -0.5203    1.0000 </r>
       <r>    0.0037    1.0000 </r>
       <r>    0.0952    1.0000 </r>
       <r>    0.3205    1.0000 </r>
       <r>    0.6505    1.0000 </r>
       <r>    1.1152    1.0000 </r>
       <r>    1.3572    1.0000 </r>
       <r>    1.4492    1.0000 </r>
       <r>    1.6781    1.0000 </r>
       <r>    1.7655    1.0000 </r>
       <r>    2.2681    1.0000 </r>
       <r>    2.4670    1.0000 </r>
       <r>    2.5788    1.0000 </r>
       <r>    3.5556    1.0000 </r>
       <r>    4.0171    1.0000 </r>
       <r>    4.1150    1.0000 </r>
       <r>    5.0523    1.0000 </r>
       <r>    5.0966    1.0000 </r>
       <r>    5.1587    1.0000 </r>
       <r>    6.0208    1.0000 </r>
       <r>    6.1027    1.0000 </r>
       <r>    6.2649    1.0000 </r>
       <r>    6.9332    1.0000 </r>
       <r>    6.9938    1.0000 </r>
       <r>    7.0290    1.0000 </r>
       <r>    7.1084    1.0000 </r>
       <r>    7.1392    1.0000 </r>
       <r>    7.2331    1.0000 </r>
       <r>    7.3087    1.0000 </r>
       <r>    7.5097    1.0000 </r>
       <r>    7.7149    1.0000 </r>
       <r>    7.8284    1.0000 </r>
       <r>    7.8648    1.0000 </r>
       <r>    8.0778    1.0000 </r>
       <r>    8.1823    1.0000 </r>
       <r>    8.6657    1.0000 </r>
       <r>    8.7093    1.0000 </r>
       <r>    8.8089    1.0000 </r>
       <r>    8.8997    1.0000 </r>
       <r>    9.2582    1.0035 </r>
       <r>    9.3212    1.0103 </r>
       <r>    9.6851    0.5847 </r>
       <r>    9.7304    0.3944 </r>
       <r>    9.9140   -0.0291 </r>
       <r>   10.1666   -0.0026 </r>
       <r>   10.2457   -0.0004 </r>
       <r>   10.8162   -0.0000 </r>
       <r>   11.1144   -0.0000 </r>
       <r>   11.1904   -0.0000 </r>
       <r>   11.4167   -0.0000 </r>
       <r>   11.5043   -0.0000 </r>
       <r>   11.6861   -0.0000 </r>
       <r>   11.7514   -0.0000 </r>
       <r>   11.8287   -0.0000 </r>
       <r>   11.8854   -0.0000 </r>
       <r>   11.9675   -0.0000 </r>
       <r>   12.0355   -0.0000 </r>
       <r>   12.5303   -0.0000 </r>
       <r>   12.8869   -0.0000 </r>
       <r>   13.3070   -0.0000 </r>
       <r>   13.4243   -0.0000 </r>
       <r>   13.8169   -0.0000 </r>
       <r>   13.8738   -0.0000 </r>
      </set>
      <set comment="kpoint 34">
       <r>   -2.4066    1.0000 </r>
       <r>   -0.5066    1.0000 </r>
       <r>   -0.0802    1.0000 </r>
       <r>    0.1717    1.0000 </r>
       <r>    0.3252    1.0000 </r>
       <r>    0.6435    1.0000 </r>
       <r>    1.1246    1.0000 </r>
       <r>    1.2861    1.0000 </r>
       <r>    1.5242    1.0000 </r>
       <r>    1.6327    1.0000 </r>
       <r>    1.8234    1.0000 </r>
       <r>    2.2709    1.0000 </r>
       <r>    2.3802    1.0000 </r>
       <r>    2.6329    1.0000 </r>
       <r>    3.5556    1.0000 </r>
       <r>    3.9391    1.0000 </r>
       <r>    4.2097    1.0000 </r>
       <r>    4.9698    1.0000 </r>
       <r>    5.1075    1.0000 </r>
       <r>    5.2398    1.0000 </r>
       <r>    5.9737    1.0000 </r>
       <r>    6.1376    1.0000 </r>
       <r>    6.2703    1.0000 </r>
       <r>    6.8721    1.0000 </r>
       <r>    6.9143    1.0000 </r>
       <r>    7.0342    1.0000 </r>
       <r>    7.1126    1.0000 </r>
       <r>    7.1941    1.0000 </r>
       <r>    7.2681    1.0000 </r>
       <r>    7.3438    1.0000 </r>
       <r>    7.5208    1.0000 </r>
       <r>    7.7255    1.0000 </r>
       <r>    7.7761    1.0000 </r>
       <r>    7.8880    1.0000 </r>
       <r>    7.9819    1.0000 </r>
       <r>    8.2739    1.0000 </r>
       <r>    8.6152    1.0000 </r>
       <r>    8.7629    1.0000 </r>
       <r>    8.8296    1.0000 </r>
       <r>    8.9057    1.0000 </r>
       <r>    9.2336    1.0021 </r>
       <r>    9.3485    1.0151 </r>
       <r>    9.6902    0.5632 </r>
       <r>    9.7792    0.2095 </r>
       <r>    9.8524    0.0282 </r>
       <r>   10.0718   -0.0132 </r>
       <r>   10.3136   -0.0001 </r>
       <r>   10.8231   -0.0000 </r>
       <r>   11.1154   -0.0000 </r>
       <r>   11.1910   -0.0000 </r>
       <r>   11.4304   -0.0000 </r>
       <r>   11.5167   -0.0000 </r>
       <r>   11.5910   -0.0000 </r>
       <r>   11.7579   -0.0000 </r>
       <r>   11.8617   -0.0000 </r>
       <r>   11.8930   -0.0000 </r>
       <r>   11.9218   -0.0000 </r>
       <r>   12.0954   -0.0000 </r>
       <r>   12.5293   -0.0000 </r>
       <r>   12.8822   -0.0000 </r>
       <r>   13.2482   -0.0000 </r>
       <r>   13.4721   -0.0000 </r>
       <r>   13.8115   -0.0000 </r>
       <r>   13.9172   -0.0000 </r>
      </set>
      <set comment="kpoint 35">
       <r>   -2.4064    1.0000 </r>
       <r>   -0.5122    1.0000 </r>
       <r>   -0.0232    1.0000 </r>
       <r>    0.1106    1.0000 </r>
       <r>    0.3175    1.0000 </r>
       <r>    0.6411    1.0000 </r>
       <r>    1.1204    1.0000 </r>
       <r>    1.3328    1.0000 </r>
       <r>    1.5087    1.0000 </r>
       <r>    1.6765    1.0000 </r>
       <r>    1.7711    1.0000 </r>
       <r>    2.2697    1.0000 </r>
       <r>    2.4310    1.0000 </r>
       <r>    2.5776    1.0000 </r>
       <r>    3.5625    1.0000 </r>
       <r>    4.0004    1.0000 </r>
       <r>    4.1288    1.0000 </r>
       <r>    5.0205    1.0000 </r>
       <r>    5.1250    1.0000 </r>
       <r>    5.1749    1.0000 </r>
       <r>    6.0150    1.0000 </r>
       <r>    6.0906    1.0000 </r>
       <r>    6.2597    1.0000 </r>
       <r>    6.9381    1.0000 </r>
       <r>    7.0000    1.0000 </r>
       <r>    7.0453    1.0000 </r>
       <r>    7.0902    1.0000 </r>
       <r>    7.1585    1.0000 </r>
       <r>    7.2262    1.0000 </r>
       <r>    7.2828    1.0000 </r>
       <r>    7.5180    1.0000 </r>
       <r>    7.7109    1.0000 </r>
       <r>    7.8343    1.0000 </r>
       <r>    7.8627    1.0000 </r>
       <r>    8.0526    1.0000 </r>
       <r>    8.1998    1.0000 </r>
       <r>    8.6920    1.0000 </r>
       <r>    8.7702    1.0000 </r>
       <r>    8.7870    1.0000 </r>
       <r>    8.8748    1.0000 </r>
       <r>    9.2391    1.0024 </r>
       <r>    9.3289    1.0115 </r>
       <r>    9.7039    0.5055 </r>
       <r>    9.7655    0.2574 </r>
       <r>    9.8718    0.0020 </r>
       <r>   10.1413   -0.0043 </r>
       <r>   10.2522   -0.0004 </r>
       <r>   10.8250   -0.0000 </r>
       <r>   11.1219   -0.0000 </r>
       <r>   11.1873   -0.0000 </r>
       <r>   11.4039   -0.0000 </r>
       <r>   11.4808   -0.0000 </r>
       <r>   11.6454   -0.0000 </r>
       <r>   11.7879   -0.0000 </r>
       <r>   11.8289   -0.0000 </r>
       <r>   11.9008   -0.0000 </r>
       <r>   11.9432   -0.0000 </r>
       <r>   12.0536   -0.0000 </r>
       <r>   12.5478   -0.0000 </r>
       <r>   12.8794   -0.0000 </r>
       <r>   13.2853   -0.0000 </r>
       <r>   13.4416   -0.0000 </r>
       <r>   13.8347   -0.0000 </r>
       <r>   13.8536   -0.0000 </r>
      </set>
      <set comment="kpoint 36">
       <r>   -2.4069    1.0000 </r>
       <r>   -0.5065    1.0000 </r>
       <r>   -0.0276    1.0000 </r>
       <r>    0.1042    1.0000 </r>
       <r>    0.3455    1.0000 </r>
       <r>    0.6027    1.0000 </r>
       <r>    1.1243    1.0000 </r>
       <r>    1.3669    1.0000 </r>
       <r>    1.5060    1.0000 </r>
       <r>    1.6474    1.0000 </r>
       <r>    1.7896    1.0000 </r>
       <r>    2.2342    1.0000 </r>
       <r>    2.4668    1.0000 </r>
       <r>    2.5603    1.0000 </r>
       <r>    3.5699    1.0000 </r>
       <r>    3.9988    1.0000 </r>
       <r>    4.1331    1.0000 </r>
       <r>    5.0246    1.0000 </r>
       <r>    5.1139    1.0000 </r>
       <r>    5.1897    1.0000 </r>
       <r>    6.0076    1.0000 </r>
       <r>    6.0972    1.0000 </r>
       <r>    6.2725    1.0000 </r>
       <r>    6.9088    1.0000 </r>
       <r>    6.9870    1.0000 </r>
       <r>    7.0556    1.0000 </r>
       <r>    7.1035    1.0000 </r>
       <r>    7.1524    1.0000 </r>
       <r>    7.2404    1.0000 </r>
       <r>    7.2957    1.0000 </r>
       <r>    7.5038    1.0000 </r>
       <r>    7.7392    1.0000 </r>
       <r>    7.8030    1.0000 </r>
       <r>    7.8271    1.0000 </r>
       <r>    8.0539    1.0000 </r>
       <r>    8.2064    1.0000 </r>
       <r>    8.6761    1.0000 </r>
       <r>    8.7712    1.0000 </r>
       <r>    8.8124    1.0000 </r>
       <r>    8.8828    1.0000 </r>
       <r>    9.2400    1.0024 </r>
       <r>    9.3281    1.0114 </r>
       <r>    9.6908    0.5609 </r>
       <r>    9.7669    0.2524 </r>
       <r>    9.8691    0.0052 </r>
       <r>   10.1328   -0.0050 </r>
       <r>   10.2377   -0.0005 </r>
       <r>   10.8359   -0.0000 </r>
       <r>   11.1434   -0.0000 </r>
       <r>   11.1984   -0.0000 </r>
       <r>   11.4200   -0.0000 </r>
       <r>   11.5174   -0.0000 </r>
       <r>   11.6527   -0.0000 </r>
       <r>   11.7385   -0.0000 </r>
       <r>   11.8286   -0.0000 </r>
       <r>   11.8895   -0.0000 </r>
       <r>   11.9816   -0.0000 </r>
       <r>   12.0529   -0.0000 </r>
       <r>   12.5222   -0.0000 </r>
       <r>   12.8746   -0.0000 </r>
       <r>   13.3070   -0.0000 </r>
       <r>   13.4204   -0.0000 </r>
       <r>   13.8316   -0.0000 </r>
       <r>   13.8751   -0.0000 </r>
      </set>
      <set comment="kpoint 37">
       <r>   -2.4067    1.0000 </r>
       <r>   -0.5185    1.0000 </r>
       <r>    0.0083    1.0000 </r>
       <r>    0.0771    1.0000 </r>
       <r>    0.3317    1.0000 </r>
       <r>    0.6626    1.0000 </r>
       <r>    1.1097    1.0000 </r>
       <r>    1.3527    1.0000 </r>
       <r>    1.4450    1.0000 </r>
       <r>    1.6862    1.0000 </r>
       <r>    1.7474    1.0000 </r>
       <r>    2.2749    1.0000 </r>
       <r>    2.5127    1.0000 </r>
       <r>    2.5404    1.0000 </r>
       <r>    3.5543    1.0000 </r>
       <r>    4.0234    1.0000 </r>
       <r>    4.0906    1.0000 </r>
       <r>    5.0878    1.0000 </r>
       <r>    5.1102    1.0000 </r>
       <r>    5.1484    1.0000 </r>
       <r>    6.0459    1.0000 </r>
       <r>    6.0698    1.0000 </r>
       <r>    6.2661    1.0000 </r>
       <r>    6.9350    1.0000 </r>
       <r>    7.0041    1.0000 </r>
       <r>    7.0405    1.0000 </r>
       <r>    7.0766    1.0000 </r>
       <r>    7.1436    1.0000 </r>
       <r>    7.2046    1.0000 </r>
       <r>    7.2984    1.0000 </r>
       <r>    7.5168    1.0000 </r>
       <r>    7.7218    1.0000 </r>
       <r>    7.8004    1.0000 </r>
       <r>    7.8874    1.0000 </r>
       <r>    8.1102    1.0000 </r>
       <r>    8.1537    1.0000 </r>
       <r>    8.6667    1.0000 </r>
       <r>    8.7590    1.0000 </r>
       <r>    8.8085    1.0000 </r>
       <r>    8.8542    1.0000 </r>
       <r>    9.2723    1.0045 </r>
       <r>    9.3132    1.0091 </r>
       <r>    9.6911    0.5597 </r>
       <r>    9.7533    0.3031 </r>
       <r>    9.8891   -0.0146 </r>
       <r>   10.1713   -0.0024 </r>
       <r>   10.2296   -0.0007 </r>
       <r>   10.8257   -0.0000 </r>
       <r>   11.1439   -0.0000 </r>
       <r>   11.1800   -0.0000 </r>
       <r>   11.4042   -0.0000 </r>
       <r>   11.5099   -0.0000 </r>
       <r>   11.6849   -0.0000 </r>
       <r>   11.7457   -0.0000 </r>
       <r>   11.8407   -0.0000 </r>
       <r>   11.8805   -0.0000 </r>
       <r>   11.9496   -0.0000 </r>
       <r>   12.0436   -0.0000 </r>
       <r>   12.5407   -0.0000 </r>
       <r>   12.8772   -0.0000 </r>
       <r>   13.3463   -0.0000 </r>
       <r>   13.3842   -0.0000 </r>
       <r>   13.7795   -0.0000 </r>
       <r>   13.8835   -0.0000 </r>
      </set>
      <set comment="kpoint 38">
       <r>   -2.4071    1.0000 </r>
       <r>   -0.5109    1.0000 </r>
       <r>   -0.0190    1.0000 </r>
       <r>    0.1125    1.0000 </r>
       <r>    0.3284    1.0000 </r>
       <r>    0.6254    1.0000 </r>
       <r>    1.1388    1.0000 </r>
       <r>    1.3247    1.0000 </r>
       <r>    1.4738    1.0000 </r>
       <r>    1.6607    1.0000 </r>
       <r>    1.7889    1.0000 </r>
       <r>    2.2696    1.0000 </r>
       <r>    2.4510    1.0000 </r>
       <r>    2.5765    1.0000 </r>
       <r>    3.5627    1.0000 </r>
       <r>    3.9956    1.0000 </r>
       <r>    4.1462    1.0000 </r>
       <r>    5.0329    1.0000 </r>
       <r>    5.0874    1.0000 </r>
       <r>    5.1908    1.0000 </r>
       <r>    6.0054    1.0000 </r>
       <r>    6.0972    1.0000 </r>
       <r>    6.2955    1.0000 </r>
       <r>    6.9065    1.0000 </r>
       <r>    6.9876    1.0000 </r>
       <r>    7.0377    1.0000 </r>
       <r>    7.1019    1.0000 </r>
       <r>    7.1722    1.0000 </r>
       <r>    7.2348    1.0000 </r>
       <r>    7.3296    1.0000 </r>
       <r>    7.4723    1.0000 </r>
       <r>    7.7284    1.0000 </r>
       <r>    7.7712    1.0000 </r>
       <r>    7.8707    1.0000 </r>
       <r>    8.0484    1.0000 </r>
       <r>    8.2129    1.0000 </r>
       <r>    8.6599    1.0000 </r>
       <r>    8.7634    1.0000 </r>
       <r>    8.8085    1.0000 </r>
       <r>    8.8679    1.0000 </r>
       <r>    9.2575    1.0034 </r>
       <r>    9.3315    1.0119 </r>
       <r>    9.6572    0.6968 </r>
       <r>    9.7773    0.2160 </r>
       <r>    9.9125   -0.0285 </r>
       <r>   10.1230   -0.0059 </r>
       <r>   10.2384   -0.0005 </r>
       <r>   10.8258   -0.0000 </r>
       <r>   11.1328   -0.0000 </r>
       <r>   11.1944   -0.0000 </r>
       <r>   11.4238   -0.0000 </r>
       <r>   11.5172   -0.0000 </r>
       <r>   11.6584   -0.0000 </r>
       <r>   11.7791   -0.0000 </r>
       <r>   11.8581   -0.0000 </r>
       <r>   11.9065   -0.0000 </r>
       <r>   11.9374   -0.0000 </r>
       <r>   12.0493   -0.0000 </r>
       <r>   12.4903   -0.0000 </r>
       <r>   12.8845   -0.0000 </r>
       <r>   13.3039   -0.0000 </r>
       <r>   13.4266   -0.0000 </r>
       <r>   13.8214   -0.0000 </r>
       <r>   13.8965   -0.0000 </r>
      </set>
      <set comment="kpoint 39">
       <r>   -2.4061    1.0000 </r>
       <r>   -0.5244    1.0000 </r>
       <r>   -0.0209    1.0000 </r>
       <r>    0.1183    1.0000 </r>
       <r>    0.3445    1.0000 </r>
       <r>    0.6320    1.0000 </r>
       <r>    1.1048    1.0000 </r>
       <r>    1.3548    1.0000 </r>
       <r>    1.4927    1.0000 </r>
       <r>    1.6398    1.0000 </r>
       <r>    1.7778    1.0000 </r>
       <r>    2.2588    1.0000 </r>
       <r>    2.4551    1.0000 </r>
       <r>    2.5957    1.0000 </r>
       <r>    3.5567    1.0000 </r>
       <r>    3.9954    1.0000 </r>
       <r>    4.1385    1.0000 </r>
       <r>    5.0352    1.0000 </r>
       <r>    5.0975    1.0000 </r>
       <r>    5.1740    1.0000 </r>
       <r>    6.0108    1.0000 </r>
       <r>    6.0990    1.0000 </r>
       <r>    6.2716    1.0000 </r>
       <r>    6.9305    1.0000 </r>
       <r>    6.9833    1.0000 </r>
       <r>    7.0066    1.0000 </r>
       <r>    7.1143    1.0000 </r>
       <r>    7.1572    1.0000 </r>
       <r>    7.2247    1.0000 </r>
       <r>    7.3400    1.0000 </r>
       <r>    7.4984    1.0000 </r>
       <r>    7.7315    1.0000 </r>
       <r>    7.8158    1.0000 </r>
       <r>    7.8750    1.0000 </r>
       <r>    8.0405    1.0000 </r>
       <r>    8.2087    1.0000 </r>
       <r>    8.6659    1.0000 </r>
       <r>    8.7540    1.0000 </r>
       <r>    8.8200    1.0000 </r>
       <r>    8.8630    1.0000 </r>
       <r>    9.2357    1.0022 </r>
       <r>    9.3260    1.0110 </r>
       <r>    9.6796    0.6075 </r>
       <r>    9.7831    0.1966 </r>
       <r>    9.8726    0.0011 </r>
       <r>   10.1474   -0.0038 </r>
       <r>   10.2626   -0.0003 </r>
       <r>   10.8277   -0.0000 </r>
       <r>   11.1206   -0.0000 </r>
       <r>   11.1655   -0.0000 </r>
       <r>   11.4209   -0.0000 </r>
       <r>   11.5034   -0.0000 </r>
       <r>   11.6409   -0.0000 </r>
       <r>   11.7435   -0.0000 </r>
       <r>   11.8654   -0.0000 </r>
       <r>   11.9029   -0.0000 </r>
       <r>   11.9591   -0.0000 </r>
       <r>   12.0567   -0.0000 </r>
       <r>   12.5063   -0.0000 </r>
       <r>   12.8961   -0.0000 </r>
       <r>   13.2882   -0.0000 </r>
       <r>   13.4369   -0.0000 </r>
       <r>   13.8300   -0.0000 </r>
       <r>   13.8876   -0.0000 </r>
      </set>
      <set comment="kpoint 40">
       <r>   -2.4063    1.0000 </r>
       <r>   -0.5136    1.0000 </r>
       <r>   -0.0772    1.0000 </r>
       <r>    0.1660    1.0000 </r>
       <r>    0.3472    1.0000 </r>
       <r>    0.6346    1.0000 </r>
       <r>    1.1289    1.0000 </r>
       <r>    1.2912    1.0000 </r>
       <r>    1.5247    1.0000 </r>
       <r>    1.6049    1.0000 </r>
       <r>    1.8324    1.0000 </r>
       <r>    2.2593    1.0000 </r>
       <r>    2.3981    1.0000 </r>
       <r>    2.6329    1.0000 </r>
       <r>    3.5558    1.0000 </r>
       <r>    3.9375    1.0000 </r>
       <r>    4.2067    1.0000 </r>
       <r>    4.9728    1.0000 </r>
       <r>    5.1029    1.0000 </r>
       <r>    5.2425    1.0000 </r>
       <r>    5.9758    1.0000 </r>
       <r>    6.1376    1.0000 </r>
       <r>    6.2722    1.0000 </r>
       <r>    6.8704    1.0000 </r>
       <r>    6.9165    1.0000 </r>
       <r>    7.0518    1.0000 </r>
       <r>    7.0891    1.0000 </r>
       <r>    7.2017    1.0000 </r>
       <r>    7.2789    1.0000 </r>
       <r>    7.3567    1.0000 </r>
       <r>    7.5128    1.0000 </r>
       <r>    7.7150    1.0000 </r>
       <r>    7.7950    1.0000 </r>
       <r>    7.8606    1.0000 </r>
       <r>    7.9830    1.0000 </r>
       <r>    8.2652    1.0000 </r>
       <r>    8.6123    1.0000 </r>
       <r>    8.7615    1.0000 </r>
       <r>    8.8133    1.0000 </r>
       <r>    8.9199    1.0000 </r>
       <r>    9.2359    1.0022 </r>
       <r>    9.3497    1.0153 </r>
       <r>    9.6897    0.5654 </r>
       <r>    9.7529    0.3044 </r>
       <r>    9.8865   -0.0124 </r>
       <r>   10.0826   -0.0113 </r>
       <r>   10.3033   -0.0001 </r>
       <r>   10.8269   -0.0000 </r>
       <r>   11.0988   -0.0000 </r>
       <r>   11.2160   -0.0000 </r>
       <r>   11.4296   -0.0000 </r>
       <r>   11.4965   -0.0000 </r>
       <r>   11.5857   -0.0000 </r>
       <r>   11.7968   -0.0000 </r>
       <r>   11.8494   -0.0000 </r>
       <r>   11.8993   -0.0000 </r>
       <r>   11.9412   -0.0000 </r>
       <r>   12.0798   -0.0000 </r>
       <r>   12.5140   -0.0000 </r>
       <r>   12.8840   -0.0000 </r>
       <r>   13.2470   -0.0000 </r>
       <r>   13.4749   -0.0000 </r>
       <r>   13.8037   -0.0000 </r>
       <r>   13.9221   -0.0000 </r>
      </set>
      <set comment="kpoint 41">
       <r>   -2.1330    1.0000 </r>
       <r>   -0.7873    1.0000 </r>
       <r>   -0.5051    1.0000 </r>
       <r>   -0.2272    1.0000 </r>
       <r>   -0.1743    1.0000 </r>
       <r>    0.3929    1.0000 </r>
       <r>    1.6160    1.0000 </r>
       <r>    1.6973    1.0000 </r>
       <r>    1.9302    1.0000 </r>
       <r>    2.4602    1.0000 </r>
       <r>    2.5081    1.0000 </r>
       <r>    2.7623    1.0000 </r>
       <r>    2.7908    1.0000 </r>
       <r>    3.0952    1.0000 </r>
       <r>    3.2521    1.0000 </r>
       <r>    3.3165    1.0000 </r>
       <r>    4.3308    1.0000 </r>
       <r>    4.3769    1.0000 </r>
       <r>    4.8189    1.0000 </r>
       <r>    5.0273    1.0000 </r>
       <r>    5.3305    1.0000 </r>
       <r>    5.5177    1.0000 </r>
       <r>    5.5833    1.0000 </r>
       <r>    6.3230    1.0000 </r>
       <r>    6.5437    1.0000 </r>
       <r>    6.5689    1.0000 </r>
       <r>    6.8664    1.0000 </r>
       <r>    6.9399    1.0000 </r>
       <r>    7.0424    1.0000 </r>
       <r>    7.4306    1.0000 </r>
       <r>    7.4614    1.0000 </r>
       <r>    7.5428    1.0000 </r>
       <r>    8.0278    1.0000 </r>
       <r>    8.0387    1.0000 </r>
       <r>    8.2874    1.0000 </r>
       <r>    8.3536    1.0000 </r>
       <r>    8.8587    1.0000 </r>
       <r>    8.9010    1.0000 </r>
       <r>    9.0767    1.0000 </r>
       <r>    9.4430    1.0344 </r>
       <r>    9.5246    1.0119 </r>
       <r>    9.7497    0.3168 </r>
       <r>    9.8693    0.0050 </r>
       <r>    9.8867   -0.0127 </r>
       <r>    9.9186   -0.0307 </r>
       <r>   10.0066   -0.0273 </r>
       <r>   10.0532   -0.0169 </r>
       <r>   10.0885   -0.0104 </r>
       <r>   11.8603   -0.0000 </r>
       <r>   11.9159   -0.0000 </r>
       <r>   12.0390   -0.0000 </r>
       <r>   12.3890   -0.0000 </r>
       <r>   12.4522   -0.0000 </r>
       <r>   12.4976   -0.0000 </r>
       <r>   12.5352   -0.0000 </r>
       <r>   12.9316   -0.0000 </r>
       <r>   12.9927   -0.0000 </r>
       <r>   13.0380   -0.0000 </r>
       <r>   13.0560   -0.0000 </r>
       <r>   13.2061   -0.0000 </r>
       <r>   13.5887   -0.0000 </r>
       <r>   13.6141   -0.0000 </r>
       <r>   13.6555   -0.0000 </r>
       <r>   13.6869   -0.0000 </r>
      </set>
      <set comment="kpoint 42">
       <r>   -2.1323    1.0000 </r>
       <r>   -0.7910    1.0000 </r>
       <r>   -0.4986    1.0000 </r>
       <r>   -0.2473    1.0000 </r>
       <r>   -0.1539    1.0000 </r>
       <r>    0.3801    1.0000 </r>
       <r>    1.6292    1.0000 </r>
       <r>    1.7131    1.0000 </r>
       <r>    1.9252    1.0000 </r>
       <r>    2.4355    1.0000 </r>
       <r>    2.5189    1.0000 </r>
       <r>    2.7204    1.0000 </r>
       <r>    2.8394    1.0000 </r>
       <r>    3.0873    1.0000 </r>
       <r>    3.2453    1.0000 </r>
       <r>    3.3442    1.0000 </r>
       <r>    4.2857    1.0000 </r>
       <r>    4.3847    1.0000 </r>
       <r>    4.8227    1.0000 </r>
       <r>    5.0367    1.0000 </r>
       <r>    5.3025    1.0000 </r>
       <r>    5.5222    1.0000 </r>
       <r>    5.6047    1.0000 </r>
       <r>    6.3120    1.0000 </r>
       <r>    6.5302    1.0000 </r>
       <r>    6.5735    1.0000 </r>
       <r>    6.8813    1.0000 </r>
       <r>    6.9255    1.0000 </r>
       <r>    7.0482    1.0000 </r>
       <r>    7.4132    1.0000 </r>
       <r>    7.4902    1.0000 </r>
       <r>    7.5510    1.0000 </r>
       <r>    8.0259    1.0000 </r>
       <r>    8.0622    1.0000 </r>
       <r>    8.2803    1.0000 </r>
       <r>    8.3900    1.0000 </r>
       <r>    8.8103    1.0000 </r>
       <r>    8.9103    1.0000 </r>
       <r>    9.0772    1.0000 </r>
       <r>    9.4433    1.0345 </r>
       <r>    9.5179    1.0173 </r>
       <r>    9.7296    0.3977 </r>
       <r>    9.8375    0.0543 </r>
       <r>    9.9007   -0.0226 </r>
       <r>    9.9678   -0.0344 </r>
       <r>    9.9955   -0.0297 </r>
       <r>   10.0462   -0.0183 </r>
       <r>   10.1001   -0.0087 </r>
       <r>   11.8579   -0.0000 </r>
       <r>   11.9115   -0.0000 </r>
       <r>   12.0252   -0.0000 </r>
       <r>   12.3842   -0.0000 </r>
       <r>   12.4375   -0.0000 </r>
       <r>   12.4913   -0.0000 </r>
       <r>   12.5441   -0.0000 </r>
       <r>   12.9510   -0.0000 </r>
       <r>   12.9770   -0.0000 </r>
       <r>   13.0516   -0.0000 </r>
       <r>   13.0877   -0.0000 </r>
       <r>   13.1997   -0.0000 </r>
       <r>   13.5485   -0.0000 </r>
       <r>   13.6419   -0.0000 </r>
       <r>   13.6601   -0.0000 </r>
       <r>   13.7217   -0.0000 </r>
      </set>
      <set comment="kpoint 43">
       <r>   -2.1351    1.0000 </r>
       <r>   -0.7859    1.0000 </r>
       <r>   -0.4688    1.0000 </r>
       <r>   -0.2771    1.0000 </r>
       <r>   -0.1413    1.0000 </r>
       <r>    0.3561    1.0000 </r>
       <r>    1.5993    1.0000 </r>
       <r>    1.7352    1.0000 </r>
       <r>    1.9455    1.0000 </r>
       <r>    2.4062    1.0000 </r>
       <r>    2.5389    1.0000 </r>
       <r>    2.7343    1.0000 </r>
       <r>    2.8472    1.0000 </r>
       <r>    3.0594    1.0000 </r>
       <r>    3.2208    1.0000 </r>
       <r>    3.3733    1.0000 </r>
       <r>    4.2661    1.0000 </r>
       <r>    4.4210    1.0000 </r>
       <r>    4.8278    1.0000 </r>
       <r>    5.0650    1.0000 </r>
       <r>    5.2979    1.0000 </r>
       <r>    5.4943    1.0000 </r>
       <r>    5.6314    1.0000 </r>
       <r>    6.2821    1.0000 </r>
       <r>    6.5220    1.0000 </r>
       <r>    6.5604    1.0000 </r>
       <r>    6.8664    1.0000 </r>
       <r>    6.9908    1.0000 </r>
       <r>    7.0435    1.0000 </r>
       <r>    7.3923    1.0000 </r>
       <r>    7.4698    1.0000 </r>
       <r>    7.5212    1.0000 </r>
       <r>    8.0168    1.0000 </r>
       <r>    8.0875    1.0000 </r>
       <r>    8.2456    1.0000 </r>
       <r>    8.4159    1.0000 </r>
       <r>    8.7880    1.0000 </r>
       <r>    8.9534    1.0000 </r>
       <r>    9.0729    1.0000 </r>
       <r>    9.4346    1.0333 </r>
       <r>    9.5646    0.9609 </r>
       <r>    9.7678    0.2490 </r>
       <r>    9.8365    0.0564 </r>
       <r>    9.8621    0.0141 </r>
       <r>    9.9365   -0.0347 </r>
       <r>    9.9857   -0.0317 </r>
       <r>   10.0312   -0.0217 </r>
       <r>   10.1191   -0.0063 </r>
       <r>   11.8687   -0.0000 </r>
       <r>   11.9140   -0.0000 </r>
       <r>   12.0276   -0.0000 </r>
       <r>   12.3775   -0.0000 </r>
       <r>   12.4421   -0.0000 </r>
       <r>   12.5081   -0.0000 </r>
       <r>   12.5852   -0.0000 </r>
       <r>   12.9357   -0.0000 </r>
       <r>   12.9735   -0.0000 </r>
       <r>   13.0196   -0.0000 </r>
       <r>   13.0941   -0.0000 </r>
       <r>   13.2327   -0.0000 </r>
       <r>   13.5715   -0.0000 </r>
       <r>   13.6158   -0.0000 </r>
       <r>   13.6292   -0.0000 </r>
       <r>   13.7018   -0.0000 </r>
      </set>
      <set comment="kpoint 44">
       <r>   -2.1322    1.0000 </r>
       <r>   -0.7908    1.0000 </r>
       <r>   -0.4871    1.0000 </r>
       <r>   -0.3239    1.0000 </r>
       <r>   -0.0751    1.0000 </r>
       <r>    0.3742    1.0000 </r>
       <r>    1.5445    1.0000 </r>
       <r>    1.8025    1.0000 </r>
       <r>    1.9533    1.0000 </r>
       <r>    2.3344    1.0000 </r>
       <r>    2.5701    1.0000 </r>
       <r>    2.6918    1.0000 </r>
       <r>    2.8882    1.0000 </r>
       <r>    3.0778    1.0000 </r>
       <r>    3.1644    1.0000 </r>
       <r>    3.4325    1.0000 </r>
       <r>    4.2056    1.0000 </r>
       <r>    4.4720    1.0000 </r>
       <r>    4.8215    1.0000 </r>
       <r>    5.0618    1.0000 </r>
       <r>    5.2984    1.0000 </r>
       <r>    5.4096    1.0000 </r>
       <r>    5.6977    1.0000 </r>
       <r>    6.3130    1.0000 </r>
       <r>    6.5094    1.0000 </r>
       <r>    6.5831    1.0000 </r>
       <r>    6.8071    1.0000 </r>
       <r>    7.0062    1.0000 </r>
       <r>    7.0716    1.0000 </r>
       <r>    7.3731    1.0000 </r>
       <r>    7.5087    1.0000 </r>
       <r>    7.5347    1.0000 </r>
       <r>    8.0011    1.0000 </r>
       <r>    8.0984    1.0000 </r>
       <r>    8.1978    1.0000 </r>
       <r>    8.4882    1.0000 </r>
       <r>    8.7300    1.0000 </r>
       <r>    8.9630    1.0000 </r>
       <r>    9.0961    1.0001 </r>
       <r>    9.3715    1.0199 </r>
       <r>    9.6213    0.8228 </r>
       <r>    9.7321    0.3876 </r>
       <r>    9.7824    0.1988 </r>
       <r>    9.8421    0.0457 </r>
       <r>    9.9333   -0.0342 </r>
       <r>   10.0160   -0.0252 </r>
       <r>   10.0813   -0.0115 </r>
       <r>   10.1426   -0.0042 </r>
       <r>   11.8393   -0.0000 </r>
       <r>   11.9325   -0.0000 </r>
       <r>   12.0269   -0.0000 </r>
       <r>   12.3079   -0.0000 </r>
       <r>   12.3663   -0.0000 </r>
       <r>   12.5715   -0.0000 </r>
       <r>   12.6266   -0.0000 </r>
       <r>   12.9499   -0.0000 </r>
       <r>   13.0082   -0.0000 </r>
       <r>   13.0297   -0.0000 </r>
       <r>   13.1165   -0.0000 </r>
       <r>   13.1962   -0.0000 </r>
       <r>   13.5093   -0.0000 </r>
       <r>   13.6029   -0.0000 </r>
       <r>   13.6244   -0.0000 </r>
       <r>   13.6680   -0.0000 </r>
      </set>
      <set comment="kpoint 45">
       <r>   -2.1347    1.0000 </r>
       <r>   -0.7747    1.0000 </r>
       <r>   -0.5094    1.0000 </r>
       <r>   -0.2406    1.0000 </r>
       <r>   -0.1430    1.0000 </r>
       <r>    0.3444    1.0000 </r>
       <r>    1.5945    1.0000 </r>
       <r>    1.7441    1.0000 </r>
       <r>    1.9691    1.0000 </r>
       <r>    2.4139    1.0000 </r>
       <r>    2.5511    1.0000 </r>
       <r>    2.6984    1.0000 </r>
       <r>    2.8198    1.0000 </r>
       <r>    3.0772    1.0000 </r>
       <r>    3.2252    1.0000 </r>
       <r>    3.3690    1.0000 </r>
       <r>    4.2569    1.0000 </r>
       <r>    4.4270    1.0000 </r>
       <r>    4.8317    1.0000 </r>
       <r>    5.0707    1.0000 </r>
       <r>    5.3062    1.0000 </r>
       <r>    5.4808    1.0000 </r>
       <r>    5.6215    1.0000 </r>
       <r>    6.3044    1.0000 </r>
       <r>    6.5160    1.0000 </r>
       <r>    6.5571    1.0000 </r>
       <r>    6.8519    1.0000 </r>
       <r>    6.9729    1.0000 </r>
       <r>    7.0923    1.0000 </r>
       <r>    7.3843    1.0000 </r>
       <r>    7.4598    1.0000 </r>
       <r>    7.5137    1.0000 </r>
       <r>    8.0136    1.0000 </r>
       <r>    8.0776    1.0000 </r>
       <r>    8.2632    1.0000 </r>
       <r>    8.4256    1.0000 </r>
       <r>    8.7993    1.0000 </r>
       <r>    8.9487    1.0000 </r>
       <r>    9.0721    1.0000 </r>
       <r>    9.4382    1.0338 </r>
       <r>    9.5672    0.9564 </r>
       <r>    9.7670    0.2518 </r>
       <r>    9.8179    0.0971 </r>
       <r>    9.8997   -0.0220 </r>
       <r>    9.9147   -0.0294 </r>
       <r>    9.9909   -0.0307 </r>
       <r>   10.0174   -0.0249 </r>
       <r>   10.1157   -0.0067 </r>
       <r>   11.8765   -0.0000 </r>
       <r>   11.9207   -0.0000 </r>
       <r>   12.0380   -0.0000 </r>
       <r>   12.3823   -0.0000 </r>
       <r>   12.4086   -0.0000 </r>
       <r>   12.4972   -0.0000 </r>
       <r>   12.5618   -0.0000 </r>
       <r>   12.9704   -0.0000 </r>
       <r>   12.9994   -0.0000 </r>
       <r>   13.0347   -0.0000 </r>
       <r>   13.0939   -0.0000 </r>
       <r>   13.1878   -0.0000 </r>
       <r>   13.5531   -0.0000 </r>
       <r>   13.6041   -0.0000 </r>
       <r>   13.6478   -0.0000 </r>
       <r>   13.6990   -0.0000 </r>
      </set>
      <set comment="kpoint 46">
       <r>   -2.1314    1.0000 </r>
       <r>   -0.7973    1.0000 </r>
       <r>   -0.4933    1.0000 </r>
       <r>   -0.2485    1.0000 </r>
       <r>   -0.1530    1.0000 </r>
       <r>    0.3758    1.0000 </r>
       <r>    1.6319    1.0000 </r>
       <r>    1.7181    1.0000 </r>
       <r>    1.9379    1.0000 </r>
       <r>    2.4334    1.0000 </r>
       <r>    2.5332    1.0000 </r>
       <r>    2.7170    1.0000 </r>
       <r>    2.8180    1.0000 </r>
       <r>    3.0838    1.0000 </r>
       <r>    3.2537    1.0000 </r>
       <r>    3.3281    1.0000 </r>
       <r>    4.2818    1.0000 </r>
       <r>    4.3856    1.0000 </r>
       <r>    4.8271    1.0000 </r>
       <r>    5.0274    1.0000 </r>
       <r>    5.3264    1.0000 </r>
       <r>    5.5058    1.0000 </r>
       <r>    5.6126    1.0000 </r>
       <r>    6.3253    1.0000 </r>
       <r>    6.5295    1.0000 </r>
       <r>    6.5598    1.0000 </r>
       <r>    6.8754    1.0000 </r>
       <r>    6.9629    1.0000 </r>
       <r>    7.0249    1.0000 </r>
       <r>    7.4072    1.0000 </r>
       <r>    7.4799    1.0000 </r>
       <r>    7.5414    1.0000 </r>
       <r>    8.0202    1.0000 </r>
       <r>    8.0665    1.0000 </r>
       <r>    8.2841    1.0000 </r>
       <r>    8.3951    1.0000 </r>
       <r>    8.8201    1.0000 </r>
       <r>    8.9255    1.0000 </r>
       <r>    9.0820    1.0000 </r>
       <r>    9.4537    1.0353 </r>
       <r>    9.5297    1.0073 </r>
       <r>    9.7515    0.3100 </r>
       <r>    9.7830    0.1968 </r>
       <r>    9.9016   -0.0232 </r>
       <r>    9.9470   -0.0354 </r>
       <r>    9.9938   -0.0301 </r>
       <r>   10.0615   -0.0152 </r>
       <r>   10.1111   -0.0073 </r>
       <r>   11.8511   -0.0000 </r>
       <r>   11.9006   -0.0000 </r>
       <r>   12.0376   -0.0000 </r>
       <r>   12.3879   -0.0000 </r>
       <r>   12.4497   -0.0000 </r>
       <r>   12.4909   -0.0000 </r>
       <r>   12.5124   -0.0000 </r>
       <r>   12.9705   -0.0000 </r>
       <r>   13.0020   -0.0000 </r>
       <r>   13.0317   -0.0000 </r>
       <r>   13.0774   -0.0000 </r>
       <r>   13.1529   -0.0000 </r>
       <r>   13.5516   -0.0000 </r>
       <r>   13.6179   -0.0000 </r>
       <r>   13.6559   -0.0000 </r>
       <r>   13.7241   -0.0000 </r>
      </set>
      <set comment="kpoint 47">
       <r>   -2.1320    1.0000 </r>
       <r>   -0.8006    1.0000 </r>
       <r>   -0.4912    1.0000 </r>
       <r>   -0.2286    1.0000 </r>
       <r>   -0.1716    1.0000 </r>
       <r>    0.3881    1.0000 </r>
       <r>    1.6219    1.0000 </r>
       <r>    1.7005    1.0000 </r>
       <r>    1.9310    1.0000 </r>
       <r>    2.4557    1.0000 </r>
       <r>    2.5030    1.0000 </r>
       <r>    2.7531    1.0000 </r>
       <r>    2.8037    1.0000 </r>
       <r>    3.0905    1.0000 </r>
       <r>    3.2443    1.0000 </r>
       <r>    3.3267    1.0000 </r>
       <r>    4.3381    1.0000 </r>
       <r>    4.3685    1.0000 </r>
       <r>    4.8242    1.0000 </r>
       <r>    5.0379    1.0000 </r>
       <r>    5.3119    1.0000 </r>
       <r>    5.5153    1.0000 </r>
       <r>    5.5783    1.0000 </r>
       <r>    6.3343    1.0000 </r>
       <r>    6.5495    1.0000 </r>
       <r>    6.5640    1.0000 </r>
       <r>    6.8623    1.0000 </r>
       <r>    6.9433    1.0000 </r>
       <r>    7.0283    1.0000 </r>
       <r>    7.4297    1.0000 </r>
       <r>    7.4498    1.0000 </r>
       <r>    7.5450    1.0000 </r>
       <r>    8.0437    1.0000 </r>
       <r>    8.0473    1.0000 </r>
       <r>    8.3000    1.0000 </r>
       <r>    8.3516    1.0000 </r>
       <r>    8.8796    1.0000 </r>
       <r>    8.9094    1.0000 </r>
       <r>    9.0658    1.0000 </r>
       <r>    9.4494    1.0350 </r>
       <r>    9.5222    1.0140 </r>
       <r>    9.7605    0.2757 </r>
       <r>    9.8101    0.1168 </r>
       <r>    9.8588    0.0186 </r>
       <r>    9.9395   -0.0350 </r>
       <r>   10.0276   -0.0225 </r>
       <r>   10.0639   -0.0147 </r>
       <r>   10.0830   -0.0113 </r>
       <r>   11.8707   -0.0000 </r>
       <r>   11.9022   -0.0000 </r>
       <r>   12.0393   -0.0000 </r>
       <r>   12.3715   -0.0000 </r>
       <r>   12.4493   -0.0000 </r>
       <r>   12.4930   -0.0000 </r>
       <r>   12.5373   -0.0000 </r>
       <r>   12.9540   -0.0000 </r>
       <r>   13.0204   -0.0000 </r>
       <r>   13.0292   -0.0000 </r>
       <r>   13.0693   -0.0000 </r>
       <r>   13.1661   -0.0000 </r>
       <r>   13.5743   -0.0000 </r>
       <r>   13.6339   -0.0000 </r>
       <r>   13.6746   -0.0000 </r>
       <r>   13.7447   -0.0000 </r>
      </set>
      <set comment="kpoint 48">
       <r>   -2.1314    1.0000 </r>
       <r>   -0.8012    1.0000 </r>
       <r>   -0.4873    1.0000 </r>
       <r>   -0.2747    1.0000 </r>
       <r>   -0.1198    1.0000 </r>
       <r>    0.3709    1.0000 </r>
       <r>    1.6166    1.0000 </r>
       <r>    1.7258    1.0000 </r>
       <r>    1.9385    1.0000 </r>
       <r>    2.3877    1.0000 </r>
       <r>    2.5592    1.0000 </r>
       <r>    2.7267    1.0000 </r>
       <r>    2.8305    1.0000 </r>
       <r>    3.0906    1.0000 </r>
       <r>    3.2252    1.0000 </r>
       <r>    3.3588    1.0000 </r>
       <r>    4.2705    1.0000 </r>
       <r>    4.3949    1.0000 </r>
       <r>    4.8275    1.0000 </r>
       <r>    5.0642    1.0000 </r>
       <r>    5.2902    1.0000 </r>
       <r>    5.4763    1.0000 </r>
       <r>    5.6213    1.0000 </r>
       <r>    6.3158    1.0000 </r>
       <r>    6.5259    1.0000 </r>
       <r>    6.5866    1.0000 </r>
       <r>    6.8500    1.0000 </r>
       <r>    6.9471    1.0000 </r>
       <r>    7.0814    1.0000 </r>
       <r>    7.3937    1.0000 </r>
       <r>    7.4785    1.0000 </r>
       <r>    7.5441    1.0000 </r>
       <r>    8.0284    1.0000 </r>
       <r>    8.0792    1.0000 </r>
       <r>    8.2719    1.0000 </r>
       <r>    8.4131    1.0000 </r>
       <r>    8.7958    1.0000 </r>
       <r>    8.9376    1.0000 </r>
       <r>    9.0522    1.0000 </r>
       <r>    9.4267    1.0320 </r>
       <r>    9.5481    0.9863 </r>
       <r>    9.7456    0.3328 </r>
       <r>    9.7845    0.1921 </r>
       <r>    9.8994   -0.0218 </r>
       <r>    9.9373   -0.0348 </r>
       <r>   10.0287   -0.0223 </r>
       <r>   10.0545   -0.0166 </r>
       <r>   10.1132   -0.0070 </r>
       <r>   11.8557   -0.0000 </r>
       <r>   11.9097   -0.0000 </r>
       <r>   12.0264   -0.0000 </r>
       <r>   12.3675   -0.0000 </r>
       <r>   12.4228   -0.0000 </r>
       <r>   12.5171   -0.0000 </r>
       <r>   12.5453   -0.0000 </r>
       <r>   12.9385   -0.0000 </r>
       <r>   13.0174   -0.0000 </r>
       <r>   13.0467   -0.0000 </r>
       <r>   13.0948   -0.0000 </r>
       <r>   13.1831   -0.0000 </r>
       <r>   13.5324   -0.0000 </r>
       <r>   13.6107   -0.0000 </r>
       <r>   13.6561   -0.0000 </r>
       <r>   13.7251   -0.0000 </r>
      </set>
      <set comment="kpoint 49">
       <r>   -2.1346    1.0000 </r>
       <r>   -0.7820    1.0000 </r>
       <r>   -0.5005    1.0000 </r>
       <r>   -0.2434    1.0000 </r>
       <r>   -0.1389    1.0000 </r>
       <r>    0.3462    1.0000 </r>
       <r>    1.6043    1.0000 </r>
       <r>    1.7206    1.0000 </r>
       <r>    1.9518    1.0000 </r>
       <r>    2.4196    1.0000 </r>
       <r>    2.5751    1.0000 </r>
       <r>    2.7053    1.0000 </r>
       <r>    2.8177    1.0000 </r>
       <r>    3.0703    1.0000 </r>
       <r>    3.2228    1.0000 </r>
       <r>    3.3745    1.0000 </r>
       <r>    4.2712    1.0000 </r>
       <r>    4.4142    1.0000 </r>
       <r>    4.8303    1.0000 </r>
       <r>    5.0673    1.0000 </r>
       <r>    5.3014    1.0000 </r>
       <r>    5.4784    1.0000 </r>
       <r>    5.6238    1.0000 </r>
       <r>    6.3090    1.0000 </r>
       <r>    6.5194    1.0000 </r>
       <r>    6.5573    1.0000 </r>
       <r>    6.8516    1.0000 </r>
       <r>    6.9644    1.0000 </r>
       <r>    7.0636    1.0000 </r>
       <r>    7.3940    1.0000 </r>
       <r>    7.4696    1.0000 </r>
       <r>    7.5405    1.0000 </r>
       <r>    8.0236    1.0000 </r>
       <r>    8.0774    1.0000 </r>
       <r>    8.2502    1.0000 </r>
       <r>    8.4130    1.0000 </r>
       <r>    8.8128    1.0000 </r>
       <r>    8.9384    1.0000 </r>
       <r>    9.0737    1.0000 </r>
       <r>    9.4311    1.0328 </r>
       <r>    9.5571    0.9733 </r>
       <r>    9.7586    0.2827 </r>
       <r>    9.8326    0.0642 </r>
       <r>    9.8945   -0.0186 </r>
       <r>    9.9334   -0.0342 </r>
       <r>    9.9865   -0.0315 </r>
       <r>   10.0248   -0.0232 </r>
       <r>   10.1097   -0.0074 </r>
       <r>   11.8558   -0.0000 </r>
       <r>   11.9220   -0.0000 </r>
       <r>   12.0352   -0.0000 </r>
       <r>   12.3690   -0.0000 </r>
       <r>   12.4215   -0.0000 </r>
       <r>   12.5245   -0.0000 </r>
       <r>   12.5785   -0.0000 </r>
       <r>   12.9586   -0.0000 </r>
       <r>   12.9988   -0.0000 </r>
       <r>   13.0380   -0.0000 </r>
       <r>   13.0716   -0.0000 </r>
       <r>   13.1761   -0.0000 </r>
       <r>   13.5401   -0.0000 </r>
       <r>   13.6134   -0.0000 </r>
       <r>   13.6287   -0.0000 </r>
       <r>   13.7137   -0.0000 </r>
      </set>
      <set comment="kpoint 50">
       <r>   -2.1329    1.0000 </r>
       <r>   -0.7788    1.0000 </r>
       <r>   -0.5022    1.0000 </r>
       <r>   -0.3180    1.0000 </r>
       <r>   -0.0806    1.0000 </r>
       <r>    0.3764    1.0000 </r>
       <r>    1.5418    1.0000 </r>
       <r>    1.8038    1.0000 </r>
       <r>    1.9440    1.0000 </r>
       <r>    2.3662    1.0000 </r>
       <r>    2.5748    1.0000 </r>
       <r>    2.6649    1.0000 </r>
       <r>    2.8925    1.0000 </r>
       <r>    3.0658    1.0000 </r>
       <r>    3.1729    1.0000 </r>
       <r>    3.4401    1.0000 </r>
       <r>    4.2042    1.0000 </r>
       <r>    4.4660    1.0000 </r>
       <r>    4.8210    1.0000 </r>
       <r>    5.0473    1.0000 </r>
       <r>    5.3133    1.0000 </r>
       <r>    5.4066    1.0000 </r>
       <r>    5.7045    1.0000 </r>
       <r>    6.3163    1.0000 </r>
       <r>    6.5157    1.0000 </r>
       <r>    6.5916    1.0000 </r>
       <r>    6.7882    1.0000 </r>
       <r>    6.9793    1.0000 </r>
       <r>    7.0771    1.0000 </r>
       <r>    7.3812    1.0000 </r>
       <r>    7.5040    1.0000 </r>
       <r>    7.5554    1.0000 </r>
       <r>    7.9962    1.0000 </r>
       <r>    8.0990    1.0000 </r>
       <r>    8.1959    1.0000 </r>
       <r>    8.4834    1.0000 </r>
       <r>    8.7304    1.0000 </r>
       <r>    8.9975    1.0000 </r>
       <r>    9.0675    1.0000 </r>
       <r>    9.3778    1.0214 </r>
       <r>    9.6141    0.8449 </r>
       <r>    9.7593    0.2804 </r>
       <r>    9.7852    0.1898 </r>
       <r>    9.8385    0.0525 </r>
       <r>    9.9230   -0.0321 </r>
       <r>    9.9940   -0.0301 </r>
       <r>   10.0983   -0.0089 </r>
       <r>   10.1344   -0.0048 </r>
       <r>   11.8323   -0.0000 </r>
       <r>   11.9283   -0.0000 </r>
       <r>   12.0321   -0.0000 </r>
       <r>   12.3046   -0.0000 </r>
       <r>   12.3722   -0.0000 </r>
       <r>   12.5697   -0.0000 </r>
       <r>   12.6191   -0.0000 </r>
       <r>   12.9603   -0.0000 </r>
       <r>   13.0011   -0.0000 </r>
       <r>   13.0576   -0.0000 </r>
       <r>   13.1013   -0.0000 </r>
       <r>   13.1717   -0.0000 </r>
       <r>   13.4914   -0.0000 </r>
       <r>   13.6319   -0.0000 </r>
       <r>   13.6545   -0.0000 </r>
       <r>   13.6981   -0.0000 </r>
      </set>
      <set comment="kpoint 51">
       <r>   -2.1349    1.0000 </r>
       <r>   -0.7810    1.0000 </r>
       <r>   -0.4720    1.0000 </r>
       <r>   -0.2831    1.0000 </r>
       <r>   -0.1399    1.0000 </r>
       <r>    0.3519    1.0000 </r>
       <r>    1.6100    1.0000 </r>
       <r>    1.7372    1.0000 </r>
       <r>    1.9572    1.0000 </r>
       <r>    2.3965    1.0000 </r>
       <r>    2.5686    1.0000 </r>
       <r>    2.7163    1.0000 </r>
       <r>    2.8306    1.0000 </r>
       <r>    3.0397    1.0000 </r>
       <r>    3.2329    1.0000 </r>
       <r>    3.3774    1.0000 </r>
       <r>    4.2658    1.0000 </r>
       <r>    4.4160    1.0000 </r>
       <r>    4.8303    1.0000 </r>
       <r>    5.0601    1.0000 </r>
       <r>    5.3037    1.0000 </r>
       <r>    5.4896    1.0000 </r>
       <r>    5.6241    1.0000 </r>
       <r>    6.3145    1.0000 </r>
       <r>    6.5165    1.0000 </r>
       <r>    6.5625    1.0000 </r>
       <r>    6.8672    1.0000 </r>
       <r>    6.9746    1.0000 </r>
       <r>    7.0343    1.0000 </r>
       <r>    7.3892    1.0000 </r>
       <r>    7.4810    1.0000 </r>
       <r>    7.4990    1.0000 </r>
       <r>    8.0231    1.0000 </r>
       <r>    8.0800    1.0000 </r>
       <r>    8.2721    1.0000 </r>
       <r>    8.4203    1.0000 </r>
       <r>    8.8151    1.0000 </r>
       <r>    8.9237    1.0000 </r>
       <r>    9.0973    1.0001 </r>
       <r>    9.4326    1.0330 </r>
       <r>    9.5832    0.9246 </r>
       <r>    9.7462    0.3305 </r>
       <r>    9.8130    0.1094 </r>
       <r>    9.9010   -0.0228 </r>
       <r>    9.9122   -0.0284 </r>
       <r>    9.9971   -0.0294 </r>
       <r>   10.0514   -0.0172 </r>
       <r>   10.0815   -0.0115 </r>
       <r>   11.8651   -0.0000 </r>
       <r>   11.9251   -0.0000 </r>
       <r>   12.0333   -0.0000 </r>
       <r>   12.3491   -0.0000 </r>
       <r>   12.4200   -0.0000 </r>
       <r>   12.4945   -0.0000 </r>
       <r>   12.5782   -0.0000 </r>
       <r>   12.9822   -0.0000 </r>
       <r>   13.0051   -0.0000 </r>
       <r>   13.0278   -0.0000 </r>
       <r>   13.0755   -0.0000 </r>
       <r>   13.1910   -0.0000 </r>
       <r>   13.5395   -0.0000 </r>
       <r>   13.6029   -0.0000 </r>
       <r>   13.6667   -0.0000 </r>
       <r>   13.7240   -0.0000 </r>
      </set>
      <set comment="kpoint 52">
       <r>   -2.1322    1.0000 </r>
       <r>   -0.7828    1.0000 </r>
       <r>   -0.5072    1.0000 </r>
       <r>   -0.2746    1.0000 </r>
       <r>   -0.1240    1.0000 </r>
       <r>    0.3730    1.0000 </r>
       <r>    1.5999    1.0000 </r>
       <r>    1.7491    1.0000 </r>
       <r>    1.9352    1.0000 </r>
       <r>    2.4397    1.0000 </r>
       <r>    2.5490    1.0000 </r>
       <r>    2.6918    1.0000 </r>
       <r>    2.8351    1.0000 </r>
       <r>    3.0731    1.0000 </r>
       <r>    3.2325    1.0000 </r>
       <r>    3.3541    1.0000 </r>
       <r>    4.2602    1.0000 </r>
       <r>    4.4049    1.0000 </r>
       <r>    4.8236    1.0000 </r>
       <r>    5.0374    1.0000 </r>
       <r>    5.3263    1.0000 </r>
       <r>    5.4787    1.0000 </r>
       <r>    5.6263    1.0000 </r>
       <r>    6.3177    1.0000 </r>
       <r>    6.5318    1.0000 </r>
       <r>    6.5865    1.0000 </r>
       <r>    6.8577    1.0000 </r>
       <r>    6.9446    1.0000 </r>
       <r>    7.0502    1.0000 </r>
       <r>    7.4115    1.0000 </r>
       <r>    7.4756    1.0000 </r>
       <r>    7.5443    1.0000 </r>
       <r>    8.0115    1.0000 </r>
       <r>    8.0652    1.0000 </r>
       <r>    8.2663    1.0000 </r>
       <r>    8.4249    1.0000 </r>
       <r>    8.7975    1.0000 </r>
       <r>    8.9363    1.0000 </r>
       <r>    9.0715    1.0000 </r>
       <r>    9.4383    1.0339 </r>
       <r>    9.5490    0.9851 </r>
       <r>    9.7431    0.3428 </r>
       <r>    9.8324    0.0645 </r>
       <r>    9.8847   -0.0109 </r>
       <r>    9.9507   -0.0355 </r>
       <r>   10.0043   -0.0279 </r>
       <r>   10.0228   -0.0236 </r>
       <r>   10.1170   -0.0066 </r>
       <r>   11.8433   -0.0000 </r>
       <r>   11.9098   -0.0000 </r>
       <r>   12.0310   -0.0000 </r>
       <r>   12.3517   -0.0000 </r>
       <r>   12.4367   -0.0000 </r>
       <r>   12.5040   -0.0000 </r>
       <r>   12.5524   -0.0000 </r>
       <r>   12.9471   -0.0000 </r>
       <r>   13.0220   -0.0000 </r>
       <r>   13.0505   -0.0000 </r>
       <r>   13.0730   -0.0000 </r>
       <r>   13.1781   -0.0000 </r>
       <r>   13.5214   -0.0000 </r>
       <r>   13.6285   -0.0000 </r>
       <r>   13.6770   -0.0000 </r>
       <r>   13.7054   -0.0000 </r>
      </set>
      <set comment="kpoint 53">
       <r>   -1.5962    1.0000 </r>
       <r>   -1.3188    1.0000 </r>
       <r>   -1.0061    1.0000 </r>
       <r>   -0.7640    1.0000 </r>
       <r>    0.3560    1.0000 </r>
       <r>    0.8743    1.0000 </r>
       <r>    1.1463    1.0000 </r>
       <r>    1.6905    1.0000 </r>
       <r>    2.2294    1.0000 </r>
       <r>    2.4663    1.0000 </r>
       <r>    2.7890    1.0000 </r>
       <r>    2.9863    1.0000 </r>
       <r>    3.2494    1.0000 </r>
       <r>    3.5185    1.0000 </r>
       <r>    3.8270    1.0000 </r>
       <r>    4.0562    1.0000 </r>
       <r>    4.0835    1.0000 </r>
       <r>    4.3481    1.0000 </r>
       <r>    4.5370    1.0000 </r>
       <r>    4.7793    1.0000 </r>
       <r>    4.8878    1.0000 </r>
       <r>    5.0811    1.0000 </r>
       <r>    5.5235    1.0000 </r>
       <r>    5.5835    1.0000 </r>
       <r>    5.8013    1.0000 </r>
       <r>    6.0379    1.0000 </r>
       <r>    6.1156    1.0000 </r>
       <r>    6.2189    1.0000 </r>
       <r>    6.4570    1.0000 </r>
       <r>    6.5364    1.0000 </r>
       <r>    7.9151    1.0000 </r>
       <r>    8.0272    1.0000 </r>
       <r>    8.4005    1.0000 </r>
       <r>    8.5581    1.0000 </r>
       <r>    8.6405    1.0000 </r>
       <r>    8.6918    1.0000 </r>
       <r>    9.0046    1.0000 </r>
       <r>    9.2039    1.0011 </r>
       <r>    9.5320    1.0051 </r>
       <r>    9.7021    0.5132 </r>
       <r>    9.7897    0.1754 </r>
       <r>    9.8866   -0.0126 </r>
       <r>   10.0223   -0.0237 </r>
       <r>   10.2226   -0.0008 </r>
       <r>   10.3351   -0.0000 </r>
       <r>   10.7512   -0.0000 </r>
       <r>   10.8430   -0.0000 </r>
       <r>   10.9142   -0.0000 </r>
       <r>   11.0236   -0.0000 </r>
       <r>   11.5156   -0.0000 </r>
       <r>   11.8330   -0.0000 </r>
       <r>   11.8745   -0.0000 </r>
       <r>   12.0182   -0.0000 </r>
       <r>   12.0938   -0.0000 </r>
       <r>   12.3027   -0.0000 </r>
       <r>   12.5399   -0.0000 </r>
       <r>   12.7579   -0.0000 </r>
       <r>   13.0189   -0.0000 </r>
       <r>   13.2904   -0.0000 </r>
       <r>   13.4986   -0.0000 </r>
       <r>   13.5890   -0.0000 </r>
       <r>   13.8943   -0.0000 </r>
       <r>   13.9250   -0.0000 </r>
       <r>   13.9748   -0.0000 </r>
      </set>
      <set comment="kpoint 54">
       <r>   -1.5998    1.0000 </r>
       <r>   -1.3099    1.0000 </r>
       <r>   -1.0337    1.0000 </r>
       <r>   -0.7261    1.0000 </r>
       <r>    0.3185    1.0000 </r>
       <r>    0.8863    1.0000 </r>
       <r>    1.1571    1.0000 </r>
       <r>    1.6844    1.0000 </r>
       <r>    2.2222    1.0000 </r>
       <r>    2.4601    1.0000 </r>
       <r>    2.7760    1.0000 </r>
       <r>    3.0404    1.0000 </r>
       <r>    3.2689    1.0000 </r>
       <r>    3.5201    1.0000 </r>
       <r>    3.7911    1.0000 </r>
       <r>    4.0460    1.0000 </r>
       <r>    4.1132    1.0000 </r>
       <r>    4.3333    1.0000 </r>
       <r>    4.5533    1.0000 </r>
       <r>    4.8005    1.0000 </r>
       <r>    4.8489    1.0000 </r>
       <r>    5.0393    1.0000 </r>
       <r>    5.5294    1.0000 </r>
       <r>    5.5628    1.0000 </r>
       <r>    5.8200    1.0000 </r>
       <r>    5.9956    1.0000 </r>
       <r>    6.1714    1.0000 </r>
       <r>    6.2321    1.0000 </r>
       <r>    6.4481    1.0000 </r>
       <r>    6.5428    1.0000 </r>
       <r>    7.8997    1.0000 </r>
       <r>    8.0534    1.0000 </r>
       <r>    8.3880    1.0000 </r>
       <r>    8.5372    1.0000 </r>
       <r>    8.6403    1.0000 </r>
       <r>    8.7160    1.0000 </r>
       <r>    9.0036    1.0000 </r>
       <r>    9.2157    1.0015 </r>
       <r>    9.5483    0.9860 </r>
       <r>    9.6912    0.5591 </r>
       <r>    9.7795    0.2085 </r>
       <r>    9.9119   -0.0282 </r>
       <r>   10.0253   -0.0231 </r>
       <r>   10.1904   -0.0016 </r>
       <r>   10.3331   -0.0000 </r>
       <r>   10.7550   -0.0000 </r>
       <r>   10.8865   -0.0000 </r>
       <r>   10.9396   -0.0000 </r>
       <r>   10.9879   -0.0000 </r>
       <r>   11.5115   -0.0000 </r>
       <r>   11.8141   -0.0000 </r>
       <r>   11.8861   -0.0000 </r>
       <r>   11.9902   -0.0000 </r>
       <r>   12.0961   -0.0000 </r>
       <r>   12.2933   -0.0000 </r>
       <r>   12.5260   -0.0000 </r>
       <r>   12.7658   -0.0000 </r>
       <r>   13.0217   -0.0000 </r>
       <r>   13.2938   -0.0000 </r>
       <r>   13.5281   -0.0000 </r>
       <r>   13.5556   -0.0000 </r>
       <r>   13.8486   -0.0000 </r>
       <r>   13.9349   -0.0000 </r>
       <r>   14.0200   -0.0000 </r>
      </set>
      <set comment="kpoint 55">
       <r>   -1.6030    1.0000 </r>
       <r>   -1.3196    1.0000 </r>
       <r>   -1.0173    1.0000 </r>
       <r>   -0.7224    1.0000 </r>
       <r>    0.3301    1.0000 </r>
       <r>    0.8583    1.0000 </r>
       <r>    1.1411    1.0000 </r>
       <r>    1.7163    1.0000 </r>
       <r>    2.1954    1.0000 </r>
       <r>    2.4608    1.0000 </r>
       <r>    2.7937    1.0000 </r>
       <r>    3.0297    1.0000 </r>
       <r>    3.2558    1.0000 </r>
       <r>    3.5384    1.0000 </r>
       <r>    3.8418    1.0000 </r>
       <r>    4.0578    1.0000 </r>
       <r>    4.0821    1.0000 </r>
       <r>    4.3090    1.0000 </r>
       <r>    4.5418    1.0000 </r>
       <r>    4.7696    1.0000 </r>
       <r>    4.9099    1.0000 </r>
       <r>    5.0353    1.0000 </r>
       <r>    5.5000    1.0000 </r>
       <r>    5.6090    1.0000 </r>
       <r>    5.8138    1.0000 </r>
       <r>    6.0259    1.0000 </r>
       <r>    6.1251    1.0000 </r>
       <r>    6.2177    1.0000 </r>
       <r>    6.4505    1.0000 </r>
       <r>    6.5544    1.0000 </r>
       <r>    7.9160    1.0000 </r>
       <r>    7.9841    1.0000 </r>
       <r>    8.3979    1.0000 </r>
       <r>    8.5628    1.0000 </r>
       <r>    8.6369    1.0000 </r>
       <r>    8.7259    1.0000 </r>
       <r>    8.9949    1.0000 </r>
       <r>    9.1986    1.0010 </r>
       <r>    9.5556    0.9755 </r>
       <r>    9.7205    0.4357 </r>
       <r>    9.7606    0.2753 </r>
       <r>    9.9099   -0.0274 </r>
       <r>   10.0064   -0.0274 </r>
       <r>   10.2259   -0.0007 </r>
       <r>   10.3246   -0.0001 </r>
       <r>   10.7339   -0.0000 </r>
       <r>   10.8700   -0.0000 </r>
       <r>   10.9433   -0.0000 </r>
       <r>   11.0265   -0.0000 </r>
       <r>   11.5185   -0.0000 </r>
       <r>   11.8076   -0.0000 </r>
       <r>   11.8863   -0.0000 </r>
       <r>   11.9704   -0.0000 </r>
       <r>   12.1239   -0.0000 </r>
       <r>   12.2854   -0.0000 </r>
       <r>   12.5240   -0.0000 </r>
       <r>   12.7643   -0.0000 </r>
       <r>   13.0315   -0.0000 </r>
       <r>   13.2708   -0.0000 </r>
       <r>   13.5314   -0.0000 </r>
       <r>   13.5752   -0.0000 </r>
       <r>   13.8582   -0.0000 </r>
       <r>   13.9642   -0.0000 </r>
       <r>   14.0151   -0.0000 </r>
      </set>
      <set comment="kpoint 56">
       <r>   -1.5901    1.0000 </r>
       <r>   -1.3376    1.0000 </r>
       <r>   -1.0235    1.0000 </r>
       <r>   -0.7109    1.0000 </r>
       <r>    0.3114    1.0000 </r>
       <r>    0.8952    1.0000 </r>
       <r>    1.1503    1.0000 </r>
       <r>    1.6889    1.0000 </r>
       <r>    2.1959    1.0000 </r>
       <r>    2.4614    1.0000 </r>
       <r>    2.7625    1.0000 </r>
       <r>    3.0489    1.0000 </r>
       <r>    3.2884    1.0000 </r>
       <r>    3.5193    1.0000 </r>
       <r>    3.8283    1.0000 </r>
       <r>    4.0271    1.0000 </r>
       <r>    4.0943    1.0000 </r>
       <r>    4.3173    1.0000 </r>
       <r>    4.5717    1.0000 </r>
       <r>    4.7856    1.0000 </r>
       <r>    4.8874    1.0000 </r>
       <r>    5.0301    1.0000 </r>
       <r>    5.4950    1.0000 </r>
       <r>    5.5993    1.0000 </r>
       <r>    5.8262    1.0000 </r>
       <r>    6.0445    1.0000 </r>
       <r>    6.1391    1.0000 </r>
       <r>    6.1967    1.0000 </r>
       <r>    6.4623    1.0000 </r>
       <r>    6.5361    1.0000 </r>
       <r>    7.9158    1.0000 </r>
       <r>    7.9966    1.0000 </r>
       <r>    8.4065    1.0000 </r>
       <r>    8.5335    1.0000 </r>
       <r>    8.6545    1.0000 </r>
       <r>    8.7137    1.0000 </r>
       <r>    9.0242    1.0000 </r>
       <r>    9.1878    1.0008 </r>
       <r>    9.5399    0.9965 </r>
       <r>    9.7083    0.4872 </r>
       <r>    9.7774    0.2157 </r>
       <r>    9.9055   -0.0253 </r>
       <r>   10.0109   -0.0264 </r>
       <r>   10.1957   -0.0014 </r>
       <r>   10.3365   -0.0000 </r>
       <r>   10.7237   -0.0000 </r>
       <r>   10.8755   -0.0000 </r>
       <r>   10.9672   -0.0000 </r>
       <r>   11.0030   -0.0000 </r>
       <r>   11.5204   -0.0000 </r>
       <r>   11.7915   -0.0000 </r>
       <r>   11.8809   -0.0000 </r>
       <r>   12.0224   -0.0000 </r>
       <r>   12.1144   -0.0000 </r>
       <r>   12.2882   -0.0000 </r>
       <r>   12.5349   -0.0000 </r>
       <r>   12.7678   -0.0000 </r>
       <r>   13.0021   -0.0000 </r>
       <r>   13.2881   -0.0000 </r>
       <r>   13.5272   -0.0000 </r>
       <r>   13.5632   -0.0000 </r>
       <r>   13.8700   -0.0000 </r>
       <r>   13.9265   -0.0000 </r>
       <r>   14.0201   -0.0000 </r>
      </set>
      <set comment="kpoint 57">
       <r>   -1.6105    1.0000 </r>
       <r>   -1.3124    1.0000 </r>
       <r>   -0.9876    1.0000 </r>
       <r>   -0.7573    1.0000 </r>
       <r>    0.3277    1.0000 </r>
       <r>    0.8670    1.0000 </r>
       <r>    1.1505    1.0000 </r>
       <r>    1.7050    1.0000 </r>
       <r>    2.1930    1.0000 </r>
       <r>    2.4793    1.0000 </r>
       <r>    2.7865    1.0000 </r>
       <r>    3.0101    1.0000 </r>
       <r>    3.2588    1.0000 </r>
       <r>    3.5422    1.0000 </r>
       <r>    3.8358    1.0000 </r>
       <r>    4.0545    1.0000 </r>
       <r>    4.0867    1.0000 </r>
       <r>    4.3231    1.0000 </r>
       <r>    4.5413    1.0000 </r>
       <r>    4.7702    1.0000 </r>
       <r>    4.8905    1.0000 </r>
       <r>    5.0617    1.0000 </r>
       <r>    5.5561    1.0000 </r>
       <r>    5.5817    1.0000 </r>
       <r>    5.7745    1.0000 </r>
       <r>    6.0134    1.0000 </r>
       <r>    6.1259    1.0000 </r>
       <r>    6.2196    1.0000 </r>
       <r>    6.4493    1.0000 </r>
       <r>    6.5562    1.0000 </r>
       <r>    7.8952    1.0000 </r>
       <r>    8.0064    1.0000 </r>
       <r>    8.4072    1.0000 </r>
       <r>    8.5518    1.0000 </r>
       <r>    8.6352    1.0000 </r>
       <r>    8.7234    1.0000 </r>
       <r>    8.9971    1.0000 </r>
       <r>    9.2092    1.0013 </r>
       <r>    9.5742    0.9433 </r>
       <r>    9.7099    0.4802 </r>
       <r>    9.7537    0.3014 </r>
       <r>    9.9046   -0.0248 </r>
       <r>   10.0149   -0.0255 </r>
       <r>   10.2417   -0.0005 </r>
       <r>   10.3504   -0.0000 </r>
       <r>   10.7339   -0.0000 </r>
       <r>   10.8357   -0.0000 </r>
       <r>   10.9488   -0.0000 </r>
       <r>   11.0044   -0.0000 </r>
       <r>   11.4950   -0.0000 </r>
       <r>   11.8297   -0.0000 </r>
       <r>   11.8743   -0.0000 </r>
       <r>   11.9757   -0.0000 </r>
       <r>   12.1241   -0.0000 </r>
       <r>   12.2923   -0.0000 </r>
       <r>   12.5472   -0.0000 </r>
       <r>   12.7649   -0.0000 </r>
       <r>   12.9974   -0.0000 </r>
       <r>   13.2914   -0.0000 </r>
       <r>   13.5310   -0.0000 </r>
       <r>   13.5701   -0.0000 </r>
       <r>   13.8566   -0.0000 </r>
       <r>   13.9309   -0.0000 </r>
       <r>   14.0350   -0.0000 </r>
      </set>
      <set comment="kpoint 58">
       <r>   -1.5983    1.0000 </r>
       <r>   -1.3013    1.0000 </r>
       <r>   -1.0425    1.0000 </r>
       <r>   -0.7381    1.0000 </r>
       <r>    0.3366    1.0000 </r>
       <r>    0.8826    1.0000 </r>
       <r>    1.1548    1.0000 </r>
       <r>    1.6976    1.0000 </r>
       <r>    2.2035    1.0000 </r>
       <r>    2.4820    1.0000 </r>
       <r>    2.7681    1.0000 </r>
       <r>    3.0294    1.0000 </r>
       <r>    3.2756    1.0000 </r>
       <r>    3.5126    1.0000 </r>
       <r>    3.7799    1.0000 </r>
       <r>    4.0628    1.0000 </r>
       <r>    4.0853    1.0000 </r>
       <r>    4.3091    1.0000 </r>
       <r>    4.5563    1.0000 </r>
       <r>    4.7968    1.0000 </r>
       <r>    4.8763    1.0000 </r>
       <r>    5.0674    1.0000 </r>
       <r>    5.5025    1.0000 </r>
       <r>    5.6195    1.0000 </r>
       <r>    5.8059    1.0000 </r>
       <r>    6.0139    1.0000 </r>
       <r>    6.1768    1.0000 </r>
       <r>    6.2088    1.0000 </r>
       <r>    6.4298    1.0000 </r>
       <r>    6.5418    1.0000 </r>
       <r>    7.8863    1.0000 </r>
       <r>    8.0517    1.0000 </r>
       <r>    8.4007    1.0000 </r>
       <r>    8.5326    1.0000 </r>
       <r>    8.6474    1.0000 </r>
       <r>    8.7033    1.0000 </r>
       <r>    9.0085    1.0000 </r>
       <r>    9.2298    1.0020 </r>
       <r>    9.5383    0.9984 </r>
       <r>    9.7149    0.4589 </r>
       <r>    9.7703    0.2403 </r>
       <r>    9.9050   -0.0250 </r>
       <r>   10.0274   -0.0226 </r>
       <r>   10.1993   -0.0013 </r>
       <r>   10.3351   -0.0000 </r>
       <r>   10.7414   -0.0000 </r>
       <r>   10.8611   -0.0000 </r>
       <r>   10.9201   -0.0000 </r>
       <r>   11.0006   -0.0000 </r>
       <r>   11.5106   -0.0000 </r>
       <r>   11.8143   -0.0000 </r>
       <r>   11.8662   -0.0000 </r>
       <r>   12.0139   -0.0000 </r>
       <r>   12.1132   -0.0000 </r>
       <r>   12.2945   -0.0000 </r>
       <r>   12.5490   -0.0000 </r>
       <r>   12.7563   -0.0000 </r>
       <r>   13.0177   -0.0000 </r>
       <r>   13.2984   -0.0000 </r>
       <r>   13.5086   -0.0000 </r>
       <r>   13.5620   -0.0000 </r>
       <r>   13.8943   -0.0000 </r>
       <r>   13.9138   -0.0000 </r>
       <r>   14.0032   -0.0000 </r>
      </set>
      <set comment="kpoint 59">
       <r>   -1.6015    1.0000 </r>
       <r>   -1.3011    1.0000 </r>
       <r>   -1.0271    1.0000 </r>
       <r>   -0.7550    1.0000 </r>
       <r>    0.3549    1.0000 </r>
       <r>    0.8754    1.0000 </r>
       <r>    1.1454    1.0000 </r>
       <r>    1.6899    1.0000 </r>
       <r>    2.2082    1.0000 </r>
       <r>    2.4897    1.0000 </r>
       <r>    2.7802    1.0000 </r>
       <r>    3.0066    1.0000 </r>
       <r>    3.2612    1.0000 </r>
       <r>    3.5344    1.0000 </r>
       <r>    3.7726    1.0000 </r>
       <r>    4.0540    1.0000 </r>
       <r>    4.0863    1.0000 </r>
       <r>    4.3359    1.0000 </r>
       <r>    4.5574    1.0000 </r>
       <r>    4.7938    1.0000 </r>
       <r>    4.8673    1.0000 </r>
       <r>    5.0968    1.0000 </r>
       <r>    5.4906    1.0000 </r>
       <r>    5.6145    1.0000 </r>
       <r>    5.8012    1.0000 </r>
       <r>    6.0127    1.0000 </r>
       <r>    6.1538    1.0000 </r>
       <r>    6.2024    1.0000 </r>
       <r>    6.4530    1.0000 </r>
       <r>    6.5399    1.0000 </r>
       <r>    7.8998    1.0000 </r>
       <r>    8.0527    1.0000 </r>
       <r>    8.4079    1.0000 </r>
       <r>    8.5402    1.0000 </r>
       <r>    8.6367    1.0000 </r>
       <r>    8.6891    1.0000 </r>
       <r>    9.0037    1.0000 </r>
       <r>    9.2207    1.0016 </r>
       <r>    9.5414    0.9948 </r>
       <r>    9.7078    0.4893 </r>
       <r>    9.7672    0.2512 </r>
       <r>    9.8964   -0.0199 </r>
       <r>   10.0383   -0.0201 </r>
       <r>   10.1959   -0.0014 </r>
       <r>   10.3341   -0.0000 </r>
       <r>   10.7370   -0.0000 </r>
       <r>   10.8670   -0.0000 </r>
       <r>   10.9226   -0.0000 </r>
       <r>   11.0020   -0.0000 </r>
       <r>   11.5267   -0.0000 </r>
       <r>   11.8181   -0.0000 </r>
       <r>   11.8928   -0.0000 </r>
       <r>   11.9984   -0.0000 </r>
       <r>   12.1133   -0.0000 </r>
       <r>   12.2796   -0.0000 </r>
       <r>   12.5503   -0.0000 </r>
       <r>   12.7566   -0.0000 </r>
       <r>   13.0248   -0.0000 </r>
       <r>   13.2927   -0.0000 </r>
       <r>   13.4862   -0.0000 </r>
       <r>   13.5832   -0.0000 </r>
       <r>   13.8575   -0.0000 </r>
       <r>   13.9675   -0.0000 </r>
       <r>   13.9816   -0.0000 </r>
      </set>
      <set comment="kpoint 60">
       <r>   -1.5896    1.0000 </r>
       <r>   -1.3304    1.0000 </r>
       <r>   -1.0299    1.0000 </r>
       <r>   -0.7172    1.0000 </r>
       <r>    0.3114    1.0000 </r>
       <r>    0.8979    1.0000 </r>
       <r>    1.1550    1.0000 </r>
       <r>    1.6862    1.0000 </r>
       <r>    2.2047    1.0000 </r>
       <r>    2.4778    1.0000 </r>
       <r>    2.7560    1.0000 </r>
       <r>    3.0424    1.0000 </r>
       <r>    3.2843    1.0000 </r>
       <r>    3.5040    1.0000 </r>
       <r>    3.8175    1.0000 </r>
       <r>    4.0397    1.0000 </r>
       <r>    4.1042    1.0000 </r>
       <r>    4.3089    1.0000 </r>
       <r>    4.5758    1.0000 </r>
       <r>    4.7966    1.0000 </r>
       <r>    4.8693    1.0000 </r>
       <r>    5.0397    1.0000 </r>
       <r>    5.4926    1.0000 </r>
       <r>    5.5915    1.0000 </r>
       <r>    5.8143    1.0000 </r>
       <r>    6.0256    1.0000 </r>
       <r>    6.1642    1.0000 </r>
       <r>    6.1976    1.0000 </r>
       <r>    6.4522    1.0000 </r>
       <r>    6.5463    1.0000 </r>
       <r>    7.9124    1.0000 </r>
       <r>    8.0331    1.0000 </r>
       <r>    8.4030    1.0000 </r>
       <r>    8.5193    1.0000 </r>
       <r>    8.6339    1.0000 </r>
       <r>    8.7332    1.0000 </r>
       <r>    9.0242    1.0000 </r>
       <r>    9.2079    1.0012 </r>
       <r>    9.5558    0.9753 </r>
       <r>    9.6904    0.5625 </r>
       <r>    9.7739    0.2277 </r>
       <r>    9.9088   -0.0269 </r>
       <r>   10.0199   -0.0243 </r>
       <r>   10.1934   -0.0015 </r>
       <r>   10.3344   -0.0000 </r>
       <r>   10.7358   -0.0000 </r>
       <r>   10.8779   -0.0000 </r>
       <r>   10.9337   -0.0000 </r>
       <r>   11.0071   -0.0000 </r>
       <r>   11.5163   -0.0000 </r>
       <r>   11.7999   -0.0000 </r>
       <r>   11.8982   -0.0000 </r>
       <r>   11.9979   -0.0000 </r>
       <r>   12.1060   -0.0000 </r>
       <r>   12.2754   -0.0000 </r>
       <r>   12.5370   -0.0000 </r>
       <r>   12.7563   -0.0000 </r>
       <r>   13.0317   -0.0000 </r>
       <r>   13.2847   -0.0000 </r>
       <r>   13.5226   -0.0000 </r>
       <r>   13.5585   -0.0000 </r>
       <r>   13.8700   -0.0000 </r>
       <r>   13.9480   -0.0000 </r>
       <r>   14.0040   -0.0000 </r>
      </set>
      <set comment="kpoint 61">
       <r>   -1.6102    1.0000 </r>
       <r>   -1.3151    1.0000 </r>
       <r>   -0.9946    1.0000 </r>
       <r>   -0.7425    1.0000 </r>
       <r>    0.3192    1.0000 </r>
       <r>    0.8822    1.0000 </r>
       <r>    1.1267    1.0000 </r>
       <r>    1.7216    1.0000 </r>
       <r>    2.1939    1.0000 </r>
       <r>    2.4623    1.0000 </r>
       <r>    2.7943    1.0000 </r>
       <r>    3.0087    1.0000 </r>
       <r>    3.2660    1.0000 </r>
       <r>    3.5378    1.0000 </r>
       <r>    3.8356    1.0000 </r>
       <r>    4.0579    1.0000 </r>
       <r>    4.0900    1.0000 </r>
       <r>    4.3200    1.0000 </r>
       <r>    4.5378    1.0000 </r>
       <r>    4.7691    1.0000 </r>
       <r>    4.8951    1.0000 </r>
       <r>    5.0630    1.0000 </r>
       <r>    5.5237    1.0000 </r>
       <r>    5.6099    1.0000 </r>
       <r>    5.7715    1.0000 </r>
       <r>    6.0264    1.0000 </r>
       <r>    6.1317    1.0000 </r>
       <r>    6.2100    1.0000 </r>
       <r>    6.4396    1.0000 </r>
       <r>    6.5709    1.0000 </r>
       <r>    7.8835    1.0000 </r>
       <r>    8.0169    1.0000 </r>
       <r>    8.4132    1.0000 </r>
       <r>    8.5481    1.0000 </r>
       <r>    8.6345    1.0000 </r>
       <r>    8.7031    1.0000 </r>
       <r>    8.9985    1.0000 </r>
       <r>    9.2139    1.0014 </r>
       <r>    9.5625    0.9646 </r>
       <r>    9.7098    0.4808 </r>
       <r>    9.7488    0.3203 </r>
       <r>    9.9080   -0.0265 </r>
       <r>   10.0140   -0.0257 </r>
       <r>   10.2176   -0.0009 </r>
       <r>   10.3447   -0.0000 </r>
       <r>   10.7618   -0.0000 </r>
       <r>   10.8454   -0.0000 </r>
       <r>   10.9466   -0.0000 </r>
       <r>   11.0218   -0.0000 </r>
       <r>   11.5209   -0.0000 </r>
       <r>   11.8039   -0.0000 </r>
       <r>   11.8863   -0.0000 </r>
       <r>   11.9684   -0.0000 </r>
       <r>   12.1323   -0.0000 </r>
       <r>   12.2841   -0.0000 </r>
       <r>   12.5278   -0.0000 </r>
       <r>   12.7673   -0.0000 </r>
       <r>   13.0182   -0.0000 </r>
       <r>   13.2714   -0.0000 </r>
       <r>   13.5068   -0.0000 </r>
       <r>   13.6177   -0.0000 </r>
       <r>   13.8994   -0.0000 </r>
       <r>   13.9254   -0.0000 </r>
       <r>   13.9978   -0.0000 </r>
      </set>
      <set comment="kpoint 62">
       <r>   -1.6022    1.0000 </r>
       <r>   -1.3151    1.0000 </r>
       <r>   -1.0278    1.0000 </r>
       <r>   -0.7176    1.0000 </r>
       <r>    0.3093    1.0000 </r>
       <r>    0.9037    1.0000 </r>
       <r>    1.1415    1.0000 </r>
       <r>    1.6905    1.0000 </r>
       <r>    2.2010    1.0000 </r>
       <r>    2.4576    1.0000 </r>
       <r>    2.7655    1.0000 </r>
       <r>    3.0464    1.0000 </r>
       <r>    3.2834    1.0000 </r>
       <r>    3.5172    1.0000 </r>
       <r>    3.8183    1.0000 </r>
       <r>    4.0275    1.0000 </r>
       <r>    4.1069    1.0000 </r>
       <r>    4.3295    1.0000 </r>
       <r>    4.5790    1.0000 </r>
       <r>    4.7867    1.0000 </r>
       <r>    4.8595    1.0000 </r>
       <r>    5.0445    1.0000 </r>
       <r>    5.5252    1.0000 </r>
       <r>    5.5800    1.0000 </r>
       <r>    5.8126    1.0000 </r>
       <r>    6.0238    1.0000 </r>
       <r>    6.1486    1.0000 </r>
       <r>    6.2195    1.0000 </r>
       <r>    6.4441    1.0000 </r>
       <r>    6.5453    1.0000 </r>
       <r>    7.8908    1.0000 </r>
       <r>    8.0270    1.0000 </r>
       <r>    8.4000    1.0000 </r>
       <r>    8.5388    1.0000 </r>
       <r>    8.6557    1.0000 </r>
       <r>    8.7002    1.0000 </r>
       <r>    9.0076    1.0000 </r>
       <r>    9.2031    1.0011 </r>
       <r>    9.5465    0.9885 </r>
       <r>    9.6788    0.6109 </r>
       <r>    9.7749    0.2241 </r>
       <r>    9.9059   -0.0255 </r>
       <r>   10.0222   -0.0238 </r>
       <r>   10.1884   -0.0017 </r>
       <r>   10.3532   -0.0000 </r>
       <r>   10.7631   -0.0000 </r>
       <r>   10.8901   -0.0000 </r>
       <r>   10.9317   -0.0000 </r>
       <r>   11.0032   -0.0000 </r>
       <r>   11.5071   -0.0000 </r>
       <r>   11.7923   -0.0000 </r>
       <r>   11.8972   -0.0000 </r>
       <r>   12.0086   -0.0000 </r>
       <r>   12.1170   -0.0000 </r>
       <r>   12.2964   -0.0000 </r>
       <r>   12.5274   -0.0000 </r>
       <r>   12.7668   -0.0000 </r>
       <r>   13.0085   -0.0000 </r>
       <r>   13.2980   -0.0000 </r>
       <r>   13.5201   -0.0000 </r>
       <r>   13.5587   -0.0000 </r>
       <r>   13.8682   -0.0000 </r>
       <r>   13.9358   -0.0000 </r>
       <r>   14.0154   -0.0000 </r>
      </set>
      <set comment="kpoint 63">
       <r>   -1.6028    1.0000 </r>
       <r>   -1.3171    1.0000 </r>
       <r>   -1.0139    1.0000 </r>
       <r>   -0.7340    1.0000 </r>
       <r>    0.3366    1.0000 </r>
       <r>    0.8581    1.0000 </r>
       <r>    1.1475    1.0000 </r>
       <r>    1.7025    1.0000 </r>
       <r>    2.1822    1.0000 </r>
       <r>    2.4970    1.0000 </r>
       <r>    2.7877    1.0000 </r>
       <r>    3.0268    1.0000 </r>
       <r>    3.2617    1.0000 </r>
       <r>    3.5462    1.0000 </r>
       <r>    3.8237    1.0000 </r>
       <r>    4.0453    1.0000 </r>
       <r>    4.0746    1.0000 </r>
       <r>    4.3010    1.0000 </r>
       <r>    4.5591    1.0000 </r>
       <r>    4.7773    1.0000 </r>
       <r>    4.8923    1.0000 </r>
       <r>    5.0557    1.0000 </r>
       <r>    5.4911    1.0000 </r>
       <r>    5.6307    1.0000 </r>
       <r>    5.8079    1.0000 </r>
       <r>    6.0255    1.0000 </r>
       <r>    6.1042    1.0000 </r>
       <r>    6.2178    1.0000 </r>
       <r>    6.4508    1.0000 </r>
       <r>    6.5527    1.0000 </r>
       <r>    7.9266    1.0000 </r>
       <r>    7.9787    1.0000 </r>
       <r>    8.4117    1.0000 </r>
       <r>    8.5578    1.0000 </r>
       <r>    8.6644    1.0000 </r>
       <r>    8.7047    1.0000 </r>
       <r>    8.9889    1.0000 </r>
       <r>    9.2082    1.0012 </r>
       <r>    9.5552    0.9761 </r>
       <r>    9.7140    0.4631 </r>
       <r>    9.7621    0.2699 </r>
       <r>    9.9171   -0.0302 </r>
       <r>   10.0173   -0.0249 </r>
       <r>   10.2380   -0.0005 </r>
       <r>   10.3406   -0.0000 </r>
       <r>   10.7240   -0.0000 </r>
       <r>   10.8378   -0.0000 </r>
       <r>   10.9424   -0.0000 </r>
       <r>   11.0083   -0.0000 </r>
       <r>   11.5172   -0.0000 </r>
       <r>   11.8035   -0.0000 </r>
       <r>   11.8715   -0.0000 </r>
       <r>   11.9852   -0.0000 </r>
       <r>   12.1063   -0.0000 </r>
       <r>   12.3057   -0.0000 </r>
       <r>   12.5380   -0.0000 </r>
       <r>   12.7735   -0.0000 </r>
       <r>   13.0157   -0.0000 </r>
       <r>   13.2891   -0.0000 </r>
       <r>   13.5125   -0.0000 </r>
       <r>   13.5848   -0.0000 </r>
       <r>   13.8418   -0.0000 </r>
       <r>   13.9507   -0.0000 </r>
       <r>   13.9930   -0.0000 </r>
      </set>
      <set comment="kpoint 64">
       <r>   -1.5921    1.0000 </r>
       <r>   -1.3221    1.0000 </r>
       <r>   -1.0205    1.0000 </r>
       <r>   -0.7446    1.0000 </r>
       <r>    0.3304    1.0000 </r>
       <r>    0.8907    1.0000 </r>
       <r>    1.1555    1.0000 </r>
       <r>    1.6982    1.0000 </r>
       <r>    2.2138    1.0000 </r>
       <r>    2.4728    1.0000 </r>
       <r>    2.7503    1.0000 </r>
       <r>    3.0238    1.0000 </r>
       <r>    3.2825    1.0000 </r>
       <r>    3.4980    1.0000 </r>
       <r>    3.8200    1.0000 </r>
       <r>    4.0493    1.0000 </r>
       <r>    4.0748    1.0000 </r>
       <r>    4.3330    1.0000 </r>
       <r>    4.5482    1.0000 </r>
       <r>    4.8024    1.0000 </r>
       <r>    4.8716    1.0000 </r>
       <r>    5.0691    1.0000 </r>
       <r>    5.5240    1.0000 </r>
       <r>    5.5789    1.0000 </r>
       <r>    5.8164    1.0000 </r>
       <r>    6.0376    1.0000 </r>
       <r>    6.1288    1.0000 </r>
       <r>    6.2320    1.0000 </r>
       <r>    6.4447    1.0000 </r>
       <r>    6.5280    1.0000 </r>
       <r>    7.9094    1.0000 </r>
       <r>    8.0164    1.0000 </r>
       <r>    8.3950    1.0000 </r>
       <r>    8.5442    1.0000 </r>
       <r>    8.6389    1.0000 </r>
       <r>    8.7114    1.0000 </r>
       <r>    9.0173    1.0000 </r>
       <r>    9.2242    1.0017 </r>
       <r>    9.5521    0.9807 </r>
       <r>    9.6901    0.5639 </r>
       <r>    9.7842    0.1931 </r>
       <r>    9.9167   -0.0301 </r>
       <r>   10.0080   -0.0270 </r>
       <r>   10.2046   -0.0012 </r>
       <r>   10.3533   -0.0000 </r>
       <r>   10.7376   -0.0000 </r>
       <r>   10.8520   -0.0000 </r>
       <r>   10.9386   -0.0000 </r>
       <r>   10.9717   -0.0000 </r>
       <r>   11.5163   -0.0000 </r>
       <r>   11.8055   -0.0000 </r>
       <r>   11.8648   -0.0000 </r>
       <r>   12.0218   -0.0000 </r>
       <r>   12.1184   -0.0000 </r>
       <r>   12.2938   -0.0000 </r>
       <r>   12.5384   -0.0000 </r>
       <r>   12.7561   -0.0000 </r>
       <r>   13.0446   -0.0000 </r>
       <r>   13.3027   -0.0000 </r>
       <r>   13.5099   -0.0000 </r>
       <r>   13.5509   -0.0000 </r>
       <r>   13.8483   -0.0000 </r>
       <r>   13.9514   -0.0000 </r>
       <r>   14.0244   -0.0000 </r>
      </set>
      <set comment="kpoint 65">
       <r>   -1.5866    1.0000 </r>
       <r>   -1.3377    1.0000 </r>
       <r>   -1.0242    1.0000 </r>
       <r>   -0.7193    1.0000 </r>
       <r>    0.3187    1.0000 </r>
       <r>    0.8880    1.0000 </r>
       <r>    1.1556    1.0000 </r>
       <r>    1.6853    1.0000 </r>
       <r>    2.2029    1.0000 </r>
       <r>    2.4731    1.0000 </r>
       <r>    2.7762    1.0000 </r>
       <r>    3.0277    1.0000 </r>
       <r>    3.2980    1.0000 </r>
       <r>    3.5212    1.0000 </r>
       <r>    3.8064    1.0000 </r>
       <r>    4.0344    1.0000 </r>
       <r>    4.0839    1.0000 </r>
       <r>    4.3156    1.0000 </r>
       <r>    4.5770    1.0000 </r>
       <r>    4.7842    1.0000 </r>
       <r>    4.8764    1.0000 </r>
       <r>    5.0297    1.0000 </r>
       <r>    5.4979    1.0000 </r>
       <r>    5.6114    1.0000 </r>
       <r>    5.8118    1.0000 </r>
       <r>    6.0553    1.0000 </r>
       <r>    6.1227    1.0000 </r>
       <r>    6.2021    1.0000 </r>
       <r>    6.4589    1.0000 </r>
       <r>    6.5428    1.0000 </r>
       <r>    7.9267    1.0000 </r>
       <r>    8.0048    1.0000 </r>
       <r>    8.4060    1.0000 </r>
       <r>    8.5474    1.0000 </r>
       <r>    8.6359    1.0000 </r>
       <r>    8.7254    1.0000 </r>
       <r>    9.0382    1.0000 </r>
       <r>    9.1699    1.0005 </r>
       <r>    9.5479    0.9866 </r>
       <r>    9.7077    0.4895 </r>
       <r>    9.7923    0.1675 </r>
       <r>    9.9019   -0.0233 </r>
       <r>   10.0091   -0.0268 </r>
       <r>   10.2057   -0.0011 </r>
       <r>   10.3169   -0.0001 </r>
       <r>   10.7328   -0.0000 </r>
       <r>   10.8705   -0.0000 </r>
       <r>   10.9534   -0.0000 </r>
       <r>   11.0127   -0.0000 </r>
       <r>   11.5216   -0.0000 </r>
       <r>   11.8013   -0.0000 </r>
       <r>   11.9000   -0.0000 </r>
       <r>   11.9936   -0.0000 </r>
       <r>   12.0971   -0.0000 </r>
       <r>   12.2704   -0.0000 </r>
       <r>   12.5328   -0.0000 </r>
       <r>   12.7635   -0.0000 </r>
       <r>   13.0211   -0.0000 </r>
       <r>   13.2845   -0.0000 </r>
       <r>   13.5147   -0.0000 </r>
       <r>   13.5739   -0.0000 </r>
       <r>   13.8618   -0.0000 </r>
       <r>   13.9108   -0.0000 </r>
       <r>   14.0220   -0.0000 </r>
      </set>
      <set comment="kpoint 66">
       <r>   -1.6107    1.0000 </r>
       <r>   -1.3107    1.0000 </r>
       <r>   -0.9969    1.0000 </r>
       <r>   -0.7456    1.0000 </r>
       <r>    0.3189    1.0000 </r>
       <r>    0.8675    1.0000 </r>
       <r>    1.1518    1.0000 </r>
       <r>    1.7057    1.0000 </r>
       <r>    2.1994    1.0000 </r>
       <r>    2.4841    1.0000 </r>
       <r>    2.7778    1.0000 </r>
       <r>    3.0243    1.0000 </r>
       <r>    3.2725    1.0000 </r>
       <r>    3.5291    1.0000 </r>
       <r>    3.7932    1.0000 </r>
       <r>    4.0600    1.0000 </r>
       <r>    4.1081    1.0000 </r>
       <r>    4.3158    1.0000 </r>
       <r>    4.5415    1.0000 </r>
       <r>    4.7785    1.0000 </r>
       <r>    4.8683    1.0000 </r>
       <r>    5.0679    1.0000 </r>
       <r>    5.5354    1.0000 </r>
       <r>    5.5917    1.0000 </r>
       <r>    5.8104    1.0000 </r>
       <r>    5.9893    1.0000 </r>
       <r>    6.1603    1.0000 </r>
       <r>    6.2219    1.0000 </r>
       <r>    6.4355    1.0000 </r>
       <r>    6.5623    1.0000 </r>
       <r>    7.8734    1.0000 </r>
       <r>    8.0110    1.0000 </r>
       <r>    8.4073    1.0000 </r>
       <r>    8.5692    1.0000 </r>
       <r>    8.6333    1.0000 </r>
       <r>    8.7028    1.0000 </r>
       <r>    8.9930    1.0000 </r>
       <r>    9.2102    1.0013 </r>
       <r>    9.5683    0.9544 </r>
       <r>    9.7218    0.4303 </r>
       <r>    9.7667    0.2530 </r>
       <r>    9.8873   -0.0131 </r>
       <r>   10.0332   -0.0212 </r>
       <r>   10.2331   -0.0006 </r>
       <r>   10.3402   -0.0000 </r>
       <r>   10.7352   -0.0000 </r>
       <r>   10.8503   -0.0000 </r>
       <r>   10.9391   -0.0000 </r>
       <r>   11.0105   -0.0000 </r>
       <r>   11.4911   -0.0000 </r>
       <r>   11.8183   -0.0000 </r>
       <r>   11.8895   -0.0000 </r>
       <r>   11.9745   -0.0000 </r>
       <r>   12.1208   -0.0000 </r>
       <r>   12.2943   -0.0000 </r>
       <r>   12.5459   -0.0000 </r>
       <r>   12.7606   -0.0000 </r>
       <r>   13.0228   -0.0000 </r>
       <r>   13.2754   -0.0000 </r>
       <r>   13.5219   -0.0000 </r>
       <r>   13.5909   -0.0000 </r>
       <r>   13.8831   -0.0000 </r>
       <r>   13.9126   -0.0000 </r>
       <r>   14.0190   -0.0000 </r>
      </set>
      <set comment="kpoint 67">
       <r>   -1.6012    1.0000 </r>
       <r>   -1.3042    1.0000 </r>
       <r>   -1.0330    1.0000 </r>
       <r>   -0.7397    1.0000 </r>
       <r>    0.3347    1.0000 </r>
       <r>    0.8981    1.0000 </r>
       <r>    1.1460    1.0000 </r>
       <r>    1.6953    1.0000 </r>
       <r>    2.1892    1.0000 </r>
       <r>    2.4676    1.0000 </r>
       <r>    2.7746    1.0000 </r>
       <r>    3.0065    1.0000 </r>
       <r>    3.2730    1.0000 </r>
       <r>    3.5266    1.0000 </r>
       <r>    3.8245    1.0000 </r>
       <r>    4.0653    1.0000 </r>
       <r>    4.0847    1.0000 </r>
       <r>    4.3205    1.0000 </r>
       <r>    4.5546    1.0000 </r>
       <r>    4.7908    1.0000 </r>
       <r>    4.8836    1.0000 </r>
       <r>    5.0572    1.0000 </r>
       <r>    5.5030    1.0000 </r>
       <r>    5.6309    1.0000 </r>
       <r>    5.8023    1.0000 </r>
       <r>    6.0178    1.0000 </r>
       <r>    6.1344    1.0000 </r>
       <r>    6.2000    1.0000 </r>
       <r>    6.4522    1.0000 </r>
       <r>    6.5371    1.0000 </r>
       <r>    7.9131    1.0000 </r>
       <r>    8.0277    1.0000 </r>
       <r>    8.4072    1.0000 </r>
       <r>    8.5353    1.0000 </r>
       <r>    8.6447    1.0000 </r>
       <r>    8.6924    1.0000 </r>
       <r>    9.0089    1.0000 </r>
       <r>    9.2364    1.0023 </r>
       <r>    9.5303    1.0067 </r>
       <r>    9.6414    0.7554 </r>
       <r>    9.7910    0.1716 </r>
       <r>    9.9202   -0.0313 </r>
       <r>   10.0214   -0.0239 </r>
       <r>   10.2313   -0.0006 </r>
       <r>   10.3515   -0.0000 </r>
       <r>   10.7170   -0.0000 </r>
       <r>   10.8651   -0.0000 </r>
       <r>   10.9249   -0.0000 </r>
       <r>   11.0040   -0.0000 </r>
       <r>   11.5033   -0.0000 </r>
       <r>   11.8175   -0.0000 </r>
       <r>   11.8844   -0.0000 </r>
       <r>   12.0201   -0.0000 </r>
       <r>   12.1150   -0.0000 </r>
       <r>   12.3065   -0.0000 </r>
       <r>   12.5320   -0.0000 </r>
       <r>   12.7523   -0.0000 </r>
       <r>   13.0190   -0.0000 </r>
       <r>   13.2942   -0.0000 </r>
       <r>   13.5191   -0.0000 </r>
       <r>   13.5605   -0.0000 </r>
       <r>   13.8768   -0.0000 </r>
       <r>   13.9540   -0.0000 </r>
       <r>   14.0034   -0.0000 </r>
      </set>
      <set comment="kpoint 68">
       <r>   -1.5977    1.0000 </r>
       <r>   -1.3088    1.0000 </r>
       <r>   -1.0349    1.0000 </r>
       <r>   -0.7359    1.0000 </r>
       <r>    0.3307    1.0000 </r>
       <r>    0.8849    1.0000 </r>
       <r>    1.1647    1.0000 </r>
       <r>    1.6966    1.0000 </r>
       <r>    2.1950    1.0000 </r>
       <r>    2.4737    1.0000 </r>
       <r>    2.7493    1.0000 </r>
       <r>    3.0202    1.0000 </r>
       <r>    3.2756    1.0000 </r>
       <r>    3.5261    1.0000 </r>
       <r>    3.8087    1.0000 </r>
       <r>    4.0689    1.0000 </r>
       <r>    4.0904    1.0000 </r>
       <r>    4.3263    1.0000 </r>
       <r>    4.5733    1.0000 </r>
       <r>    4.7888    1.0000 </r>
       <r>    4.8498    1.0000 </r>
       <r>    5.0575    1.0000 </r>
       <r>    5.5087    1.0000 </r>
       <r>    5.6144    1.0000 </r>
       <r>    5.7934    1.0000 </r>
       <r>    6.0356    1.0000 </r>
       <r>    6.1533    1.0000 </r>
       <r>    6.1977    1.0000 </r>
       <r>    6.4322    1.0000 </r>
       <r>    6.5528    1.0000 </r>
       <r>    7.9096    1.0000 </r>
       <r>    8.0373    1.0000 </r>
       <r>    8.4113    1.0000 </r>
       <r>    8.5186    1.0000 </r>
       <r>    8.6559    1.0000 </r>
       <r>    8.6898    1.0000 </r>
       <r>    9.0302    1.0000 </r>
       <r>    9.2160    1.0015 </r>
       <r>    9.5295    1.0075 </r>
       <r>    9.6746    0.6281 </r>
       <r>    9.7823    0.1991 </r>
       <r>    9.9193   -0.0310 </r>
       <r>    9.9985   -0.0291 </r>
       <r>   10.2209   -0.0008 </r>
       <r>   10.3483   -0.0000 </r>
       <r>   10.7363   -0.0000 </r>
       <r>   10.8602   -0.0000 </r>
       <r>   10.9428   -0.0000 </r>
       <r>   10.9955   -0.0000 </r>
       <r>   11.5256   -0.0000 </r>
       <r>   11.7866   -0.0000 </r>
       <r>   11.8951   -0.0000 </r>
       <r>   12.0026   -0.0000 </r>
       <r>   12.1148   -0.0000 </r>
       <r>   12.2906   -0.0000 </r>
       <r>   12.5438   -0.0000 </r>
       <r>   12.7443   -0.0000 </r>
       <r>   13.0477   -0.0000 </r>
       <r>   13.2883   -0.0000 </r>
       <r>   13.5011   -0.0000 </r>
       <r>   13.5754   -0.0000 </r>
       <r>   13.8802   -0.0000 </r>
       <r>   13.9284   -0.0000 </r>
       <r>   13.9925   -0.0000 </r>
      </set>
      <set comment="kpoint 69">
       <r>   -1.5933    1.0000 </r>
       <r>   -1.3297    1.0000 </r>
       <r>   -1.0202    1.0000 </r>
       <r>   -0.7253    1.0000 </r>
       <r>    0.3260    1.0000 </r>
       <r>    0.8940    1.0000 </r>
       <r>    1.1335    1.0000 </r>
       <r>    1.6836    1.0000 </r>
       <r>    2.2145    1.0000 </r>
       <r>    2.4885    1.0000 </r>
       <r>    2.7839    1.0000 </r>
       <r>    3.0064    1.0000 </r>
       <r>    3.2731    1.0000 </r>
       <r>    3.5162    1.0000 </r>
       <r>    3.8146    1.0000 </r>
       <r>    4.0439    1.0000 </r>
       <r>    4.0839    1.0000 </r>
       <r>    4.3190    1.0000 </r>
       <r>    4.5787    1.0000 </r>
       <r>    4.7847    1.0000 </r>
       <r>    4.8830    1.0000 </r>
       <r>    5.0558    1.0000 </r>
       <r>    5.4843    1.0000 </r>
       <r>    5.6112    1.0000 </r>
       <r>    5.8054    1.0000 </r>
       <r>    6.0300    1.0000 </r>
       <r>    6.1429    1.0000 </r>
       <r>    6.1951    1.0000 </r>
       <r>    6.4526    1.0000 </r>
       <r>    6.5665    1.0000 </r>
       <r>    7.9143    1.0000 </r>
       <r>    8.0210    1.0000 </r>
       <r>    8.4177    1.0000 </r>
       <r>    8.5355    1.0000 </r>
       <r>    8.6455    1.0000 </r>
       <r>    8.6903    1.0000 </r>
       <r>    9.0121    1.0000 </r>
       <r>    9.1670    1.0005 </r>
       <r>    9.5601    0.9685 </r>
       <r>    9.7261    0.4123 </r>
       <r>    9.7704    0.2398 </r>
       <r>    9.8871   -0.0130 </r>
       <r>   10.0295   -0.0221 </r>
       <r>   10.1752   -0.0022 </r>
       <r>   10.3307   -0.0000 </r>
       <r>   10.7563   -0.0000 </r>
       <r>   10.8879   -0.0000 </r>
       <r>   10.9258   -0.0000 </r>
       <r>   11.0385   -0.0000 </r>
       <r>   11.5130   -0.0000 </r>
       <r>   11.8082   -0.0000 </r>
       <r>   11.8813   -0.0000 </r>
       <r>   12.0072   -0.0000 </r>
       <r>   12.1108   -0.0000 </r>
       <r>   12.2678   -0.0000 </r>
       <r>   12.5424   -0.0000 </r>
       <r>   12.7658   -0.0000 </r>
       <r>   13.0306   -0.0000 </r>
       <r>   13.2925   -0.0000 </r>
       <r>   13.4990   -0.0000 </r>
       <r>   13.5828   -0.0000 </r>
       <r>   13.8680   -0.0000 </r>
       <r>   13.9330   -0.0000 </r>
       <r>   13.9848   -0.0000 </r>
      </set>
      <set comment="kpoint 70">
       <r>   -1.6106    1.0000 </r>
       <r>   -1.3085    1.0000 </r>
       <r>   -0.9945    1.0000 </r>
       <r>   -0.7554    1.0000 </r>
       <r>    0.3277    1.0000 </r>
       <r>    0.8724    1.0000 </r>
       <r>    1.1417    1.0000 </r>
       <r>    1.7078    1.0000 </r>
       <r>    2.1969    1.0000 </r>
       <r>    2.4799    1.0000 </r>
       <r>    2.7896    1.0000 </r>
       <r>    3.0128    1.0000 </r>
       <r>    3.2659    1.0000 </r>
       <r>    3.5409    1.0000 </r>
       <r>    3.8132    1.0000 </r>
       <r>    4.0583    1.0000 </r>
       <r>    4.0925    1.0000 </r>
       <r>    4.3238    1.0000 </r>
       <r>    4.5275    1.0000 </r>
       <r>    4.7839    1.0000 </r>
       <r>    4.8720    1.0000 </r>
       <r>    5.0769    1.0000 </r>
       <r>    5.5164    1.0000 </r>
       <r>    5.6013    1.0000 </r>
       <r>    5.8016    1.0000 </r>
       <r>    6.0010    1.0000 </r>
       <r>    6.1320    1.0000 </r>
       <r>    6.2109    1.0000 </r>
       <r>    6.4475    1.0000 </r>
       <r>    6.5654    1.0000 </r>
       <r>    7.8873    1.0000 </r>
       <r>    8.0308    1.0000 </r>
       <r>    8.4182    1.0000 </r>
       <r>    8.5125    1.0000 </r>
       <r>    8.6661    1.0000 </r>
       <r>    8.6986    1.0000 </r>
       <r>    9.0054    1.0000 </r>
       <r>    9.2297    1.0020 </r>
       <r>    9.5712    0.9490 </r>
       <r>    9.7118    0.4724 </r>
       <r>    9.7481    0.3232 </r>
       <r>    9.8963   -0.0198 </r>
       <r>   10.0238   -0.0234 </r>
       <r>   10.2276   -0.0007 </r>
       <r>   10.3367   -0.0000 </r>
       <r>   10.7458   -0.0000 </r>
       <r>   10.8473   -0.0000 </r>
       <r>   10.9344   -0.0000 </r>
       <r>   11.0077   -0.0000 </r>
       <r>   11.5204   -0.0000 </r>
       <r>   11.7974   -0.0000 </r>
       <r>   11.8817   -0.0000 </r>
       <r>   11.9713   -0.0000 </r>
       <r>   12.1191   -0.0000 </r>
       <r>   12.2931   -0.0000 </r>
       <r>   12.5469   -0.0000 </r>
       <r>   12.7610   -0.0000 </r>
       <r>   13.0229   -0.0000 </r>
       <r>   13.2788   -0.0000 </r>
       <r>   13.5281   -0.0000 </r>
       <r>   13.5743   -0.0000 </r>
       <r>   13.8512   -0.0000 </r>
       <r>   13.9524   -0.0000 </r>
       <r>   14.0097   -0.0000 </r>
      </set>
      <set comment="kpoint 71">
       <r>   -1.6054    1.0000 </r>
       <r>   -1.3107    1.0000 </r>
       <r>   -1.0239    1.0000 </r>
       <r>   -0.7234    1.0000 </r>
       <r>    0.3260    1.0000 </r>
       <r>    0.8628    1.0000 </r>
       <r>    1.1465    1.0000 </r>
       <r>    1.7032    1.0000 </r>
       <r>    2.1949    1.0000 </r>
       <r>    2.5029    1.0000 </r>
       <r>    2.7713    1.0000 </r>
       <r>    3.0326    1.0000 </r>
       <r>    3.2596    1.0000 </r>
       <r>    3.5191    1.0000 </r>
       <r>    3.8256    1.0000 </r>
       <r>    4.0554    1.0000 </r>
       <r>    4.0895    1.0000 </r>
       <r>    4.2985    1.0000 </r>
       <r>    4.5560    1.0000 </r>
       <r>    4.7810    1.0000 </r>
       <r>    4.8857    1.0000 </r>
       <r>    5.0589    1.0000 </r>
       <r>    5.4927    1.0000 </r>
       <r>    5.6195    1.0000 </r>
       <r>    5.8035    1.0000 </r>
       <r>    6.0310    1.0000 </r>
       <r>    6.1244    1.0000 </r>
       <r>    6.2296    1.0000 </r>
       <r>    6.4459    1.0000 </r>
       <r>    6.5499    1.0000 </r>
       <r>    7.9079    1.0000 </r>
       <r>    7.9853    1.0000 </r>
       <r>    8.4094    1.0000 </r>
       <r>    8.5549    1.0000 </r>
       <r>    8.6640    1.0000 </r>
       <r>    8.7019    1.0000 </r>
       <r>    8.9727    1.0000 </r>
       <r>    9.2200    1.0016 </r>
       <r>    9.5576    0.9725 </r>
       <r>    9.7134    0.4656 </r>
       <r>    9.7571    0.2887 </r>
       <r>    9.9024   -0.0236 </r>
       <r>   10.0232   -0.0235 </r>
       <r>   10.2218   -0.0008 </r>
       <r>   10.3548   -0.0000 </r>
       <r>   10.7580   -0.0000 </r>
       <r>   10.8407   -0.0000 </r>
       <r>   10.9419   -0.0000 </r>
       <r>   11.0060   -0.0000 </r>
       <r>   11.4828   -0.0000 </r>
       <r>   11.8231   -0.0000 </r>
       <r>   11.8810   -0.0000 </r>
       <r>   11.9848   -0.0000 </r>
       <r>   12.1146   -0.0000 </r>
       <r>   12.3033   -0.0000 </r>
       <r>   12.5348   -0.0000 </r>
       <r>   12.7695   -0.0000 </r>
       <r>   13.0290   -0.0000 </r>
       <r>   13.2863   -0.0000 </r>
       <r>   13.5394   -0.0000 </r>
       <r>   13.5628   -0.0000 </r>
       <r>   13.8327   -0.0000 </r>
       <r>   13.9370   -0.0000 </r>
       <r>   14.1199   -0.0000 </r>
      </set>
      <set comment="kpoint 72">
       <r>   -1.5924    1.0000 </r>
       <r>   -1.3273    1.0000 </r>
       <r>   -1.0129    1.0000 </r>
       <r>   -0.7459    1.0000 </r>
       <r>    0.3349    1.0000 </r>
       <r>    0.8994    1.0000 </r>
       <r>    1.1439    1.0000 </r>
       <r>    1.6926    1.0000 </r>
       <r>    2.1968    1.0000 </r>
       <r>    2.4747    1.0000 </r>
       <r>    2.7567    1.0000 </r>
       <r>    3.0119    1.0000 </r>
       <r>    3.2875    1.0000 </r>
       <r>    3.5281    1.0000 </r>
       <r>    3.8226    1.0000 </r>
       <r>    4.0464    1.0000 </r>
       <r>    4.0695    1.0000 </r>
       <r>    4.3351    1.0000 </r>
       <r>    4.5577    1.0000 </r>
       <r>    4.7955    1.0000 </r>
       <r>    4.8827    1.0000 </r>
       <r>    5.0554    1.0000 </r>
       <r>    5.4967    1.0000 </r>
       <r>    5.6206    1.0000 </r>
       <r>    5.8254    1.0000 </r>
       <r>    6.0314    1.0000 </r>
       <r>    6.0923    1.0000 </r>
       <r>    6.2145    1.0000 </r>
       <r>    6.4501    1.0000 </r>
       <r>    6.5490    1.0000 </r>
       <r>    7.9311    1.0000 </r>
       <r>    8.0009    1.0000 </r>
       <r>    8.3981    1.0000 </r>
       <r>    8.5523    1.0000 </r>
       <r>    8.6353    1.0000 </r>
       <r>    8.7043    1.0000 </r>
       <r>    9.0147    1.0000 </r>
       <r>    9.2288    1.0019 </r>
       <r>    9.5516    0.9814 </r>
       <r>    9.6728    0.6354 </r>
       <r>    9.7637    0.2638 </r>
       <r>    9.9126   -0.0285 </r>
       <r>   10.0162   -0.0252 </r>
       <r>   10.2256   -0.0007 </r>
       <r>   10.3507   -0.0000 </r>
       <r>   10.6954   -0.0000 </r>
       <r>   10.8621   -0.0000 </r>
       <r>   10.9418   -0.0000 </r>
       <r>   11.0036   -0.0000 </r>
       <r>   11.5202   -0.0000 </r>
       <r>   11.8017   -0.0000 </r>
       <r>   11.8975   -0.0000 </r>
       <r>   12.0029   -0.0000 </r>
       <r>   12.1126   -0.0000 </r>
       <r>   12.3048   -0.0000 </r>
       <r>   12.5323   -0.0000 </r>
       <r>   12.7551   -0.0000 </r>
       <r>   13.0225   -0.0000 </r>
       <r>   13.2906   -0.0000 </r>
       <r>   13.5140   -0.0000 </r>
       <r>   13.5681   -0.0000 </r>
       <r>   13.8667   -0.0000 </r>
       <r>   13.9443   -0.0000 </r>
       <r>   14.0058   -0.0000 </r>
      </set>
      <set comment="kpoint 73">
       <r>   -1.5991    1.0000 </r>
       <r>   -1.3166    1.0000 </r>
       <r>   -1.0253    1.0000 </r>
       <r>   -0.7262    1.0000 </r>
       <r>    0.3113    1.0000 </r>
       <r>    0.8941    1.0000 </r>
       <r>    1.1584    1.0000 </r>
       <r>    1.6880    1.0000 </r>
       <r>    2.2178    1.0000 </r>
       <r>    2.4491    1.0000 </r>
       <r>    2.7614    1.0000 </r>
       <r>    3.0367    1.0000 </r>
       <r>    3.2914    1.0000 </r>
       <r>    3.5193    1.0000 </r>
       <r>    3.8059    1.0000 </r>
       <r>    4.0416    1.0000 </r>
       <r>    4.1073    1.0000 </r>
       <r>    4.3375    1.0000 </r>
       <r>    4.5621    1.0000 </r>
       <r>    4.7740    1.0000 </r>
       <r>    4.8524    1.0000 </r>
       <r>    5.0519    1.0000 </r>
       <r>    5.5436    1.0000 </r>
       <r>    5.5718    1.0000 </r>
       <r>    5.8009    1.0000 </r>
       <r>    6.0223    1.0000 </r>
       <r>    6.1471    1.0000 </r>
       <r>    6.2233    1.0000 </r>
       <r>    6.4433    1.0000 </r>
       <r>    6.5481    1.0000 </r>
       <r>    7.8990    1.0000 </r>
       <r>    8.0261    1.0000 </r>
       <r>    8.3929    1.0000 </r>
       <r>    8.5521    1.0000 </r>
       <r>    8.6413    1.0000 </r>
       <r>    8.7137    1.0000 </r>
       <r>    9.0353    1.0000 </r>
       <r>    9.1893    1.0008 </r>
       <r>    9.5378    0.9990 </r>
       <r>    9.6958    0.5399 </r>
       <r>    9.7948    0.1598 </r>
       <r>    9.9081   -0.0266 </r>
       <r>   10.0162   -0.0252 </r>
       <r>   10.2049   -0.0012 </r>
       <r>   10.3264   -0.0001 </r>
       <r>   10.7406   -0.0000 </r>
       <r>   10.8659   -0.0000 </r>
       <r>   10.9458   -0.0000 </r>
       <r>   11.0155   -0.0000 </r>
       <r>   11.5084   -0.0000 </r>
       <r>   11.7994   -0.0000 </r>
       <r>   11.8946   -0.0000 </r>
       <r>   11.9955   -0.0000 </r>
       <r>   12.1028   -0.0000 </r>
       <r>   12.2773   -0.0000 </r>
       <r>   12.5402   -0.0000 </r>
       <r>   12.7690   -0.0000 </r>
       <r>   13.0305   -0.0000 </r>
       <r>   13.2859   -0.0000 </r>
       <r>   13.5032   -0.0000 </r>
       <r>   13.5810   -0.0000 </r>
       <r>   13.8760   -0.0000 </r>
       <r>   13.9189   -0.0000 </r>
       <r>   13.9917   -0.0000 </r>
      </set>
      <set comment="kpoint 74">
       <r>   -1.6058    1.0000 </r>
       <r>   -1.3079    1.0000 </r>
       <r>   -1.0214    1.0000 </r>
       <r>   -0.7332    1.0000 </r>
       <r>    0.3370    1.0000 </r>
       <r>    0.8544    1.0000 </r>
       <r>    1.1515    1.0000 </r>
       <r>    1.7042    1.0000 </r>
       <r>    2.2019    1.0000 </r>
       <r>    2.4733    1.0000 </r>
       <r>    2.7964    1.0000 </r>
       <r>    3.0197    1.0000 </r>
       <r>    3.2444    1.0000 </r>
       <r>    3.5268    1.0000 </r>
       <r>    3.8462    1.0000 </r>
       <r>    4.0694    1.0000 </r>
       <r>    4.0902    1.0000 </r>
       <r>    4.3030    1.0000 </r>
       <r>    4.5382    1.0000 </r>
       <r>    4.7802    1.0000 </r>
       <r>    4.8943    1.0000 </r>
       <r>    5.0479    1.0000 </r>
       <r>    5.4830    1.0000 </r>
       <r>    5.6313    1.0000 </r>
       <r>    5.8067    1.0000 </r>
       <r>    6.0218    1.0000 </r>
       <r>    6.1093    1.0000 </r>
       <r>    6.2211    1.0000 </r>
       <r>    6.4509    1.0000 </r>
       <r>    6.5534    1.0000 </r>
       <r>    7.9175    1.0000 </r>
       <r>    8.0044    1.0000 </r>
       <r>    8.3886    1.0000 </r>
       <r>    8.5461    1.0000 </r>
       <r>    8.6554    1.0000 </r>
       <r>    8.7268    1.0000 </r>
       <r>    8.9958    1.0000 </r>
       <r>    9.2255    1.0018 </r>
       <r>    9.5493    0.9846 </r>
       <r>    9.7155    0.4567 </r>
       <r>    9.7401    0.3548 </r>
       <r>    9.9153   -0.0296 </r>
       <r>   10.0174   -0.0249 </r>
       <r>   10.2246   -0.0007 </r>
       <r>   10.3309   -0.0000 </r>
       <r>   10.7595   -0.0000 </r>
       <r>   10.8515   -0.0000 </r>
       <r>   10.9257   -0.0000 </r>
       <r>   11.0153   -0.0000 </r>
       <r>   11.4911   -0.0000 </r>
       <r>   11.8288   -0.0000 </r>
       <r>   11.8809   -0.0000 </r>
       <r>   11.9689   -0.0000 </r>
       <r>   12.1145   -0.0000 </r>
       <r>   12.3066   -0.0000 </r>
       <r>   12.5458   -0.0000 </r>
       <r>   12.7641   -0.0000 </r>
       <r>   13.0174   -0.0000 </r>
       <r>   13.2725   -0.0000 </r>
       <r>   13.5210   -0.0000 </r>
       <r>   13.5673   -0.0000 </r>
       <r>   13.8757   -0.0000 </r>
       <r>   13.9649   -0.0000 </r>
       <r>   14.0526   -0.0000 </r>
      </set>
      <set comment="kpoint 75">
       <r>   -1.6032    1.0000 </r>
       <r>   -1.3118    1.0000 </r>
       <r>   -1.0203    1.0000 </r>
       <r>   -0.7341    1.0000 </r>
       <r>    0.3275    1.0000 </r>
       <r>    0.8817    1.0000 </r>
       <r>    1.1458    1.0000 </r>
       <r>    1.6828    1.0000 </r>
       <r>    2.2332    1.0000 </r>
       <r>    2.4574    1.0000 </r>
       <r>    2.7883    1.0000 </r>
       <r>    3.0183    1.0000 </r>
       <r>    3.2708    1.0000 </r>
       <r>    3.5244    1.0000 </r>
       <r>    3.7884    1.0000 </r>
       <r>    4.0477    1.0000 </r>
       <r>    4.0989    1.0000 </r>
       <r>    4.3446    1.0000 </r>
       <r>    4.5529    1.0000 </r>
       <r>    4.7887    1.0000 </r>
       <r>    4.8624    1.0000 </r>
       <r>    5.0657    1.0000 </r>
       <r>    5.5239    1.0000 </r>
       <r>    5.5665    1.0000 </r>
       <r>    5.8146    1.0000 </r>
       <r>    6.0001    1.0000 </r>
       <r>    6.1587    1.0000 </r>
       <r>    6.2265    1.0000 </r>
       <r>    6.4488    1.0000 </r>
       <r>    6.5593    1.0000 </r>
       <r>    7.8980    1.0000 </r>
       <r>    8.0349    1.0000 </r>
       <r>    8.3948    1.0000 </r>
       <r>    8.5398    1.0000 </r>
       <r>    8.6541    1.0000 </r>
       <r>    8.6799    1.0000 </r>
       <r>    9.0189    1.0000 </r>
       <r>    9.1752    1.0006 </r>
       <r>    9.5508    0.9825 </r>
       <r>    9.7152    0.4578 </r>
       <r>    9.8047    0.1315 </r>
       <r>    9.8873   -0.0132 </r>
       <r>   10.0403   -0.0196 </r>
       <r>   10.1655   -0.0027 </r>
       <r>   10.3184   -0.0001 </r>
       <r>   10.7454   -0.0000 </r>
       <r>   10.8898   -0.0000 </r>
       <r>   10.9512   -0.0000 </r>
       <r>   11.0174   -0.0000 </r>
       <r>   11.5190   -0.0000 </r>
       <r>   11.7998   -0.0000 </r>
       <r>   11.8872   -0.0000 </r>
       <r>   12.0011   -0.0000 </r>
       <r>   12.1144   -0.0000 </r>
       <r>   12.2760   -0.0000 </r>
       <r>   12.5350   -0.0000 </r>
       <r>   12.7719   -0.0000 </r>
       <r>   13.0295   -0.0000 </r>
       <r>   13.2891   -0.0000 </r>
       <r>   13.5184   -0.0000 </r>
       <r>   13.5497   -0.0000 </r>
       <r>   13.8537   -0.0000 </r>
       <r>   13.9644   -0.0000 </r>
       <r>   13.9875   -0.0000 </r>
      </set>
      <set comment="kpoint 76">
       <r>   -1.5892    1.0000 </r>
       <r>   -1.3298    1.0000 </r>
       <r>   -1.0167    1.0000 </r>
       <r>   -0.7432    1.0000 </r>
       <r>    0.3382    1.0000 </r>
       <r>    0.8754    1.0000 </r>
       <r>    1.1657    1.0000 </r>
       <r>    1.6914    1.0000 </r>
       <r>    2.2129    1.0000 </r>
       <r>    2.4638    1.0000 </r>
       <r>    2.7692    1.0000 </r>
       <r>    2.9971    1.0000 </r>
       <r>    3.2903    1.0000 </r>
       <r>    3.5168    1.0000 </r>
       <r>    3.8164    1.0000 </r>
       <r>    4.0625    1.0000 </r>
       <r>    4.0746    1.0000 </r>
       <r>    4.3432    1.0000 </r>
       <r>    4.5614    1.0000 </r>
       <r>    4.7803    1.0000 </r>
       <r>    4.8676    1.0000 </r>
       <r>    5.0478    1.0000 </r>
       <r>    5.5146    1.0000 </r>
       <r>    5.5966    1.0000 </r>
       <r>    5.8128    1.0000 </r>
       <r>    6.0452    1.0000 </r>
       <r>    6.1114    1.0000 </r>
       <r>    6.2158    1.0000 </r>
       <r>    6.4478    1.0000 </r>
       <r>    6.5531    1.0000 </r>
       <r>    7.9247    1.0000 </r>
       <r>    8.0175    1.0000 </r>
       <r>    8.3988    1.0000 </r>
       <r>    8.5394    1.0000 </r>
       <r>    8.6557    1.0000 </r>
       <r>    8.7033    1.0000 </r>
       <r>    9.0188    1.0000 </r>
       <r>    9.2081    1.0012 </r>
       <r>    9.5183    1.0169 </r>
       <r>    9.6991    0.5261 </r>
       <r>    9.7802    0.2062 </r>
       <r>    9.9103   -0.0276 </r>
       <r>   10.0071   -0.0272 </r>
       <r>   10.2201   -0.0008 </r>
       <r>   10.3373   -0.0000 </r>
       <r>   10.7478   -0.0000 </r>
       <r>   10.8395   -0.0000 </r>
       <r>   10.9527   -0.0000 </r>
       <r>   11.0049   -0.0000 </r>
       <r>   11.5274   -0.0000 </r>
       <r>   11.7959   -0.0000 </r>
       <r>   11.8874   -0.0000 </r>
       <r>   11.9910   -0.0000 </r>
       <r>   12.0952   -0.0000 </r>
       <r>   12.3203   -0.0000 </r>
       <r>   12.5280   -0.0000 </r>
       <r>   12.7706   -0.0000 </r>
       <r>   13.0118   -0.0000 </r>
       <r>   13.2877   -0.0000 </r>
       <r>   13.5005   -0.0000 </r>
       <r>   13.5902   -0.0000 </r>
       <r>   13.8630   -0.0000 </r>
       <r>   13.9456   -0.0000 </r>
       <r>   13.9843   -0.0000 </r>
      </set>
      <set comment="kpoint 77">
       <r>   -1.9970    1.0000 </r>
       <r>   -1.1742    1.0000 </r>
       <r>   -0.6290    1.0000 </r>
       <r>   -0.3505    1.0000 </r>
       <r>    0.4620    1.0000 </r>
       <r>    0.7552    1.0000 </r>
       <r>    1.0204    1.0000 </r>
       <r>    1.5381    1.0000 </r>
       <r>    1.8341    1.0000 </r>
       <r>    2.1191    1.0000 </r>
       <r>    2.3665    1.0000 </r>
       <r>    2.8756    1.0000 </r>
       <r>    3.1705    1.0000 </r>
       <r>    3.4052    1.0000 </r>
       <r>    3.6774    1.0000 </r>
       <r>    3.9382    1.0000 </r>
       <r>    4.4249    1.0000 </r>
       <r>    4.4695    1.0000 </r>
       <r>    4.6953    1.0000 </r>
       <r>    4.9670    1.0000 </r>
       <r>    5.1813    1.0000 </r>
       <r>    5.4597    1.0000 </r>
       <r>    5.5109    1.0000 </r>
       <r>    5.7247    1.0000 </r>
       <r>    6.1180    1.0000 </r>
       <r>    6.2554    1.0000 </r>
       <r>    6.4386    1.0000 </r>
       <r>    6.5617    1.0000 </r>
       <r>    6.8999    1.0000 </r>
       <r>    7.1468    1.0000 </r>
       <r>    7.4493    1.0000 </r>
       <r>    7.6184    1.0000 </r>
       <r>    8.1301    1.0000 </r>
       <r>    8.3362    1.0000 </r>
       <r>    8.5522    1.0000 </r>
       <r>    8.6082    1.0000 </r>
       <r>    8.7811    1.0000 </r>
       <r>    8.8715    1.0000 </r>
       <r>    9.1280    1.0002 </r>
       <r>    9.2081    1.0012 </r>
       <r>    9.5055    1.0250 </r>
       <r>    9.8813   -0.0078 </r>
       <r>   10.1814   -0.0019 </r>
       <r>   10.3876   -0.0000 </r>
       <r>   10.6171   -0.0000 </r>
       <r>   10.7580   -0.0000 </r>
       <r>   10.8771   -0.0000 </r>
       <r>   11.1534   -0.0000 </r>
       <r>   11.2287   -0.0000 </r>
       <r>   11.3082   -0.0000 </r>
       <r>   11.4482   -0.0000 </r>
       <r>   11.7189   -0.0000 </r>
       <r>   11.8899   -0.0000 </r>
       <r>   12.1595   -0.0000 </r>
       <r>   12.2654   -0.0000 </r>
       <r>   12.7537   -0.0000 </r>
       <r>   12.9379   -0.0000 </r>
       <r>   13.1253   -0.0000 </r>
       <r>   13.1499   -0.0000 </r>
       <r>   13.2073   -0.0000 </r>
       <r>   13.2642   -0.0000 </r>
       <r>   13.6428   -0.0000 </r>
       <r>   13.7846   -0.0000 </r>
       <r>   13.8740   -0.0000 </r>
      </set>
      <set comment="kpoint 78">
       <r>   -1.9976    1.0000 </r>
       <r>   -1.1789    1.0000 </r>
       <r>   -0.6289    1.0000 </r>
       <r>   -0.3302    1.0000 </r>
       <r>    0.4634    1.0000 </r>
       <r>    0.7343    1.0000 </r>
       <r>    1.0208    1.0000 </r>
       <r>    1.5352    1.0000 </r>
       <r>    1.8207    1.0000 </r>
       <r>    2.1132    1.0000 </r>
       <r>    2.3790    1.0000 </r>
       <r>    2.8842    1.0000 </r>
       <r>    3.1543    1.0000 </r>
       <r>    3.4293    1.0000 </r>
       <r>    3.6839    1.0000 </r>
       <r>    3.9392    1.0000 </r>
       <r>    4.4364    1.0000 </r>
       <r>    4.4654    1.0000 </r>
       <r>    4.7167    1.0000 </r>
       <r>    4.9587    1.0000 </r>
       <r>    5.1940    1.0000 </r>
       <r>    5.4303    1.0000 </r>
       <r>    5.5214    1.0000 </r>
       <r>    5.7008    1.0000 </r>
       <r>    6.1029    1.0000 </r>
       <r>    6.2465    1.0000 </r>
       <r>    6.4398    1.0000 </r>
       <r>    6.5778    1.0000 </r>
       <r>    6.8862    1.0000 </r>
       <r>    7.1613    1.0000 </r>
       <r>    7.4479    1.0000 </r>
       <r>    7.6198    1.0000 </r>
       <r>    8.1315    1.0000 </r>
       <r>    8.3176    1.0000 </r>
       <r>    8.5755    1.0000 </r>
       <r>    8.6177    1.0000 </r>
       <r>    8.7527    1.0000 </r>
       <r>    8.8816    1.0000 </r>
       <r>    9.1363    1.0002 </r>
       <r>    9.1989    1.0010 </r>
       <r>    9.5029    1.0263 </r>
       <r>    9.9007   -0.0226 </r>
       <r>   10.1734   -0.0023 </r>
       <r>   10.3981   -0.0000 </r>
       <r>   10.6251   -0.0000 </r>
       <r>   10.7604   -0.0000 </r>
       <r>   10.8635   -0.0000 </r>
       <r>   11.1460   -0.0000 </r>
       <r>   11.2098   -0.0000 </r>
       <r>   11.3554   -0.0000 </r>
       <r>   11.4197   -0.0000 </r>
       <r>   11.7082   -0.0000 </r>
       <r>   11.8777   -0.0000 </r>
       <r>   12.1576   -0.0000 </r>
       <r>   12.2940   -0.0000 </r>
       <r>   12.7594   -0.0000 </r>
       <r>   12.9497   -0.0000 </r>
       <r>   13.0908   -0.0000 </r>
       <r>   13.1295   -0.0000 </r>
       <r>   13.2261   -0.0000 </r>
       <r>   13.2937   -0.0000 </r>
       <r>   13.6288   -0.0000 </r>
       <r>   13.7798   -0.0000 </r>
       <r>   13.9184   -0.0000 </r>
      </set>
      <set comment="kpoint 79">
       <r>   -1.9949    1.0000 </r>
       <r>   -1.1893    1.0000 </r>
       <r>   -0.6246    1.0000 </r>
       <r>   -0.3240    1.0000 </r>
       <r>    0.4494    1.0000 </r>
       <r>    0.7437    1.0000 </r>
       <r>    1.0312    1.0000 </r>
       <r>    1.5202    1.0000 </r>
       <r>    1.8576    1.0000 </r>
       <r>    2.0958    1.0000 </r>
       <r>    2.3638    1.0000 </r>
       <r>    2.8809    1.0000 </r>
       <r>    3.1337    1.0000 </r>
       <r>    3.4405    1.0000 </r>
       <r>    3.6921    1.0000 </r>
       <r>    3.9611    1.0000 </r>
       <r>    4.4359    1.0000 </r>
       <r>    4.4554    1.0000 </r>
       <r>    4.7016    1.0000 </r>
       <r>    4.9573    1.0000 </r>
       <r>    5.1931    1.0000 </r>
       <r>    5.4480    1.0000 </r>
       <r>    5.5243    1.0000 </r>
       <r>    5.6723    1.0000 </r>
       <r>    6.1399    1.0000 </r>
       <r>    6.2425    1.0000 </r>
       <r>    6.4058    1.0000 </r>
       <r>    6.5974    1.0000 </r>
       <r>    6.8836    1.0000 </r>
       <r>    7.1790    1.0000 </r>
       <r>    7.4342    1.0000 </r>
       <r>    7.6361    1.0000 </r>
       <r>    8.1335    1.0000 </r>
       <r>    8.2923    1.0000 </r>
       <r>    8.5940    1.0000 </r>
       <r>    8.6202    1.0000 </r>
       <r>    8.7389    1.0000 </r>
       <r>    8.8915    1.0000 </r>
       <r>    9.1491    1.0003 </r>
       <r>    9.1880    1.0008 </r>
       <r>    9.5122    1.0211 </r>
       <r>    9.8802   -0.0068 </r>
       <r>   10.1917   -0.0016 </r>
       <r>   10.3688   -0.0000 </r>
       <r>   10.6150   -0.0000 </r>
       <r>   10.7139   -0.0000 </r>
       <r>   10.8780   -0.0000 </r>
       <r>   11.1551   -0.0000 </r>
       <r>   11.2306   -0.0000 </r>
       <r>   11.3401   -0.0000 </r>
       <r>   11.4234   -0.0000 </r>
       <r>   11.7259   -0.0000 </r>
       <r>   11.9182   -0.0000 </r>
       <r>   12.1827   -0.0000 </r>
       <r>   12.2740   -0.0000 </r>
       <r>   12.7377   -0.0000 </r>
       <r>   12.9459   -0.0000 </r>
       <r>   13.0835   -0.0000 </r>
       <r>   13.1280   -0.0000 </r>
       <r>   13.2292   -0.0000 </r>
       <r>   13.2868   -0.0000 </r>
       <r>   13.6481   -0.0000 </r>
       <r>   13.8118   -0.0000 </r>
       <r>   13.9284   -0.0000 </r>
      </set>
      <set comment="kpoint 80">
       <r>   -1.9994    1.0000 </r>
       <r>   -1.1780    1.0000 </r>
       <r>   -0.6230    1.0000 </r>
       <r>   -0.3271    1.0000 </r>
       <r>    0.4407    1.0000 </r>
       <r>    0.7522    1.0000 </r>
       <r>    1.0153    1.0000 </r>
       <r>    1.5427    1.0000 </r>
       <r>    1.8167    1.0000 </r>
       <r>    2.1109    1.0000 </r>
       <r>    2.3683    1.0000 </r>
       <r>    2.8711    1.0000 </r>
       <r>    3.1753    1.0000 </r>
       <r>    3.4246    1.0000 </r>
       <r>    3.6892    1.0000 </r>
       <r>    3.9519    1.0000 </r>
       <r>    4.4228    1.0000 </r>
       <r>    4.4603    1.0000 </r>
       <r>    4.7237    1.0000 </r>
       <r>    4.9638    1.0000 </r>
       <r>    5.2054    1.0000 </r>
       <r>    5.4240    1.0000 </r>
       <r>    5.5258    1.0000 </r>
       <r>    5.7072    1.0000 </r>
       <r>    6.1147    1.0000 </r>
       <r>    6.2478    1.0000 </r>
       <r>    6.4121    1.0000 </r>
       <r>    6.5831    1.0000 </r>
       <r>    6.8767    1.0000 </r>
       <r>    7.1744    1.0000 </r>
       <r>    7.4298    1.0000 </r>
       <r>    7.6284    1.0000 </r>
       <r>    8.1315    1.0000 </r>
       <r>    8.3322    1.0000 </r>
       <r>    8.5495    1.0000 </r>
       <r>    8.6057    1.0000 </r>
       <r>    8.7612    1.0000 </r>
       <r>    8.8726    1.0000 </r>
       <r>    9.1302    1.0002 </r>
       <r>    9.1978    1.0010 </r>
       <r>    9.5036    1.0260 </r>
       <r>    9.8880   -0.0137 </r>
       <r>   10.1925   -0.0015 </r>
       <r>   10.3834   -0.0000 </r>
       <r>   10.6182   -0.0000 </r>
       <r>   10.7700   -0.0000 </r>
       <r>   10.8829   -0.0000 </r>
       <r>   11.1420   -0.0000 </r>
       <r>   11.2229   -0.0000 </r>
       <r>   11.3491   -0.0000 </r>
       <r>   11.4122   -0.0000 </r>
       <r>   11.7222   -0.0000 </r>
       <r>   11.8929   -0.0000 </r>
       <r>   12.1595   -0.0000 </r>
       <r>   12.2968   -0.0000 </r>
       <r>   12.7556   -0.0000 </r>
       <r>   12.9692   -0.0000 </r>
       <r>   13.0794   -0.0000 </r>
       <r>   13.1322   -0.0000 </r>
       <r>   13.2486   -0.0000 </r>
       <r>   13.2734   -0.0000 </r>
       <r>   13.6403   -0.0000 </r>
       <r>   13.8187   -0.0000 </r>
       <r>   13.9029   -0.0000 </r>
      </set>
      <set comment="kpoint 81">
       <r>   -1.9974    1.0000 </r>
       <r>   -1.1822    1.0000 </r>
       <r>   -0.6036    1.0000 </r>
       <r>   -0.3564    1.0000 </r>
       <r>    0.4435    1.0000 </r>
       <r>    0.7417    1.0000 </r>
       <r>    1.0463    1.0000 </r>
       <r>    1.5296    1.0000 </r>
       <r>    1.8235    1.0000 </r>
       <r>    2.1304    1.0000 </r>
       <r>    2.3647    1.0000 </r>
       <r>    2.8811    1.0000 </r>
       <r>    3.1453    1.0000 </r>
       <r>    3.4112    1.0000 </r>
       <r>    3.6995    1.0000 </r>
       <r>    3.9469    1.0000 </r>
       <r>    4.4495    1.0000 </r>
       <r>    4.4594    1.0000 </r>
       <r>    4.6933    1.0000 </r>
       <r>    4.9605    1.0000 </r>
       <r>    5.2177    1.0000 </r>
       <r>    5.4431    1.0000 </r>
       <r>    5.4994    1.0000 </r>
       <r>    5.6954    1.0000 </r>
       <r>    6.0682    1.0000 </r>
       <r>    6.2578    1.0000 </r>
       <r>    6.4417    1.0000 </r>
       <r>    6.5836    1.0000 </r>
       <r>    6.8991    1.0000 </r>
       <r>    7.1653    1.0000 </r>
       <r>    7.4446    1.0000 </r>
       <r>    7.6401    1.0000 </r>
       <r>    8.1443    1.0000 </r>
       <r>    8.3169    1.0000 </r>
       <r>    8.5736    1.0000 </r>
       <r>    8.6095    1.0000 </r>
       <r>    8.7623    1.0000 </r>
       <r>    8.8687    1.0000 </r>
       <r>    9.1478    1.0003 </r>
       <r>    9.1717    1.0005 </r>
       <r>    9.5144    1.0197 </r>
       <r>    9.8752   -0.0017 </r>
       <r>   10.1996   -0.0013 </r>
       <r>   10.3851   -0.0000 </r>
       <r>   10.6317   -0.0000 </r>
       <r>   10.7374   -0.0000 </r>
       <r>   10.8700   -0.0000 </r>
       <r>   11.1485   -0.0000 </r>
       <r>   11.2111   -0.0000 </r>
       <r>   11.3328   -0.0000 </r>
       <r>   11.4099   -0.0000 </r>
       <r>   11.7345   -0.0000 </r>
       <r>   11.9102   -0.0000 </r>
       <r>   12.1679   -0.0000 </r>
       <r>   12.2825   -0.0000 </r>
       <r>   12.7332   -0.0000 </r>
       <r>   12.9313   -0.0000 </r>
       <r>   13.1022   -0.0000 </r>
       <r>   13.1529   -0.0000 </r>
       <r>   13.2368   -0.0000 </r>
       <r>   13.2739   -0.0000 </r>
       <r>   13.6446   -0.0000 </r>
       <r>   13.8259   -0.0000 </r>
       <r>   13.8894   -0.0000 </r>
      </set>
      <set comment="kpoint 82">
       <r>   -1.9958    1.0000 </r>
       <r>   -1.1831    1.0000 </r>
       <r>   -0.6231    1.0000 </r>
       <r>   -0.3437    1.0000 </r>
       <r>    0.4612    1.0000 </r>
       <r>    0.7576    1.0000 </r>
       <r>    1.0275    1.0000 </r>
       <r>    1.5451    1.0000 </r>
       <r>    1.8059    1.0000 </r>
       <r>    2.0859    1.0000 </r>
       <r>    2.3887    1.0000 </r>
       <r>    2.8908    1.0000 </r>
       <r>    3.1391    1.0000 </r>
       <r>    3.4214    1.0000 </r>
       <r>    3.6927    1.0000 </r>
       <r>    3.9483    1.0000 </r>
       <r>    4.4416    1.0000 </r>
       <r>    4.4763    1.0000 </r>
       <r>    4.7100    1.0000 </r>
       <r>    4.9491    1.0000 </r>
       <r>    5.1793    1.0000 </r>
       <r>    5.4438    1.0000 </r>
       <r>    5.5204    1.0000 </r>
       <r>    5.7212    1.0000 </r>
       <r>    6.0904    1.0000 </r>
       <r>    6.2476    1.0000 </r>
       <r>    6.4168    1.0000 </r>
       <r>    6.5861    1.0000 </r>
       <r>    6.8965    1.0000 </r>
       <r>    7.1669    1.0000 </r>
       <r>    7.4420    1.0000 </r>
       <r>    7.6317    1.0000 </r>
       <r>    8.1389    1.0000 </r>
       <r>    8.3457    1.0000 </r>
       <r>    8.5301    1.0000 </r>
       <r>    8.6215    1.0000 </r>
       <r>    8.7638    1.0000 </r>
       <r>    8.8718    1.0000 </r>
       <r>    9.1278    1.0002 </r>
       <r>    9.1958    1.0009 </r>
       <r>    9.5038    1.0258 </r>
       <r>    9.8882   -0.0139 </r>
       <r>   10.1824   -0.0019 </r>
       <r>   10.3857   -0.0000 </r>
       <r>   10.6181   -0.0000 </r>
       <r>   10.7659   -0.0000 </r>
       <r>   10.8812   -0.0000 </r>
       <r>   11.1621   -0.0000 </r>
       <r>   11.2194   -0.0000 </r>
       <r>   11.3361   -0.0000 </r>
       <r>   11.4190   -0.0000 </r>
       <r>   11.7266   -0.0000 </r>
       <r>   11.8685   -0.0000 </r>
       <r>   12.1557   -0.0000 </r>
       <r>   12.2960   -0.0000 </r>
       <r>   12.7372   -0.0000 </r>
       <r>   12.9364   -0.0000 </r>
       <r>   13.0976   -0.0000 </r>
       <r>   13.1630   -0.0000 </r>
       <r>   13.2224   -0.0000 </r>
       <r>   13.2791   -0.0000 </r>
       <r>   13.6236   -0.0000 </r>
       <r>   13.7926   -0.0000 </r>
       <r>   13.8719   -0.0000 </r>
      </set>
      <set comment="kpoint 83">
       <r>   -1.9956    1.0000 </r>
       <r>   -1.1820    1.0000 </r>
       <r>   -0.6132    1.0000 </r>
       <r>   -0.3605    1.0000 </r>
       <r>    0.4563    1.0000 </r>
       <r>    0.7630    1.0000 </r>
       <r>    1.0195    1.0000 </r>
       <r>    1.5657    1.0000 </r>
       <r>    1.8062    1.0000 </r>
       <r>    2.1031    1.0000 </r>
       <r>    2.3859    1.0000 </r>
       <r>    2.8761    1.0000 </r>
       <r>    3.1447    1.0000 </r>
       <r>    3.4132    1.0000 </r>
       <r>    3.6999    1.0000 </r>
       <r>    3.9297    1.0000 </r>
       <r>    4.4169    1.0000 </r>
       <r>    4.4642    1.0000 </r>
       <r>    4.7108    1.0000 </r>
       <r>    4.9635    1.0000 </r>
       <r>    5.1902    1.0000 </r>
       <r>    5.4367    1.0000 </r>
       <r>    5.5257    1.0000 </r>
       <r>    5.7483    1.0000 </r>
       <r>    6.0856    1.0000 </r>
       <r>    6.2729    1.0000 </r>
       <r>    6.4117    1.0000 </r>
       <r>    6.5873    1.0000 </r>
       <r>    6.8937    1.0000 </r>
       <r>    7.1471    1.0000 </r>
       <r>    7.4469    1.0000 </r>
       <r>    7.6171    1.0000 </r>
       <r>    8.1316    1.0000 </r>
       <r>    8.3304    1.0000 </r>
       <r>    8.5719    1.0000 </r>
       <r>    8.5909    1.0000 </r>
       <r>    8.7652    1.0000 </r>
       <r>    8.8915    1.0000 </r>
       <r>    9.1242    1.0002 </r>
       <r>    9.2021    1.0011 </r>
       <r>    9.5082    1.0235 </r>
       <r>    9.8879   -0.0136 </r>
       <r>   10.1930   -0.0015 </r>
       <r>   10.3832   -0.0000 </r>
       <r>   10.6050   -0.0000 </r>
       <r>   10.7799   -0.0000 </r>
       <r>   10.8632   -0.0000 </r>
       <r>   11.1565   -0.0000 </r>
       <r>   11.2272   -0.0000 </r>
       <r>   11.3419   -0.0000 </r>
       <r>   11.4286   -0.0000 </r>
       <r>   11.6806   -0.0000 </r>
       <r>   11.9224   -0.0000 </r>
       <r>   12.1614   -0.0000 </r>
       <r>   12.2580   -0.0000 </r>
       <r>   12.7411   -0.0000 </r>
       <r>   12.9441   -0.0000 </r>
       <r>   13.0960   -0.0000 </r>
       <r>   13.1506   -0.0000 </r>
       <r>   13.2261   -0.0000 </r>
       <r>   13.2697   -0.0000 </r>
       <r>   13.6303   -0.0000 </r>
       <r>   13.7890   -0.0000 </r>
       <r>   13.8950   -0.0000 </r>
      </set>
      <set comment="kpoint 84">
       <r>   -1.9995    1.0000 </r>
       <r>   -1.1748    1.0000 </r>
       <r>   -0.6232    1.0000 </r>
       <r>   -0.3366    1.0000 </r>
       <r>    0.4492    1.0000 </r>
       <r>    0.7380    1.0000 </r>
       <r>    1.0354    1.0000 </r>
       <r>    1.5509    1.0000 </r>
       <r>    1.8054    1.0000 </r>
       <r>    2.1042    1.0000 </r>
       <r>    2.3675    1.0000 </r>
       <r>    2.8742    1.0000 </r>
       <r>    3.1762    1.0000 </r>
       <r>    3.4249    1.0000 </r>
       <r>    3.6921    1.0000 </r>
       <r>    3.9442    1.0000 </r>
       <r>    4.4231    1.0000 </r>
       <r>    4.4554    1.0000 </r>
       <r>    4.7316    1.0000 </r>
       <r>    4.9647    1.0000 </r>
       <r>    5.2013    1.0000 </r>
       <r>    5.4239    1.0000 </r>
       <r>    5.5254    1.0000 </r>
       <r>    5.7258    1.0000 </r>
       <r>    6.0900    1.0000 </r>
       <r>    6.2451    1.0000 </r>
       <r>    6.4300    1.0000 </r>
       <r>    6.5882    1.0000 </r>
       <r>    6.8601    1.0000 </r>
       <r>    7.1710    1.0000 </r>
       <r>    7.4425    1.0000 </r>
       <r>    7.6170    1.0000 </r>
       <r>    8.1280    1.0000 </r>
       <r>    8.3188    1.0000 </r>
       <r>    8.5765    1.0000 </r>
       <r>    8.6083    1.0000 </r>
       <r>    8.7587    1.0000 </r>
       <r>    8.8776    1.0000 </r>
       <r>    9.1228    1.0002 </r>
       <r>    9.2112    1.0013 </r>
       <r>    9.5001    1.0276 </r>
       <r>    9.8891   -0.0146 </r>
       <r>   10.1981   -0.0014 </r>
       <r>   10.3796   -0.0000 </r>
       <r>   10.5993   -0.0000 </r>
       <r>   10.7765   -0.0000 </r>
       <r>   10.8916   -0.0000 </r>
       <r>   11.1454   -0.0000 </r>
       <r>   11.2400   -0.0000 </r>
       <r>   11.3368   -0.0000 </r>
       <r>   11.4142   -0.0000 </r>
       <r>   11.6987   -0.0000 </r>
       <r>   11.8892   -0.0000 </r>
       <r>   12.1666   -0.0000 </r>
       <r>   12.2862   -0.0000 </r>
       <r>   12.7619   -0.0000 </r>
       <r>   12.9532   -0.0000 </r>
       <r>   13.0973   -0.0000 </r>
       <r>   13.1292   -0.0000 </r>
       <r>   13.2336   -0.0000 </r>
       <r>   13.2817   -0.0000 </r>
       <r>   13.6380   -0.0000 </r>
       <r>   13.8138   -0.0000 </r>
       <r>   13.9306   -0.0000 </r>
      </set>
      <set comment="kpoint 85">
       <r>   -1.9979    1.0000 </r>
       <r>   -1.1816    1.0000 </r>
       <r>   -0.6077    1.0000 </r>
       <r>   -0.3499    1.0000 </r>
       <r>    0.4566    1.0000 </r>
       <r>    0.7157    1.0000 </r>
       <r>    1.0553    1.0000 </r>
       <r>    1.5375    1.0000 </r>
       <r>    1.8309    1.0000 </r>
       <r>    2.1032    1.0000 </r>
       <r>    2.3669    1.0000 </r>
       <r>    2.8767    1.0000 </r>
       <r>    3.1398    1.0000 </r>
       <r>    3.4353    1.0000 </r>
       <r>    3.7130    1.0000 </r>
       <r>    3.9479    1.0000 </r>
       <r>    4.4237    1.0000 </r>
       <r>    4.4586    1.0000 </r>
       <r>    4.7075    1.0000 </r>
       <r>    4.9549    1.0000 </r>
       <r>    5.1815    1.0000 </r>
       <r>    5.4683    1.0000 </r>
       <r>    5.5217    1.0000 </r>
       <r>    5.6808    1.0000 </r>
       <r>    6.0939    1.0000 </r>
       <r>    6.2659    1.0000 </r>
       <r>    6.4213    1.0000 </r>
       <r>    6.6018    1.0000 </r>
       <r>    6.8974    1.0000 </r>
       <r>    7.1610    1.0000 </r>
       <r>    7.4231    1.0000 </r>
       <r>    7.6274    1.0000 </r>
       <r>    8.1386    1.0000 </r>
       <r>    8.2882    1.0000 </r>
       <r>    8.5953    1.0000 </r>
       <r>    8.6044    1.0000 </r>
       <r>    8.7646    1.0000 </r>
       <r>    8.8982    1.0000 </r>
       <r>    9.1592    1.0004 </r>
       <r>    9.1886    1.0008 </r>
       <r>    9.4924    1.0306 </r>
       <r>    9.8721    0.0016 </r>
       <r>   10.1975   -0.0014 </r>
       <r>   10.3674   -0.0000 </r>
       <r>   10.6147   -0.0000 </r>
       <r>   10.7375   -0.0000 </r>
       <r>   10.8552   -0.0000 </r>
       <r>   11.1407   -0.0000 </r>
       <r>   11.2601   -0.0000 </r>
       <r>   11.2953   -0.0000 </r>
       <r>   11.4418   -0.0000 </r>
       <r>   11.7403   -0.0000 </r>
       <r>   11.9363   -0.0000 </r>
       <r>   12.1783   -0.0000 </r>
       <r>   12.2787   -0.0000 </r>
       <r>   12.7317   -0.0000 </r>
       <r>   12.9224   -0.0000 </r>
       <r>   13.1008   -0.0000 </r>
       <r>   13.1445   -0.0000 </r>
       <r>   13.2266   -0.0000 </r>
       <r>   13.2557   -0.0000 </r>
       <r>   13.6354   -0.0000 </r>
       <r>   13.8356   -0.0000 </r>
       <r>   13.9062   -0.0000 </r>
      </set>
      <set comment="kpoint 86">
       <r>   -1.9978    1.0000 </r>
       <r>   -1.1819    1.0000 </r>
       <r>   -0.6276    1.0000 </r>
       <r>   -0.3210    1.0000 </r>
       <r>    0.4654    1.0000 </r>
       <r>    0.7122    1.0000 </r>
       <r>    1.0321    1.0000 </r>
       <r>    1.5425    1.0000 </r>
       <r>    1.8134    1.0000 </r>
       <r>    2.1117    1.0000 </r>
       <r>    2.3759    1.0000 </r>
       <r>    2.8734    1.0000 </r>
       <r>    3.1640    1.0000 </r>
       <r>    3.4350    1.0000 </r>
       <r>    3.6856    1.0000 </r>
       <r>    3.9466    1.0000 </r>
       <r>    4.4212    1.0000 </r>
       <r>    4.4675    1.0000 </r>
       <r>    4.7304    1.0000 </r>
       <r>    4.9534    1.0000 </r>
       <r>    5.1914    1.0000 </r>
       <r>    5.4249    1.0000 </r>
       <r>    5.5338    1.0000 </r>
       <r>    5.7032    1.0000 </r>
       <r>    6.0884    1.0000 </r>
       <r>    6.2639    1.0000 </r>
       <r>    6.4244    1.0000 </r>
       <r>    6.5802    1.0000 </r>
       <r>    6.9002    1.0000 </r>
       <r>    7.1607    1.0000 </r>
       <r>    7.4336    1.0000 </r>
       <r>    7.6276    1.0000 </r>
       <r>    8.1300    1.0000 </r>
       <r>    8.3053    1.0000 </r>
       <r>    8.5888    1.0000 </r>
       <r>    8.6125    1.0000 </r>
       <r>    8.7699    1.0000 </r>
       <r>    8.8652    1.0000 </r>
       <r>    9.1223    1.0001 </r>
       <r>    9.1977    1.0010 </r>
       <r>    9.4957    1.0294 </r>
       <r>    9.9018   -0.0232 </r>
       <r>   10.1682   -0.0025 </r>
       <r>   10.3893   -0.0000 </r>
       <r>   10.6253   -0.0000 </r>
       <r>   10.7833   -0.0000 </r>
       <r>   10.8589   -0.0000 </r>
       <r>   11.1438   -0.0000 </r>
       <r>   11.2378   -0.0000 </r>
       <r>   11.3296   -0.0000 </r>
       <r>   11.4146   -0.0000 </r>
       <r>   11.7357   -0.0000 </r>
       <r>   11.8834   -0.0000 </r>
       <r>   12.1469   -0.0000 </r>
       <r>   12.3026   -0.0000 </r>
       <r>   12.7560   -0.0000 </r>
       <r>   12.9622   -0.0000 </r>
       <r>   13.0926   -0.0000 </r>
       <r>   13.1456   -0.0000 </r>
       <r>   13.2411   -0.0000 </r>
       <r>   13.2674   -0.0000 </r>
       <r>   13.6320   -0.0000 </r>
       <r>   13.8108   -0.0000 </r>
       <r>   13.8765   -0.0000 </r>
      </set>
      <set comment="kpoint 87">
       <r>   -1.9943    1.0000 </r>
       <r>   -1.1906    1.0000 </r>
       <r>   -0.6193    1.0000 </r>
       <r>   -0.3300    1.0000 </r>
       <r>    0.4358    1.0000 </r>
       <r>    0.7581    1.0000 </r>
       <r>    1.0339    1.0000 </r>
       <r>    1.5344    1.0000 </r>
       <r>    1.8204    1.0000 </r>
       <r>    2.1158    1.0000 </r>
       <r>    2.3774    1.0000 </r>
       <r>    2.8866    1.0000 </r>
       <r>    3.1242    1.0000 </r>
       <r>    3.4310    1.0000 </r>
       <r>    3.6839    1.0000 </r>
       <r>    3.9585    1.0000 </r>
       <r>    4.4383    1.0000 </r>
       <r>    4.4663    1.0000 </r>
       <r>    4.6925    1.0000 </r>
       <r>    4.9619    1.0000 </r>
       <r>    5.2186    1.0000 </r>
       <r>    5.4200    1.0000 </r>
       <r>    5.5245    1.0000 </r>
       <r>    5.6932    1.0000 </r>
       <r>    6.0812    1.0000 </r>
       <r>    6.2723    1.0000 </r>
       <r>    6.4012    1.0000 </r>
       <r>    6.5901    1.0000 </r>
       <r>    6.8968    1.0000 </r>
       <r>    7.1723    1.0000 </r>
       <r>    7.4500    1.0000 </r>
       <r>    7.6417    1.0000 </r>
       <r>    8.1421    1.0000 </r>
       <r>    8.3137    1.0000 </r>
       <r>    8.5469    1.0000 </r>
       <r>    8.6110    1.0000 </r>
       <r>    8.7779    1.0000 </r>
       <r>    8.8868    1.0000 </r>
       <r>    9.1395    1.0002 </r>
       <r>    9.1866    1.0008 </r>
       <r>    9.5082    1.0235 </r>
       <r>    9.8816   -0.0081 </r>
       <r>   10.1896   -0.0016 </r>
       <r>   10.3894   -0.0000 </r>
       <r>   10.6161   -0.0000 </r>
       <r>   10.7639   -0.0000 </r>
       <r>   10.8523   -0.0000 </r>
       <r>   11.1552   -0.0000 </r>
       <r>   11.2255   -0.0000 </r>
       <r>   11.3218   -0.0000 </r>
       <r>   11.4235   -0.0000 </r>
       <r>   11.6956   -0.0000 </r>
       <r>   11.9156   -0.0000 </r>
       <r>   12.1695   -0.0000 </r>
       <r>   12.2864   -0.0000 </r>
       <r>   12.7268   -0.0000 </r>
       <r>   12.9484   -0.0000 </r>
       <r>   13.0925   -0.0000 </r>
       <r>   13.1316   -0.0000 </r>
       <r>   13.2527   -0.0000 </r>
       <r>   13.2819   -0.0000 </r>
       <r>   13.6403   -0.0000 </r>
       <r>   13.8197   -0.0000 </r>
       <r>   13.8746   -0.0000 </r>
      </set>
      <set comment="kpoint 88">
       <r>   -1.9979    1.0000 </r>
       <r>   -1.1749    1.0000 </r>
       <r>   -0.6346    1.0000 </r>
       <r>   -0.3360    1.0000 </r>
       <r>    0.4587    1.0000 </r>
       <r>    0.7533    1.0000 </r>
       <r>    1.0406    1.0000 </r>
       <r>    1.5244    1.0000 </r>
       <r>    1.8222    1.0000 </r>
       <r>    2.0891    1.0000 </r>
       <r>    2.3681    1.0000 </r>
       <r>    2.8795    1.0000 </r>
       <r>    3.1739    1.0000 </r>
       <r>    3.4106    1.0000 </r>
       <r>    3.6869    1.0000 </r>
       <r>    3.9618    1.0000 </r>
       <r>    4.4169    1.0000 </r>
       <r>    4.4654    1.0000 </r>
       <r>    4.7403    1.0000 </r>
       <r>    4.9570    1.0000 </r>
       <r>    5.1990    1.0000 </r>
       <r>    5.4236    1.0000 </r>
       <r>    5.5158    1.0000 </r>
       <r>    5.7155    1.0000 </r>
       <r>    6.1374    1.0000 </r>
       <r>    6.2134    1.0000 </r>
       <r>    6.4366    1.0000 </r>
       <r>    6.5733    1.0000 </r>
       <r>    6.8819    1.0000 </r>
       <r>    7.1631    1.0000 </r>
       <r>    7.4446    1.0000 </r>
       <r>    7.6313    1.0000 </r>
       <r>    8.1387    1.0000 </r>
       <r>    8.3419    1.0000 </r>
       <r>    8.5199    1.0000 </r>
       <r>    8.6266    1.0000 </r>
       <r>    8.7677    1.0000 </r>
       <r>    8.8579    1.0000 </r>
       <r>    9.1073    1.0001 </r>
       <r>    9.2103    1.0013 </r>
       <r>    9.5092    1.0229 </r>
       <r>    9.8728    0.0009 </r>
       <r>   10.1689   -0.0025 </r>
       <r>   10.4079   -0.0000 </r>
       <r>   10.6234   -0.0000 </r>
       <r>   10.7668   -0.0000 </r>
       <r>   10.8966   -0.0000 </r>
       <r>   11.1654   -0.0000 </r>
       <r>   11.2299   -0.0000 </r>
       <r>   11.3369   -0.0000 </r>
       <r>   11.4186   -0.0000 </r>
       <r>   11.7020   -0.0000 </r>
       <r>   11.8654   -0.0000 </r>
       <r>   12.1597   -0.0000 </r>
       <r>   12.3113   -0.0000 </r>
       <r>   12.7568   -0.0000 </r>
       <r>   12.9627   -0.0000 </r>
       <r>   13.0977   -0.0000 </r>
       <r>   13.1558   -0.0000 </r>
       <r>   13.2007   -0.0000 </r>
       <r>   13.2792   -0.0000 </r>
       <r>   13.6228   -0.0000 </r>
       <r>   13.7985   -0.0000 </r>
       <r>   13.8880   -0.0000 </r>
      </set>
      <set comment="kpoint 89">
       <r>   -1.9992    1.0000 </r>
       <r>   -1.1711    1.0000 </r>
       <r>   -0.6314    1.0000 </r>
       <r>   -0.3372    1.0000 </r>
       <r>    0.4499    1.0000 </r>
       <r>    0.7521    1.0000 </r>
       <r>    1.0122    1.0000 </r>
       <r>    1.5587    1.0000 </r>
       <r>    1.8241    1.0000 </r>
       <r>    2.0980    1.0000 </r>
       <r>    2.3757    1.0000 </r>
       <r>    2.8709    1.0000 </r>
       <r>    3.1621    1.0000 </r>
       <r>    3.4333    1.0000 </r>
       <r>    3.6855    1.0000 </r>
       <r>    3.9431    1.0000 </r>
       <r>    4.4517    1.0000 </r>
       <r>    4.4658    1.0000 </r>
       <r>    4.6898    1.0000 </r>
       <r>    4.9685    1.0000 </r>
       <r>    5.1768    1.0000 </r>
       <r>    5.4309    1.0000 </r>
       <r>    5.5283    1.0000 </r>
       <r>    5.7116    1.0000 </r>
       <r>    6.0854    1.0000 </r>
       <r>    6.2509    1.0000 </r>
       <r>    6.4319    1.0000 </r>
       <r>    6.5873    1.0000 </r>
       <r>    6.8820    1.0000 </r>
       <r>    7.1714    1.0000 </r>
       <r>    7.4434    1.0000 </r>
       <r>    7.6252    1.0000 </r>
       <r>    8.1467    1.0000 </r>
       <r>    8.3523    1.0000 </r>
       <r>    8.5312    1.0000 </r>
       <r>    8.5970    1.0000 </r>
       <r>    8.7797    1.0000 </r>
       <r>    8.8671    1.0000 </r>
       <r>    9.1354    1.0002 </r>
       <r>    9.2079    1.0012 </r>
       <r>    9.5002    1.0275 </r>
       <r>    9.8898   -0.0151 </r>
       <r>   10.1952   -0.0014 </r>
       <r>   10.3732   -0.0000 </r>
       <r>   10.6333   -0.0000 </r>
       <r>   10.7607   -0.0000 </r>
       <r>   10.8771   -0.0000 </r>
       <r>   11.1538   -0.0000 </r>
       <r>   11.1972   -0.0000 </r>
       <r>   11.3416   -0.0000 </r>
       <r>   11.4097   -0.0000 </r>
       <r>   11.7187   -0.0000 </r>
       <r>   11.8844   -0.0000 </r>
       <r>   12.1641   -0.0000 </r>
       <r>   12.2791   -0.0000 </r>
       <r>   12.7507   -0.0000 </r>
       <r>   12.9569   -0.0000 </r>
       <r>   13.0866   -0.0000 </r>
       <r>   13.1287   -0.0000 </r>
       <r>   13.2442   -0.0000 </r>
       <r>   13.3007   -0.0000 </r>
       <r>   13.6530   -0.0000 </r>
       <r>   13.7913   -0.0000 </r>
       <r>   13.8753   -0.0000 </r>
      </set>
      <set comment="kpoint 90">
       <r>   -1.9979    1.0000 </r>
       <r>   -1.1863    1.0000 </r>
       <r>   -0.5988    1.0000 </r>
       <r>   -0.3468    1.0000 </r>
       <r>    0.4315    1.0000 </r>
       <r>    0.7446    1.0000 </r>
       <r>    1.0540    1.0000 </r>
       <r>    1.5256    1.0000 </r>
       <r>    1.8008    1.0000 </r>
       <r>    2.1362    1.0000 </r>
       <r>    2.3668    1.0000 </r>
       <r>    2.8932    1.0000 </r>
       <r>    3.1297    1.0000 </r>
       <r>    3.4102    1.0000 </r>
       <r>    3.7130    1.0000 </r>
       <r>    3.9435    1.0000 </r>
       <r>    4.4213    1.0000 </r>
       <r>    4.4833    1.0000 </r>
       <r>    4.7122    1.0000 </r>
       <r>    4.9551    1.0000 </r>
       <r>    5.2264    1.0000 </r>
       <r>    5.4446    1.0000 </r>
       <r>    5.5081    1.0000 </r>
       <r>    5.6930    1.0000 </r>
       <r>    6.0903    1.0000 </r>
       <r>    6.2669    1.0000 </r>
       <r>    6.4120    1.0000 </r>
       <r>    6.5809    1.0000 </r>
       <r>    6.8997    1.0000 </r>
       <r>    7.1623    1.0000 </r>
       <r>    7.4279    1.0000 </r>
       <r>    7.6260    1.0000 </r>
       <r>    8.1294    1.0000 </r>
       <r>    8.3176    1.0000 </r>
       <r>    8.5623    1.0000 </r>
       <r>    8.6251    1.0000 </r>
       <r>    8.7581    1.0000 </r>
       <r>    8.8630    1.0000 </r>
       <r>    9.1389    1.0002 </r>
       <r>    9.1930    1.0009 </r>
       <r>    9.5259    1.0108 </r>
       <r>    9.8757   -0.0023 </r>
       <r>   10.1894   -0.0016 </r>
       <r>   10.3897   -0.0000 </r>
       <r>   10.6250   -0.0000 </r>
       <r>   10.7193   -0.0000 </r>
       <r>   10.8834   -0.0000 </r>
       <r>   11.1564   -0.0000 </r>
       <r>   11.2211   -0.0000 </r>
       <r>   11.3441   -0.0000 </r>
       <r>   11.4400   -0.0000 </r>
       <r>   11.7076   -0.0000 </r>
       <r>   11.9057   -0.0000 </r>
       <r>   12.1622   -0.0000 </r>
       <r>   12.3011   -0.0000 </r>
       <r>   12.7330   -0.0000 </r>
       <r>   12.9306   -0.0000 </r>
       <r>   13.0982   -0.0000 </r>
       <r>   13.1434   -0.0000 </r>
       <r>   13.2507   -0.0000 </r>
       <r>   13.2802   -0.0000 </r>
       <r>   13.6040   -0.0000 </r>
       <r>   13.7870   -0.0000 </r>
       <r>   13.8951   -0.0000 </r>
      </set>
      <set comment="kpoint 91">
       <r>   -1.9955    1.0000 </r>
       <r>   -1.1856    1.0000 </r>
       <r>   -0.6205    1.0000 </r>
       <r>   -0.3422    1.0000 </r>
       <r>    0.4668    1.0000 </r>
       <r>    0.7398    1.0000 </r>
       <r>    1.0416    1.0000 </r>
       <r>    1.5312    1.0000 </r>
       <r>    1.8172    1.0000 </r>
       <r>    2.0879    1.0000 </r>
       <r>    2.3822    1.0000 </r>
       <r>    2.8778    1.0000 </r>
       <r>    3.1604    1.0000 </r>
       <r>    3.4253    1.0000 </r>
       <r>    3.6871    1.0000 </r>
       <r>    3.9578    1.0000 </r>
       <r>    4.4391    1.0000 </r>
       <r>    4.4563    1.0000 </r>
       <r>    4.7203    1.0000 </r>
       <r>    4.9448    1.0000 </r>
       <r>    5.1923    1.0000 </r>
       <r>    5.4416    1.0000 </r>
       <r>    5.5006    1.0000 </r>
       <r>    5.7237    1.0000 </r>
       <r>    6.0852    1.0000 </r>
       <r>    6.2550    1.0000 </r>
       <r>    6.4193    1.0000 </r>
       <r>    6.5906    1.0000 </r>
       <r>    6.8907    1.0000 </r>
       <r>    7.1746    1.0000 </r>
       <r>    7.4448    1.0000 </r>
       <r>    7.6482    1.0000 </r>
       <r>    8.1346    1.0000 </r>
       <r>    8.3201    1.0000 </r>
       <r>    8.5615    1.0000 </r>
       <r>    8.6367    1.0000 </r>
       <r>    8.7379    1.0000 </r>
       <r>    8.8819    1.0000 </r>
       <r>    9.0996    1.0001 </r>
       <r>    9.1953    1.0009 </r>
       <r>    9.4924    1.0306 </r>
       <r>    9.8890   -0.0145 </r>
       <r>   10.1771   -0.0021 </r>
       <r>   10.3972   -0.0000 </r>
       <r>   10.6360   -0.0000 </r>
       <r>   10.7340   -0.0000 </r>
       <r>   10.8965   -0.0000 </r>
       <r>   11.1516   -0.0000 </r>
       <r>   11.2368   -0.0000 </r>
       <r>   11.3381   -0.0000 </r>
       <r>   11.4150   -0.0000 </r>
       <r>   11.7317   -0.0000 </r>
       <r>   11.8840   -0.0000 </r>
       <r>   12.1450   -0.0000 </r>
       <r>   12.2849   -0.0000 </r>
       <r>   12.7367   -0.0000 </r>
       <r>   12.9644   -0.0000 </r>
       <r>   13.1022   -0.0000 </r>
       <r>   13.1732   -0.0000 </r>
       <r>   13.2277   -0.0000 </r>
       <r>   13.2687   -0.0000 </r>
       <r>   13.6410   -0.0000 </r>
       <r>   13.8155   -0.0000 </r>
       <r>   13.8985   -0.0000 </r>
      </set>
      <set comment="kpoint 92">
       <r>   -1.9966    1.0000 </r>
       <r>   -1.1769    1.0000 </r>
       <r>   -0.6324    1.0000 </r>
       <r>   -0.3457    1.0000 </r>
       <r>    0.4869    1.0000 </r>
       <r>    0.7245    1.0000 </r>
       <r>    1.0394    1.0000 </r>
       <r>    1.5545    1.0000 </r>
       <r>    1.8211    1.0000 </r>
       <r>    2.0744    1.0000 </r>
       <r>    2.3699    1.0000 </r>
       <r>    2.8525    1.0000 </r>
       <r>    3.1789    1.0000 </r>
       <r>    3.4386    1.0000 </r>
       <r>    3.6961    1.0000 </r>
       <r>    3.9526    1.0000 </r>
       <r>    4.4200    1.0000 </r>
       <r>    4.4527    1.0000 </r>
       <r>    4.7334    1.0000 </r>
       <r>    4.9520    1.0000 </r>
       <r>    5.1668    1.0000 </r>
       <r>    5.4482    1.0000 </r>
       <r>    5.5208    1.0000 </r>
       <r>    5.7223    1.0000 </r>
       <r>    6.0940    1.0000 </r>
       <r>    6.2450    1.0000 </r>
       <r>    6.4359    1.0000 </r>
       <r>    6.5999    1.0000 </r>
       <r>    6.8869    1.0000 </r>
       <r>    7.1507    1.0000 </r>
       <r>    7.4371    1.0000 </r>
       <r>    7.6346    1.0000 </r>
       <r>    8.1511    1.0000 </r>
       <r>    8.3081    1.0000 </r>
       <r>    8.5848    1.0000 </r>
       <r>    8.6319    1.0000 </r>
       <r>    8.7145    1.0000 </r>
       <r>    8.8828    1.0000 </r>
       <r>    9.1293    1.0002 </r>
       <r>    9.2037    1.0011 </r>
       <r>    9.4793    1.0339 </r>
       <r>    9.8821   -0.0086 </r>
       <r>   10.1856   -0.0018 </r>
       <r>   10.3735   -0.0000 </r>
       <r>   10.6188   -0.0000 </r>
       <r>   10.7742   -0.0000 </r>
       <r>   10.8902   -0.0000 </r>
       <r>   11.1537   -0.0000 </r>
       <r>   11.2255   -0.0000 </r>
       <r>   11.3339   -0.0000 </r>
       <r>   11.4034   -0.0000 </r>
       <r>   11.7350   -0.0000 </r>
       <r>   11.9110   -0.0000 </r>
       <r>   12.1646   -0.0000 </r>
       <r>   12.2826   -0.0000 </r>
       <r>   12.7548   -0.0000 </r>
       <r>   12.9549   -0.0000 </r>
       <r>   13.0829   -0.0000 </r>
       <r>   13.1286   -0.0000 </r>
       <r>   13.2281   -0.0000 </r>
       <r>   13.2625   -0.0000 </r>
       <r>   13.6443   -0.0000 </r>
       <r>   13.8292   -0.0000 </r>
       <r>   13.9144   -0.0000 </r>
      </set>
      <set comment="kpoint 93">
       <r>   -1.9991    1.0000 </r>
       <r>   -1.1746    1.0000 </r>
       <r>   -0.6179    1.0000 </r>
       <r>   -0.3443    1.0000 </r>
       <r>    0.4422    1.0000 </r>
       <r>    0.7349    1.0000 </r>
       <r>    1.0325    1.0000 </r>
       <r>    1.5696    1.0000 </r>
       <r>    1.8068    1.0000 </r>
       <r>    2.1140    1.0000 </r>
       <r>    2.3797    1.0000 </r>
       <r>    2.8756    1.0000 </r>
       <r>    3.1557    1.0000 </r>
       <r>    3.4208    1.0000 </r>
       <r>    3.6915    1.0000 </r>
       <r>    3.9247    1.0000 </r>
       <r>    4.4376    1.0000 </r>
       <r>    4.4644    1.0000 </r>
       <r>    4.6912    1.0000 </r>
       <r>    4.9725    1.0000 </r>
       <r>    5.2006    1.0000 </r>
       <r>    5.4270    1.0000 </r>
       <r>    5.5274    1.0000 </r>
       <r>    5.7333    1.0000 </r>
       <r>    6.0899    1.0000 </r>
       <r>    6.2451    1.0000 </r>
       <r>    6.4428    1.0000 </r>
       <r>    6.5882    1.0000 </r>
       <r>    6.8862    1.0000 </r>
       <r>    7.1615    1.0000 </r>
       <r>    7.4428    1.0000 </r>
       <r>    7.6010    1.0000 </r>
       <r>    8.1217    1.0000 </r>
       <r>    8.3184    1.0000 </r>
       <r>    8.5489    1.0000 </r>
       <r>    8.6085    1.0000 </r>
       <r>    8.7803    1.0000 </r>
       <r>    8.8819    1.0000 </r>
       <r>    9.1462    1.0003 </r>
       <r>    9.2173    1.0015 </r>
       <r>    9.5134    1.0204 </r>
       <r>    9.8868   -0.0127 </r>
       <r>   10.2001   -0.0013 </r>
       <r>   10.3652   -0.0000 </r>
       <r>   10.5906   -0.0000 </r>
       <r>   10.7806   -0.0000 </r>
       <r>   10.8684   -0.0000 </r>
       <r>   11.1563   -0.0000 </r>
       <r>   11.2334   -0.0000 </r>
       <r>   11.3104   -0.0000 </r>
       <r>   11.4413   -0.0000 </r>
       <r>   11.7131   -0.0000 </r>
       <r>   11.8888   -0.0000 </r>
       <r>   12.1596   -0.0000 </r>
       <r>   12.2734   -0.0000 </r>
       <r>   12.7597   -0.0000 </r>
       <r>   12.9434   -0.0000 </r>
       <r>   13.0866   -0.0000 </r>
       <r>   13.1629   -0.0000 </r>
       <r>   13.2274   -0.0000 </r>
       <r>   13.2625   -0.0000 </r>
       <r>   13.6479   -0.0000 </r>
       <r>   13.7995   -0.0000 </r>
       <r>   13.9038   -0.0000 </r>
      </set>
      <set comment="kpoint 94">
       <r>   -1.9974    1.0000 </r>
       <r>   -1.1866    1.0000 </r>
       <r>   -0.5935    1.0000 </r>
       <r>   -0.3573    1.0000 </r>
       <r>    0.4340    1.0000 </r>
       <r>    0.7489    1.0000 </r>
       <r>    1.0475    1.0000 </r>
       <r>    1.5338    1.0000 </r>
       <r>    1.8168    1.0000 </r>
       <r>    2.1069    1.0000 </r>
       <r>    2.3784    1.0000 </r>
       <r>    2.8913    1.0000 </r>
       <r>    3.1225    1.0000 </r>
       <r>    3.4279    1.0000 </r>
       <r>    3.7200    1.0000 </r>
       <r>    3.9381    1.0000 </r>
       <r>    4.4240    1.0000 </r>
       <r>    4.4625    1.0000 </r>
       <r>    4.7039    1.0000 </r>
       <r>    4.9605    1.0000 </r>
       <r>    5.2247    1.0000 </r>
       <r>    5.4440    1.0000 </r>
       <r>    5.5051    1.0000 </r>
       <r>    5.6993    1.0000 </r>
       <r>    6.0996    1.0000 </r>
       <r>    6.2633    1.0000 </r>
       <r>    6.4088    1.0000 </r>
       <r>    6.5871    1.0000 </r>
       <r>    6.8817    1.0000 </r>
       <r>    7.1658    1.0000 </r>
       <r>    7.4468    1.0000 </r>
       <r>    7.6145    1.0000 </r>
       <r>    8.1430    1.0000 </r>
       <r>    8.2984    1.0000 </r>
       <r>    8.5790    1.0000 </r>
       <r>    8.6229    1.0000 </r>
       <r>    8.7598    1.0000 </r>
       <r>    8.8952    1.0000 </r>
       <r>    9.1425    1.0003 </r>
       <r>    9.1850    1.0007 </r>
       <r>    9.5002    1.0276 </r>
       <r>    9.8783   -0.0050 </r>
       <r>   10.1811   -0.0020 </r>
       <r>   10.3853   -0.0000 </r>
       <r>   10.6330   -0.0000 </r>
       <r>   10.7603   -0.0000 </r>
       <r>   10.8443   -0.0000 </r>
       <r>   11.1528   -0.0000 </r>
       <r>   11.2502   -0.0000 </r>
       <r>   11.3134   -0.0000 </r>
       <r>   11.4278   -0.0000 </r>
       <r>   11.6995   -0.0000 </r>
       <r>   11.9265   -0.0000 </r>
       <r>   12.1711   -0.0000 </r>
       <r>   12.2808   -0.0000 </r>
       <r>   12.7386   -0.0000 </r>
       <r>   12.9346   -0.0000 </r>
       <r>   13.0891   -0.0000 </r>
       <r>   13.1686   -0.0000 </r>
       <r>   13.2296   -0.0000 </r>
       <r>   13.2691   -0.0000 </r>
       <r>   13.6318   -0.0000 </r>
       <r>   13.8291   -0.0000 </r>
       <r>   13.8794   -0.0000 </r>
      </set>
      <set comment="kpoint 95">
       <r>   -1.9944    1.0000 </r>
       <r>   -1.1949    1.0000 </r>
       <r>   -0.6150    1.0000 </r>
       <r>   -0.3228    1.0000 </r>
       <r>    0.4452    1.0000 </r>
       <r>    0.7245    1.0000 </r>
       <r>    1.0576    1.0000 </r>
       <r>    1.5273    1.0000 </r>
       <r>    1.8034    1.0000 </r>
       <r>    2.1265    1.0000 </r>
       <r>    2.3790    1.0000 </r>
       <r>    2.8915    1.0000 </r>
       <r>    3.1163    1.0000 </r>
       <r>    3.4284    1.0000 </r>
       <r>    3.6980    1.0000 </r>
       <r>    3.9509    1.0000 </r>
       <r>    4.4493    1.0000 </r>
       <r>    4.4727    1.0000 </r>
       <r>    4.6946    1.0000 </r>
       <r>    4.9524    1.0000 </r>
       <r>    5.2040    1.0000 </r>
       <r>    5.4412    1.0000 </r>
       <r>    5.5268    1.0000 </r>
       <r>    5.6888    1.0000 </r>
       <r>    6.0784    1.0000 </r>
       <r>    6.2675    1.0000 </r>
       <r>    6.4068    1.0000 </r>
       <r>    6.5917    1.0000 </r>
       <r>    6.9244    1.0000 </r>
       <r>    7.1526    1.0000 </r>
       <r>    7.4385    1.0000 </r>
       <r>    7.6289    1.0000 </r>
       <r>    8.1233    1.0000 </r>
       <r>    8.2888    1.0000 </r>
       <r>    8.5859    1.0000 </r>
       <r>    8.6031    1.0000 </r>
       <r>    8.7887    1.0000 </r>
       <r>    8.8889    1.0000 </r>
       <r>    9.1434    1.0003 </r>
       <r>    9.1845    1.0007 </r>
       <r>    9.5226    1.0136 </r>
       <r>    9.8872   -0.0131 </r>
       <r>   10.1610   -0.0029 </r>
       <r>   10.3909   -0.0000 </r>
       <r>   10.6115   -0.0000 </r>
       <r>   10.7388   -0.0000 </r>
       <r>   10.8825   -0.0000 </r>
       <r>   11.1550   -0.0000 </r>
       <r>   11.2365   -0.0000 </r>
       <r>   11.3208   -0.0000 </r>
       <r>   11.4235   -0.0000 </r>
       <r>   11.7150   -0.0000 </r>
       <r>   11.8937   -0.0000 </r>
       <r>   12.1517   -0.0000 </r>
       <r>   12.3033   -0.0000 </r>
       <r>   12.7383   -0.0000 </r>
       <r>   12.9420   -0.0000 </r>
       <r>   13.0779   -0.0000 </r>
       <r>   13.1579   -0.0000 </r>
       <r>   13.2474   -0.0000 </r>
       <r>   13.2890   -0.0000 </r>
       <r>   13.6409   -0.0000 </r>
       <r>   13.7707   -0.0000 </r>
       <r>   13.8910   -0.0000 </r>
      </set>
      <set comment="kpoint 96">
       <r>   -1.9972    1.0000 </r>
       <r>   -1.1784    1.0000 </r>
       <r>   -0.6307    1.0000 </r>
       <r>   -0.3345    1.0000 </r>
       <r>    0.4548    1.0000 </r>
       <r>    0.7500    1.0000 </r>
       <r>    1.0443    1.0000 </r>
       <r>    1.5250    1.0000 </r>
       <r>    1.8145    1.0000 </r>
       <r>    2.0915    1.0000 </r>
       <r>    2.3829    1.0000 </r>
       <r>    2.8726    1.0000 </r>
       <r>    3.1617    1.0000 </r>
       <r>    3.4284    1.0000 </r>
       <r>    3.6837    1.0000 </r>
       <r>    3.9704    1.0000 </r>
       <r>    4.4169    1.0000 </r>
       <r>    4.4596    1.0000 </r>
       <r>    4.7231    1.0000 </r>
       <r>    4.9562    1.0000 </r>
       <r>    5.2208    1.0000 </r>
       <r>    5.4135    1.0000 </r>
       <r>    5.5057    1.0000 </r>
       <r>    5.7115    1.0000 </r>
       <r>    6.0863    1.0000 </r>
       <r>    6.2775    1.0000 </r>
       <r>    6.4393    1.0000 </r>
       <r>    6.5650    1.0000 </r>
       <r>    6.8734    1.0000 </r>
       <r>    7.1761    1.0000 </r>
       <r>    7.4463    1.0000 </r>
       <r>    7.6366    1.0000 </r>
       <r>    8.1449    1.0000 </r>
       <r>    8.3278    1.0000 </r>
       <r>    8.5598    1.0000 </r>
       <r>    8.6276    1.0000 </r>
       <r>    8.7443    1.0000 </r>
       <r>    8.8749    1.0000 </r>
       <r>    9.0797    1.0000 </r>
       <r>    9.2143    1.0014 </r>
       <r>    9.4927    1.0305 </r>
       <r>    9.8744   -0.0009 </r>
       <r>   10.1687   -0.0025 </r>
       <r>   10.4205   -0.0000 </r>
       <r>   10.6380   -0.0000 </r>
       <r>   10.7547   -0.0000 </r>
       <r>   10.8775   -0.0000 </r>
       <r>   11.1581   -0.0000 </r>
       <r>   11.2431   -0.0000 </r>
       <r>   11.3328   -0.0000 </r>
       <r>   11.4202   -0.0000 </r>
       <r>   11.6880   -0.0000 </r>
       <r>   11.9054   -0.0000 </r>
       <r>   12.1557   -0.0000 </r>
       <r>   12.2806   -0.0000 </r>
       <r>   12.7482   -0.0000 </r>
       <r>   12.9783   -0.0000 </r>
       <r>   13.1099   -0.0000 </r>
       <r>   13.1588   -0.0000 </r>
       <r>   13.2163   -0.0000 </r>
       <r>   13.2776   -0.0000 </r>
       <r>   13.6315   -0.0000 </r>
       <r>   13.8085   -0.0000 </r>
       <r>   13.8859   -0.0000 </r>
      </set>
      <set comment="kpoint 97">
       <r>   -1.9984    1.0000 </r>
       <r>   -1.1739    1.0000 </r>
       <r>   -0.6365    1.0000 </r>
       <r>   -0.3286    1.0000 </r>
       <r>    0.4623    1.0000 </r>
       <r>    0.7288    1.0000 </r>
       <r>    1.0278    1.0000 </r>
       <r>    1.5489    1.0000 </r>
       <r>    1.8377    1.0000 </r>
       <r>    2.0862    1.0000 </r>
       <r>    2.3766    1.0000 </r>
       <r>    2.8529    1.0000 </r>
       <r>    3.1770    1.0000 </r>
       <r>    3.4358    1.0000 </r>
       <r>    3.6797    1.0000 </r>
       <r>    3.9475    1.0000 </r>
       <r>    4.4405    1.0000 </r>
       <r>    4.4530    1.0000 </r>
       <r>    4.7276    1.0000 </r>
       <r>    4.9591    1.0000 </r>
       <r>    5.1968    1.0000 </r>
       <r>    5.4301    1.0000 </r>
       <r>    5.5157    1.0000 </r>
       <r>    5.7080    1.0000 </r>
       <r>    6.1108    1.0000 </r>
       <r>    6.2235    1.0000 </r>
       <r>    6.4429    1.0000 </r>
       <r>    6.5738    1.0000 </r>
       <r>    6.8786    1.0000 </r>
       <r>    7.1695    1.0000 </r>
       <r>    7.4464    1.0000 </r>
       <r>    7.6364    1.0000 </r>
       <r>    8.1414    1.0000 </r>
       <r>    8.3357    1.0000 </r>
       <r>    8.5696    1.0000 </r>
       <r>    8.5904    1.0000 </r>
       <r>    8.7744    1.0000 </r>
       <r>    8.8466    1.0000 </r>
       <r>    9.1182    1.0001 </r>
       <r>    9.2219    1.0017 </r>
       <r>    9.4869    1.0322 </r>
       <r>    9.9009   -0.0227 </r>
       <r>   10.1703   -0.0024 </r>
       <r>   10.3957   -0.0000 </r>
       <r>   10.6059   -0.0000 </r>
       <r>   10.7984   -0.0000 </r>
       <r>   10.8685   -0.0000 </r>
       <r>   11.1608   -0.0000 </r>
       <r>   11.2069   -0.0000 </r>
       <r>   11.3346   -0.0000 </r>
       <r>   11.4177   -0.0000 </r>
       <r>   11.7362   -0.0000 </r>
       <r>   11.8860   -0.0000 </r>
       <r>   12.1488   -0.0000 </r>
       <r>   12.2754   -0.0000 </r>
       <r>   12.7601   -0.0000 </r>
       <r>   12.9606   -0.0000 </r>
       <r>   13.0793   -0.0000 </r>
       <r>   13.1573   -0.0000 </r>
       <r>   13.2373   -0.0000 </r>
       <r>   13.2973   -0.0000 </r>
       <r>   13.6373   -0.0000 </r>
       <r>   13.7910   -0.0000 </r>
       <r>   13.8980   -0.0000 </r>
      </set>
      <set comment="kpoint 98">
       <r>   -1.9939    1.0000 </r>
       <r>   -1.1944    1.0000 </r>
       <r>   -0.6137    1.0000 </r>
       <r>   -0.3304    1.0000 </r>
       <r>    0.4464    1.0000 </r>
       <r>    0.7446    1.0000 </r>
       <r>    1.0375    1.0000 </r>
       <r>    1.5114    1.0000 </r>
       <r>    1.8418    1.0000 </r>
       <r>    2.1119    1.0000 </r>
       <r>    2.3767    1.0000 </r>
       <r>    2.8906    1.0000 </r>
       <r>    3.1257    1.0000 </r>
       <r>    3.4296    1.0000 </r>
       <r>    3.6925    1.0000 </r>
       <r>    3.9534    1.0000 </r>
       <r>    4.4516    1.0000 </r>
       <r>    4.4637    1.0000 </r>
       <r>    4.6792    1.0000 </r>
       <r>    4.9555    1.0000 </r>
       <r>    5.1972    1.0000 </r>
       <r>    5.4487    1.0000 </r>
       <r>    5.5206    1.0000 </r>
       <r>    5.6899    1.0000 </r>
       <r>    6.1191    1.0000 </r>
       <r>    6.2465    1.0000 </r>
       <r>    6.4051    1.0000 </r>
       <r>    6.5849    1.0000 </r>
       <r>    6.9071    1.0000 </r>
       <r>    7.1570    1.0000 </r>
       <r>    7.4524    1.0000 </r>
       <r>    7.6323    1.0000 </r>
       <r>    8.1324    1.0000 </r>
       <r>    8.2912    1.0000 </r>
       <r>    8.5791    1.0000 </r>
       <r>    8.6239    1.0000 </r>
       <r>    8.7665    1.0000 </r>
       <r>    8.9010    1.0000 </r>
       <r>    9.1390    1.0002 </r>
       <r>    9.1928    1.0009 </r>
       <r>    9.5057    1.0249 </r>
       <r>    9.8854   -0.0115 </r>
       <r>   10.1627   -0.0028 </r>
       <r>   10.3749   -0.0000 </r>
       <r>   10.6205   -0.0000 </r>
       <r>   10.7650   -0.0000 </r>
       <r>   10.8761   -0.0000 </r>
       <r>   11.1390   -0.0000 </r>
       <r>   11.2398   -0.0000 </r>
       <r>   11.3266   -0.0000 </r>
       <r>   11.4142   -0.0000 </r>
       <r>   11.7221   -0.0000 </r>
       <r>   11.9041   -0.0000 </r>
       <r>   12.1647   -0.0000 </r>
       <r>   12.2688   -0.0000 </r>
       <r>   12.7409   -0.0000 </r>
       <r>   12.9361   -0.0000 </r>
       <r>   13.0999   -0.0000 </r>
       <r>   13.1450   -0.0000 </r>
       <r>   13.2415   -0.0000 </r>
       <r>   13.2707   -0.0000 </r>
       <r>   13.6526   -0.0000 </r>
       <r>   13.8016   -0.0000 </r>
       <r>   13.8724   -0.0000 </r>
      </set>
      <set comment="kpoint 99">
       <r>   -1.9980    1.0000 </r>
       <r>   -1.1776    1.0000 </r>
       <r>   -0.6241    1.0000 </r>
       <r>   -0.3355    1.0000 </r>
       <r>    0.4447    1.0000 </r>
       <r>    0.7486    1.0000 </r>
       <r>    1.0151    1.0000 </r>
       <r>    1.5469    1.0000 </r>
       <r>    1.8339    1.0000 </r>
       <r>    2.1158    1.0000 </r>
       <r>    2.3805    1.0000 </r>
       <r>    2.8725    1.0000 </r>
       <r>    3.1449    1.0000 </r>
       <r>    3.4264    1.0000 </r>
       <r>    3.6821    1.0000 </r>
       <r>    3.9308    1.0000 </r>
       <r>    4.4331    1.0000 </r>
       <r>    4.4586    1.0000 </r>
       <r>    4.7163    1.0000 </r>
       <r>    4.9685    1.0000 </r>
       <r>    5.2124    1.0000 </r>
       <r>    5.4276    1.0000 </r>
       <r>    5.5106    1.0000 </r>
       <r>    5.7174    1.0000 </r>
       <r>    6.1148    1.0000 </r>
       <r>    6.2498    1.0000 </r>
       <r>    6.4419    1.0000 </r>
       <r>    6.5693    1.0000 </r>
       <r>    6.8778    1.0000 </r>
       <r>    7.1671    1.0000 </r>
       <r>    7.4478    1.0000 </r>
       <r>    7.6165    1.0000 </r>
       <r>    8.1084    1.0000 </r>
       <r>    8.3297    1.0000 </r>
       <r>    8.5710    1.0000 </r>
       <r>    8.6114    1.0000 </r>
       <r>    8.7472    1.0000 </r>
       <r>    8.8693    1.0000 </r>
       <r>    9.1475    1.0003 </r>
       <r>    9.1978    1.0010 </r>
       <r>    9.5343    1.0027 </r>
       <r>    9.8917   -0.0166 </r>
       <r>   10.1835   -0.0019 </r>
       <r>   10.3807   -0.0000 </r>
       <r>   10.5960   -0.0000 </r>
       <r>   10.7552   -0.0000 </r>
       <r>   10.8819   -0.0000 </r>
       <r>   11.1578   -0.0000 </r>
       <r>   11.2184   -0.0000 </r>
       <r>   11.3519   -0.0000 </r>
       <r>   11.4333   -0.0000 </r>
       <r>   11.7172   -0.0000 </r>
       <r>   11.8921   -0.0000 </r>
       <r>   12.1604   -0.0000 </r>
       <r>   12.2634   -0.0000 </r>
       <r>   12.7552   -0.0000 </r>
       <r>   12.9492   -0.0000 </r>
       <r>   13.1228   -0.0000 </r>
       <r>   13.1387   -0.0000 </r>
       <r>   13.2199   -0.0000 </r>
       <r>   13.2547   -0.0000 </r>
       <r>   13.6409   -0.0000 </r>
       <r>   13.7732   -0.0000 </r>
       <r>   13.9047   -0.0000 </r>
      </set>
      <set comment="kpoint 100">
       <r>   -1.9976    1.0000 </r>
       <r>   -1.1700    1.0000 </r>
       <r>   -0.6457    1.0000 </r>
       <r>   -0.3371    1.0000 </r>
       <r>    0.4843    1.0000 </r>
       <r>    0.7275    1.0000 </r>
       <r>    1.0355    1.0000 </r>
       <r>    1.5341    1.0000 </r>
       <r>    1.8373    1.0000 </r>
       <r>    2.0849    1.0000 </r>
       <r>    2.3711    1.0000 </r>
       <r>    2.8681    1.0000 </r>
       <r>    3.1650    1.0000 </r>
       <r>    3.4426    1.0000 </r>
       <r>    3.6772    1.0000 </r>
       <r>    3.9654    1.0000 </r>
       <r>    4.4340    1.0000 </r>
       <r>    4.4437    1.0000 </r>
       <r>    4.7110    1.0000 </r>
       <r>    4.9583    1.0000 </r>
       <r>    5.1790    1.0000 </r>
       <r>    5.4426    1.0000 </r>
       <r>    5.5255    1.0000 </r>
       <r>    5.6889    1.0000 </r>
       <r>    6.1036    1.0000 </r>
       <r>    6.2520    1.0000 </r>
       <r>    6.4561    1.0000 </r>
       <r>    6.5809    1.0000 </r>
       <r>    6.8942    1.0000 </r>
       <r>    7.1500    1.0000 </r>
       <r>    7.4408    1.0000 </r>
       <r>    7.6332    1.0000 </r>
       <r>    8.1479    1.0000 </r>
       <r>    8.3295    1.0000 </r>
       <r>    8.5770    1.0000 </r>
       <r>    8.6219    1.0000 </r>
       <r>    8.7203    1.0000 </r>
       <r>    8.8763    1.0000 </r>
       <r>    9.1545    1.0003 </r>
       <r>    9.1916    1.0009 </r>
       <r>    9.4911    1.0310 </r>
       <r>    9.8746   -0.0010 </r>
       <r>   10.1775   -0.0021 </r>
       <r>   10.3860   -0.0000 </r>
       <r>   10.6399   -0.0000 </r>
       <r>   10.7501   -0.0000 </r>
       <r>   10.8649   -0.0000 </r>
       <r>   11.1496   -0.0000 </r>
       <r>   11.2238   -0.0000 </r>
       <r>   11.3177   -0.0000 </r>
       <r>   11.4446   -0.0000 </r>
       <r>   11.7248   -0.0000 </r>
       <r>   11.8945   -0.0000 </r>
       <r>   12.1640   -0.0000 </r>
       <r>   12.2835   -0.0000 </r>
       <r>   12.7590   -0.0000 </r>
       <r>   12.9336   -0.0000 </r>
       <r>   13.1138   -0.0000 </r>
       <r>   13.1381   -0.0000 </r>
       <r>   13.2087   -0.0000 </r>
       <r>   13.2627   -0.0000 </r>
       <r>   13.6469   -0.0000 </r>
       <r>   13.8169   -0.0000 </r>
       <r>   13.8936   -0.0000 </r>
      </set>
      <set comment="kpoint 101">
       <r>   -1.7272    1.0000 </r>
       <r>   -1.1744    1.0000 </r>
       <r>   -0.9100    1.0000 </r>
       <r>   -0.3692    1.0000 </r>
       <r>   -0.3136    1.0000 </r>
       <r>    0.2566    1.0000 </r>
       <r>    2.0137    1.0000 </r>
       <r>    2.0953    1.0000 </r>
       <r>    2.5704    1.0000 </r>
       <r>    2.6261    1.0000 </r>
       <r>    2.8659    1.0000 </r>
       <r>    3.1207    1.0000 </r>
       <r>    3.1735    1.0000 </r>
       <r>    3.4072    1.0000 </r>
       <r>    3.4546    1.0000 </r>
       <r>    3.6744    1.0000 </r>
       <r>    3.7150    1.0000 </r>
       <r>    3.9233    1.0000 </r>
       <r>    4.0245    1.0000 </r>
       <r>    4.4252    1.0000 </r>
       <r>    4.4881    1.0000 </r>
       <r>    4.9818    1.0000 </r>
       <r>    5.9129    1.0000 </r>
       <r>    6.0558    1.0000 </r>
       <r>    6.3695    1.0000 </r>
       <r>    6.7484    1.0000 </r>
       <r>    6.8006    1.0000 </r>
       <r>    6.8885    1.0000 </r>
       <r>    6.9090    1.0000 </r>
       <r>    7.2948    1.0000 </r>
       <r>    7.3389    1.0000 </r>
       <r>    7.4386    1.0000 </r>
       <r>    7.4591    1.0000 </r>
       <r>    7.8969    1.0000 </r>
       <r>    8.3000    1.0000 </r>
       <r>    8.4282    1.0000 </r>
       <r>    8.9304    1.0000 </r>
       <r>    9.0051    1.0000 </r>
       <r>    9.2404    1.0025 </r>
       <r>    9.3596    1.0173 </r>
       <r>    9.7883    0.1800 </r>
       <r>    9.8635    0.0122 </r>
       <r>   10.3144   -0.0001 </r>
       <r>   10.3971   -0.0000 </r>
       <r>   10.6714   -0.0000 </r>
       <r>   10.7355   -0.0000 </r>
       <r>   10.9169   -0.0000 </r>
       <r>   10.9436   -0.0000 </r>
       <r>   11.3204   -0.0000 </r>
       <r>   11.4050   -0.0000 </r>
       <r>   11.8925   -0.0000 </r>
       <r>   11.9494   -0.0000 </r>
       <r>   12.4617   -0.0000 </r>
       <r>   12.4968   -0.0000 </r>
       <r>   12.6746   -0.0000 </r>
       <r>   12.7287   -0.0000 </r>
       <r>   13.1466   -0.0000 </r>
       <r>   13.2541   -0.0000 </r>
       <r>   13.2981   -0.0000 </r>
       <r>   13.3398   -0.0000 </r>
       <r>   13.3892   -0.0000 </r>
       <r>   13.4122   -0.0000 </r>
       <r>   13.4976   -0.0000 </r>
       <r>   14.1253   -0.0000 </r>
      </set>
      <set comment="kpoint 102">
       <r>   -1.7237    1.0000 </r>
       <r>   -1.1796    1.0000 </r>
       <r>   -0.9095    1.0000 </r>
       <r>   -0.3866    1.0000 </r>
       <r>   -0.2916    1.0000 </r>
       <r>    0.2439    1.0000 </r>
       <r>    2.0310    1.0000 </r>
       <r>    2.1142    1.0000 </r>
       <r>    2.5591    1.0000 </r>
       <r>    2.6541    1.0000 </r>
       <r>    2.8555    1.0000 </r>
       <r>    3.0941    1.0000 </r>
       <r>    3.1863    1.0000 </r>
       <r>    3.3900    1.0000 </r>
       <r>    3.4766    1.0000 </r>
       <r>    3.6249    1.0000 </r>
       <r>    3.7350    1.0000 </r>
       <r>    3.9317    1.0000 </r>
       <r>    3.9945    1.0000 </r>
       <r>    4.4153    1.0000 </r>
       <r>    4.5252    1.0000 </r>
       <r>    4.9628    1.0000 </r>
       <r>    5.9157    1.0000 </r>
       <r>    6.0696    1.0000 </r>
       <r>    6.3662    1.0000 </r>
       <r>    6.7159    1.0000 </r>
       <r>    6.7840    1.0000 </r>
       <r>    6.8943    1.0000 </r>
       <r>    6.9633    1.0000 </r>
       <r>    7.2902    1.0000 </r>
       <r>    7.3471    1.0000 </r>
       <r>    7.4151    1.0000 </r>
       <r>    7.4764    1.0000 </r>
       <r>    7.8942    1.0000 </r>
       <r>    8.2882    1.0000 </r>
       <r>    8.4364    1.0000 </r>
       <r>    8.9205    1.0000 </r>
       <r>    9.0359    1.0000 </r>
       <r>    9.2491    1.0029 </r>
       <r>    9.3362    1.0128 </r>
       <r>    9.7964    0.1551 </r>
       <r>    9.8939   -0.0182 </r>
       <r>   10.3226   -0.0001 </r>
       <r>   10.4001   -0.0000 </r>
       <r>   10.6308   -0.0000 </r>
       <r>   10.7397   -0.0000 </r>
       <r>   10.9001   -0.0000 </r>
       <r>   10.9764   -0.0000 </r>
       <r>   11.3208   -0.0000 </r>
       <r>   11.3913   -0.0000 </r>
       <r>   11.8857   -0.0000 </r>
       <r>   11.9560   -0.0000 </r>
       <r>   12.4415   -0.0000 </r>
       <r>   12.4910   -0.0000 </r>
       <r>   12.6693   -0.0000 </r>
       <r>   12.7211   -0.0000 </r>
       <r>   13.1388   -0.0000 </r>
       <r>   13.2410   -0.0000 </r>
       <r>   13.3013   -0.0000 </r>
       <r>   13.3540   -0.0000 </r>
       <r>   13.3836   -0.0000 </r>
       <r>   13.4307   -0.0000 </r>
       <r>   13.4640   -0.0000 </r>
       <r>   14.1281   -0.0000 </r>
      </set>
      <set comment="kpoint 103">
       <r>   -1.7394    1.0000 </r>
       <r>   -1.1596    1.0000 </r>
       <r>   -0.8849    1.0000 </r>
       <r>   -0.4156    1.0000 </r>
       <r>   -0.2759    1.0000 </r>
       <r>    0.2205    1.0000 </r>
       <r>    1.9979    1.0000 </r>
       <r>    2.1233    1.0000 </r>
       <r>    2.5530    1.0000 </r>
       <r>    2.6784    1.0000 </r>
       <r>    2.8832    1.0000 </r>
       <r>    3.0414    1.0000 </r>
       <r>    3.2008    1.0000 </r>
       <r>    3.3927    1.0000 </r>
       <r>    3.5055    1.0000 </r>
       <r>    3.6270    1.0000 </r>
       <r>    3.7661    1.0000 </r>
       <r>    3.9228    1.0000 </r>
       <r>    3.9849    1.0000 </r>
       <r>    4.4143    1.0000 </r>
       <r>    4.5443    1.0000 </r>
       <r>    4.9439    1.0000 </r>
       <r>    5.8850    1.0000 </r>
       <r>    6.0798    1.0000 </r>
       <r>    6.3903    1.0000 </r>
       <r>    6.7113    1.0000 </r>
       <r>    6.8296    1.0000 </r>
       <r>    6.8514    1.0000 </r>
       <r>    6.9169    1.0000 </r>
       <r>    7.2485    1.0000 </r>
       <r>    7.3697    1.0000 </r>
       <r>    7.4403    1.0000 </r>
       <r>    7.4875    1.0000 </r>
       <r>    7.8595    1.0000 </r>
       <r>    8.2924    1.0000 </r>
       <r>    8.4511    1.0000 </r>
       <r>    8.9534    1.0000 </r>
       <r>    9.0390    1.0000 </r>
       <r>    9.2019    1.0011 </r>
       <r>    9.3626    1.0180 </r>
       <r>    9.7587    0.2825 </r>
       <r>    9.9143   -0.0292 </r>
       <r>   10.3074   -0.0001 </r>
       <r>   10.4508   -0.0000 </r>
       <r>   10.6014   -0.0000 </r>
       <r>   10.7747   -0.0000 </r>
       <r>   10.8818   -0.0000 </r>
       <r>   10.9469   -0.0000 </r>
       <r>   11.3042   -0.0000 </r>
       <r>   11.4434   -0.0000 </r>
       <r>   11.8883   -0.0000 </r>
       <r>   11.9613   -0.0000 </r>
       <r>   12.4419   -0.0000 </r>
       <r>   12.5068   -0.0000 </r>
       <r>   12.6865   -0.0000 </r>
       <r>   12.7112   -0.0000 </r>
       <r>   13.1408   -0.0000 </r>
       <r>   13.2393   -0.0000 </r>
       <r>   13.3090   -0.0000 </r>
       <r>   13.3219   -0.0000 </r>
       <r>   13.3694   -0.0000 </r>
       <r>   13.4161   -0.0000 </r>
       <r>   13.4961   -0.0000 </r>
       <r>   14.1402   -0.0000 </r>
      </set>
      <set comment="kpoint 104">
       <r>   -1.7294    1.0000 </r>
       <r>   -1.1668    1.0000 </r>
       <r>   -0.9025    1.0000 </r>
       <r>   -0.4664    1.0000 </r>
       <r>   -0.2153    1.0000 </r>
       <r>    0.2423    1.0000 </r>
       <r>    1.9310    1.0000 </r>
       <r>    2.2084    1.0000 </r>
       <r>    2.4913    1.0000 </r>
       <r>    2.7394    1.0000 </r>
       <r>    2.8494    1.0000 </r>
       <r>    3.0392    1.0000 </r>
       <r>    3.2363    1.0000 </r>
       <r>    3.3284    1.0000 </r>
       <r>    3.5338    1.0000 </r>
       <r>    3.5639    1.0000 </r>
       <r>    3.8161    1.0000 </r>
       <r>    3.9314    1.0000 </r>
       <r>    4.0001    1.0000 </r>
       <r>    4.3366    1.0000 </r>
       <r>    4.5922    1.0000 </r>
       <r>    4.9645    1.0000 </r>
       <r>    5.8932    1.0000 </r>
       <r>    6.0795    1.0000 </r>
       <r>    6.3718    1.0000 </r>
       <r>    6.6770    1.0000 </r>
       <r>    6.8090    1.0000 </r>
       <r>    6.8964    1.0000 </r>
       <r>    6.9501    1.0000 </r>
       <r>    7.2768    1.0000 </r>
       <r>    7.3589    1.0000 </r>
       <r>    7.4096    1.0000 </r>
       <r>    7.5203    1.0000 </r>
       <r>    7.8906    1.0000 </r>
       <r>    8.2829    1.0000 </r>
       <r>    8.4409    1.0000 </r>
       <r>    8.8913    1.0000 </r>
       <r>    9.0639    1.0000 </r>
       <r>    9.1277    1.0002 </r>
       <r>    9.4366    1.0336 </r>
       <r>    9.6966    0.5366 </r>
       <r>    9.9929   -0.0303 </r>
       <r>   10.2413   -0.0005 </r>
       <r>   10.4897   -0.0000 </r>
       <r>   10.5380   -0.0000 </r>
       <r>   10.8089   -0.0000 </r>
       <r>   10.8818   -0.0000 </r>
       <r>   10.9931   -0.0000 </r>
       <r>   11.2424   -0.0000 </r>
       <r>   11.4987   -0.0000 </r>
       <r>   11.8613   -0.0000 </r>
       <r>   11.9763   -0.0000 </r>
       <r>   12.4260   -0.0000 </r>
       <r>   12.5370   -0.0000 </r>
       <r>   12.6633   -0.0000 </r>
       <r>   12.7257   -0.0000 </r>
       <r>   13.1263   -0.0000 </r>
       <r>   13.1922   -0.0000 </r>
       <r>   13.2977   -0.0000 </r>
       <r>   13.3452   -0.0000 </r>
       <r>   13.3893   -0.0000 </r>
       <r>   13.4471   -0.0000 </r>
       <r>   13.5168   -0.0000 </r>
       <r>   14.1047   -0.0000 </r>
      </set>
      <set comment="kpoint 105">
       <r>   -1.7385    1.0000 </r>
       <r>   -1.1541    1.0000 </r>
       <r>   -0.9048    1.0000 </r>
       <r>   -0.3931    1.0000 </r>
       <r>   -0.2771    1.0000 </r>
       <r>    0.2140    1.0000 </r>
       <r>    2.0037    1.0000 </r>
       <r>    2.0992    1.0000 </r>
       <r>    2.5442    1.0000 </r>
       <r>    2.7236    1.0000 </r>
       <r>    2.8513    1.0000 </r>
       <r>    3.1072    1.0000 </r>
       <r>    3.1774    1.0000 </r>
       <r>    3.3531    1.0000 </r>
       <r>    3.4838    1.0000 </r>
       <r>    3.6267    1.0000 </r>
       <r>    3.7740    1.0000 </r>
       <r>    3.9567    1.0000 </r>
       <r>    3.9970    1.0000 </r>
       <r>    4.3979    1.0000 </r>
       <r>    4.5398    1.0000 </r>
       <r>    4.9439    1.0000 </r>
       <r>    5.8907    1.0000 </r>
       <r>    6.0627    1.0000 </r>
       <r>    6.3809    1.0000 </r>
       <r>    6.7247    1.0000 </r>
       <r>    6.7877    1.0000 </r>
       <r>    6.8653    1.0000 </r>
       <r>    6.9546    1.0000 </r>
       <r>    7.2850    1.0000 </r>
       <r>    7.3586    1.0000 </r>
       <r>    7.4316    1.0000 </r>
       <r>    7.4642    1.0000 </r>
       <r>    7.8761    1.0000 </r>
       <r>    8.3069    1.0000 </r>
       <r>    8.4260    1.0000 </r>
       <r>    8.9459    1.0000 </r>
       <r>    9.0372    1.0000 </r>
       <r>    9.2082    1.0012 </r>
       <r>    9.3474    1.0149 </r>
       <r>    9.7691    0.2445 </r>
       <r>    9.9273   -0.0331 </r>
       <r>   10.2999   -0.0001 </r>
       <r>   10.4229   -0.0000 </r>
       <r>   10.6196   -0.0000 </r>
       <r>   10.7698   -0.0000 </r>
       <r>   10.8786   -0.0000 </r>
       <r>   10.9578   -0.0000 </r>
       <r>   11.3119   -0.0000 </r>
       <r>   11.4625   -0.0000 </r>
       <r>   11.8783   -0.0000 </r>
       <r>   11.9453   -0.0000 </r>
       <r>   12.4469   -0.0000 </r>
       <r>   12.5049   -0.0000 </r>
       <r>   12.6784   -0.0000 </r>
       <r>   12.7093   -0.0000 </r>
       <r>   13.1480   -0.0000 </r>
       <r>   13.2256   -0.0000 </r>
       <r>   13.2968   -0.0000 </r>
       <r>   13.3424   -0.0000 </r>
       <r>   13.3819   -0.0000 </r>
       <r>   13.4311   -0.0000 </r>
       <r>   13.4953   -0.0000 </r>
       <r>   14.1277   -0.0000 </r>
      </set>
      <set comment="kpoint 106">
       <r>   -1.7257    1.0000 </r>
       <r>   -1.1725    1.0000 </r>
       <r>   -0.9148    1.0000 </r>
       <r>   -0.3865    1.0000 </r>
       <r>   -0.2916    1.0000 </r>
       <r>    0.2450    1.0000 </r>
       <r>    2.0281    1.0000 </r>
       <r>    2.1133    1.0000 </r>
       <r>    2.5609    1.0000 </r>
       <r>    2.6543    1.0000 </r>
       <r>    2.8371    1.0000 </r>
       <r>    3.0971    1.0000 </r>
       <r>    3.1971    1.0000 </r>
       <r>    3.3595    1.0000 </r>
       <r>    3.5021    1.0000 </r>
       <r>    3.6510    1.0000 </r>
       <r>    3.7396    1.0000 </r>
       <r>    3.9203    1.0000 </r>
       <r>    3.9983    1.0000 </r>
       <r>    4.4134    1.0000 </r>
       <r>    4.5202    1.0000 </r>
       <r>    4.9592    1.0000 </r>
       <r>    5.8922    1.0000 </r>
       <r>    6.0784    1.0000 </r>
       <r>    6.3805    1.0000 </r>
       <r>    6.7218    1.0000 </r>
       <r>    6.8036    1.0000 </r>
       <r>    6.8989    1.0000 </r>
       <r>    6.9162    1.0000 </r>
       <r>    7.2960    1.0000 </r>
       <r>    7.3597    1.0000 </r>
       <r>    7.4193    1.0000 </r>
       <r>    7.4692    1.0000 </r>
       <r>    7.9125    1.0000 </r>
       <r>    8.2787    1.0000 </r>
       <r>    8.4259    1.0000 </r>
       <r>    8.9261    1.0000 </r>
       <r>    9.0333    1.0000 </r>
       <r>    9.2348    1.0022 </r>
       <r>    9.3388    1.0132 </r>
       <r>    9.8002    0.1440 </r>
       <r>    9.8885   -0.0141 </r>
       <r>   10.3241   -0.0001 </r>
       <r>   10.3922   -0.0000 </r>
       <r>   10.6398   -0.0000 </r>
       <r>   10.7651   -0.0000 </r>
       <r>   10.8889   -0.0000 </r>
       <r>   10.9608   -0.0000 </r>
       <r>   11.3162   -0.0000 </r>
       <r>   11.4021   -0.0000 </r>
       <r>   11.8883   -0.0000 </r>
       <r>   11.9591   -0.0000 </r>
       <r>   12.4513   -0.0000 </r>
       <r>   12.4956   -0.0000 </r>
       <r>   12.6670   -0.0000 </r>
       <r>   12.7229   -0.0000 </r>
       <r>   13.1219   -0.0000 </r>
       <r>   13.2221   -0.0000 </r>
       <r>   13.2794   -0.0000 </r>
       <r>   13.3586   -0.0000 </r>
       <r>   13.4011   -0.0000 </r>
       <r>   13.4451   -0.0000 </r>
       <r>   13.4770   -0.0000 </r>
       <r>   14.1508   -0.0000 </r>
      </set>
      <set comment="kpoint 107">
       <r>   -1.7295    1.0000 </r>
       <r>   -1.1639    1.0000 </r>
       <r>   -0.9189    1.0000 </r>
       <r>   -0.3690    1.0000 </r>
       <r>   -0.3140    1.0000 </r>
       <r>    0.2578    1.0000 </r>
       <r>    2.0092    1.0000 </r>
       <r>    2.0958    1.0000 </r>
       <r>    2.5687    1.0000 </r>
       <r>    2.6248    1.0000 </r>
       <r>    2.8775    1.0000 </r>
       <r>    3.1267    1.0000 </r>
       <r>    3.1837    1.0000 </r>
       <r>    3.3811    1.0000 </r>
       <r>    3.4380    1.0000 </r>
       <r>    3.6733    1.0000 </r>
       <r>    3.7327    1.0000 </r>
       <r>    3.9229    1.0000 </r>
       <r>    4.0329    1.0000 </r>
       <r>    4.4310    1.0000 </r>
       <r>    4.4827    1.0000 </r>
       <r>    4.9812    1.0000 </r>
       <r>    5.8888    1.0000 </r>
       <r>    6.0781    1.0000 </r>
       <r>    6.3754    1.0000 </r>
       <r>    6.7421    1.0000 </r>
       <r>    6.7926    1.0000 </r>
       <r>    6.8897    1.0000 </r>
       <r>    6.9159    1.0000 </r>
       <r>    7.3150    1.0000 </r>
       <r>    7.3616    1.0000 </r>
       <r>    7.4130    1.0000 </r>
       <r>    7.4439    1.0000 </r>
       <r>    7.8963    1.0000 </r>
       <r>    8.2860    1.0000 </r>
       <r>    8.4375    1.0000 </r>
       <r>    8.9321    1.0000 </r>
       <r>    9.0000    1.0000 </r>
       <r>    9.2429    1.0026 </r>
       <r>    9.3461    1.0146 </r>
       <r>    9.7948    0.1599 </r>
       <r>    9.8749   -0.0014 </r>
       <r>   10.3009   -0.0001 </r>
       <r>   10.3975   -0.0000 </r>
       <r>   10.6983   -0.0000 </r>
       <r>   10.7123   -0.0000 </r>
       <r>   10.9095   -0.0000 </r>
       <r>   10.9573   -0.0000 </r>
       <r>   11.3282   -0.0000 </r>
       <r>   11.4067   -0.0000 </r>
       <r>   11.8982   -0.0000 </r>
       <r>   11.9359   -0.0000 </r>
       <r>   12.4662   -0.0000 </r>
       <r>   12.4876   -0.0000 </r>
       <r>   12.6888   -0.0000 </r>
       <r>   12.7222   -0.0000 </r>
       <r>   13.1402   -0.0000 </r>
       <r>   13.2556   -0.0000 </r>
       <r>   13.3059   -0.0000 </r>
       <r>   13.3448   -0.0000 </r>
       <r>   13.3728   -0.0000 </r>
       <r>   13.4266   -0.0000 </r>
       <r>   13.5079   -0.0000 </r>
       <r>   14.1030   -0.0000 </r>
      </set>
      <set comment="kpoint 108">
       <r>   -1.7256    1.0000 </r>
       <r>   -1.1700    1.0000 </r>
       <r>   -0.9165    1.0000 </r>
       <r>   -0.4117    1.0000 </r>
       <r>   -0.2626    1.0000 </r>
       <r>    0.2392    1.0000 </r>
       <r>    1.9944    1.0000 </r>
       <r>    2.1537    1.0000 </r>
       <r>    2.5379    1.0000 </r>
       <r>    2.6783    1.0000 </r>
       <r>    2.8621    1.0000 </r>
       <r>    3.0695    1.0000 </r>
       <r>    3.2356    1.0000 </r>
       <r>    3.3528    1.0000 </r>
       <r>    3.4921    1.0000 </r>
       <r>    3.5930    1.0000 </r>
       <r>    3.7448    1.0000 </r>
       <r>    3.9259    1.0000 </r>
       <r>    4.0122    1.0000 </r>
       <r>    4.4027    1.0000 </r>
       <r>    4.5276    1.0000 </r>
       <r>    4.9685    1.0000 </r>
       <r>    5.8997    1.0000 </r>
       <r>    6.0778    1.0000 </r>
       <r>    6.3687    1.0000 </r>
       <r>    6.7193    1.0000 </r>
       <r>    6.8331    1.0000 </r>
       <r>    6.8724    1.0000 </r>
       <r>    6.9223    1.0000 </r>
       <r>    7.3037    1.0000 </r>
       <r>    7.3725    1.0000 </r>
       <r>    7.4172    1.0000 </r>
       <r>    7.4590    1.0000 </r>
       <r>    7.8903    1.0000 </r>
       <r>    8.2821    1.0000 </r>
       <r>    8.4411    1.0000 </r>
       <r>    8.9198    1.0000 </r>
       <r>    9.0306    1.0000 </r>
       <r>    9.2198    1.0016 </r>
       <r>    9.3632    1.0181 </r>
       <r>    9.7765    0.2186 </r>
       <r>    9.9235   -0.0322 </r>
       <r>   10.3121   -0.0001 </r>
       <r>   10.4209   -0.0000 </r>
       <r>   10.5942   -0.0000 </r>
       <r>   10.7667   -0.0000 </r>
       <r>   10.8935   -0.0000 </r>
       <r>   10.9730   -0.0000 </r>
       <r>   11.2985   -0.0000 </r>
       <r>   11.4242   -0.0000 </r>
       <r>   11.8813   -0.0000 </r>
       <r>   11.9630   -0.0000 </r>
       <r>   12.4388   -0.0000 </r>
       <r>   12.4848   -0.0000 </r>
       <r>   12.6839   -0.0000 </r>
       <r>   12.7108   -0.0000 </r>
       <r>   13.1315   -0.0000 </r>
       <r>   13.2404   -0.0000 </r>
       <r>   13.2879   -0.0000 </r>
       <r>   13.3416   -0.0000 </r>
       <r>   13.3986   -0.0000 </r>
       <r>   13.4346   -0.0000 </r>
       <r>   13.4697   -0.0000 </r>
       <r>   14.1228   -0.0000 </r>
      </set>
      <set comment="kpoint 109">
       <r>   -1.7388    1.0000 </r>
       <r>   -1.1508    1.0000 </r>
       <r>   -0.9080    1.0000 </r>
       <r>   -0.3927    1.0000 </r>
       <r>   -0.2779    1.0000 </r>
       <r>    0.2135    1.0000 </r>
       <r>    1.9974    1.0000 </r>
       <r>    2.1163    1.0000 </r>
       <r>    2.5505    1.0000 </r>
       <r>    2.7011    1.0000 </r>
       <r>    2.8813    1.0000 </r>
       <r>    3.0625    1.0000 </r>
       <r>    3.1773    1.0000 </r>
       <r>    3.3630    1.0000 </r>
       <r>    3.5085    1.0000 </r>
       <r>    3.5973    1.0000 </r>
       <r>    3.7947    1.0000 </r>
       <r>    3.9517    1.0000 </r>
       <r>    3.9990    1.0000 </r>
       <r>    4.3969    1.0000 </r>
       <r>    4.5345    1.0000 </r>
       <r>    4.9485    1.0000 </r>
       <r>    5.8852    1.0000 </r>
       <r>    6.0742    1.0000 </r>
       <r>    6.3741    1.0000 </r>
       <r>    6.7263    1.0000 </r>
       <r>    6.7776    1.0000 </r>
       <r>    6.8716    1.0000 </r>
       <r>    6.9748    1.0000 </r>
       <r>    7.2853    1.0000 </r>
       <r>    7.3539    1.0000 </r>
       <r>    7.4152    1.0000 </r>
       <r>    7.4664    1.0000 </r>
       <r>    7.8685    1.0000 </r>
       <r>    8.2977    1.0000 </r>
       <r>    8.4406    1.0000 </r>
       <r>    8.9565    1.0000 </r>
       <r>    9.0278    1.0000 </r>
       <r>    9.1987    1.0010 </r>
       <r>    9.3714    1.0199 </r>
       <r>    9.7697    0.2422 </r>
       <r>    9.9143   -0.0292 </r>
       <r>   10.3047   -0.0001 </r>
       <r>   10.4348   -0.0000 </r>
       <r>   10.6067   -0.0000 </r>
       <r>   10.7490   -0.0000 </r>
       <r>   10.8802   -0.0000 </r>
       <r>   10.9756   -0.0000 </r>
       <r>   11.3118   -0.0000 </r>
       <r>   11.4414   -0.0000 </r>
       <r>   11.8932   -0.0000 </r>
       <r>   11.9515   -0.0000 </r>
       <r>   12.4459   -0.0000 </r>
       <r>   12.5173   -0.0000 </r>
       <r>   12.6770   -0.0000 </r>
       <r>   12.7127   -0.0000 </r>
       <r>   13.1276   -0.0000 </r>
       <r>   13.2493   -0.0000 </r>
       <r>   13.3161   -0.0000 </r>
       <r>   13.3489   -0.0000 </r>
       <r>   13.3682   -0.0000 </r>
       <r>   13.4060   -0.0000 </r>
       <r>   13.4851   -0.0000 </r>
       <r>   14.1207   -0.0000 </r>
      </set>
      <set comment="kpoint 110">
       <r>   -1.7278    1.0000 </r>
       <r>   -1.1744    1.0000 </r>
       <r>   -0.8960    1.0000 </r>
       <r>   -0.4673    1.0000 </r>
       <r>   -0.2141    1.0000 </r>
       <r>    0.2418    1.0000 </r>
       <r>    1.9312    1.0000 </r>
       <r>    2.2109    1.0000 </r>
       <r>    2.4921    1.0000 </r>
       <r>    2.7353    1.0000 </r>
       <r>    2.8911    1.0000 </r>
       <r>    2.9833    1.0000 </r>
       <r>    3.2155    1.0000 </r>
       <r>    3.3394    1.0000 </r>
       <r>    3.5455    1.0000 </r>
       <r>    3.5734    1.0000 </r>
       <r>    3.8122    1.0000 </r>
       <r>    3.9435    1.0000 </r>
       <r>    4.0090    1.0000 </r>
       <r>    4.3292    1.0000 </r>
       <r>    4.5867    1.0000 </r>
       <r>    4.9626    1.0000 </r>
       <r>    5.9034    1.0000 </r>
       <r>    6.0642    1.0000 </r>
       <r>    6.3763    1.0000 </r>
       <r>    6.6663    1.0000 </r>
       <r>    6.8063    1.0000 </r>
       <r>    6.9142    1.0000 </r>
       <r>    6.9710    1.0000 </r>
       <r>    7.2407    1.0000 </r>
       <r>    7.3452    1.0000 </r>
       <r>    7.4239    1.0000 </r>
       <r>    7.5309    1.0000 </r>
       <r>    7.8922    1.0000 </r>
       <r>    8.2955    1.0000 </r>
       <r>    8.4250    1.0000 </r>
       <r>    8.8903    1.0000 </r>
       <r>    9.0717    1.0000 </r>
       <r>    9.1245    1.0002 </r>
       <r>    9.4427    1.0344 </r>
       <r>    9.6985    0.5285 </r>
       <r>    9.9906   -0.0308 </r>
       <r>   10.2188   -0.0009 </r>
       <r>   10.4885   -0.0000 </r>
       <r>   10.5493   -0.0000 </r>
       <r>   10.7857   -0.0000 </r>
       <r>   10.9086   -0.0000 </r>
       <r>   10.9908   -0.0000 </r>
       <r>   11.2483   -0.0000 </r>
       <r>   11.4995   -0.0000 </r>
       <r>   11.8633   -0.0000 </r>
       <r>   11.9785   -0.0000 </r>
       <r>   12.4278   -0.0000 </r>
       <r>   12.5183   -0.0000 </r>
       <r>   12.6669   -0.0000 </r>
       <r>   12.7430   -0.0000 </r>
       <r>   13.1157   -0.0000 </r>
       <r>   13.1990   -0.0000 </r>
       <r>   13.2639   -0.0000 </r>
       <r>   13.3544   -0.0000 </r>
       <r>   13.4263   -0.0000 </r>
       <r>   13.4389   -0.0000 </r>
       <r>   13.5064   -0.0000 </r>
       <r>   14.1146   -0.0000 </r>
      </set>
      <set comment="kpoint 111">
       <r>   -1.7396    1.0000 </r>
       <r>   -1.1603    1.0000 </r>
       <r>   -0.8843    1.0000 </r>
       <r>   -0.4144    1.0000 </r>
       <r>   -0.2762    1.0000 </r>
       <r>    0.2216    1.0000 </r>
       <r>    1.9902    1.0000 </r>
       <r>    2.1204    1.0000 </r>
       <r>    2.5585    1.0000 </r>
       <r>    2.6897    1.0000 </r>
       <r>    2.8853    1.0000 </r>
       <r>    3.0511    1.0000 </r>
       <r>    3.1623    1.0000 </r>
       <r>    3.3875    1.0000 </r>
       <r>    3.4897    1.0000 </r>
       <r>    3.6362    1.0000 </r>
       <r>    3.7827    1.0000 </r>
       <r>    3.9554    1.0000 </r>
       <r>    3.9909    1.0000 </r>
       <r>    4.4030    1.0000 </r>
       <r>    4.5391    1.0000 </r>
       <r>    4.9402    1.0000 </r>
       <r>    5.8674    1.0000 </r>
       <r>    6.0847    1.0000 </r>
       <r>    6.4044    1.0000 </r>
       <r>    6.7127    1.0000 </r>
       <r>    6.7840    1.0000 </r>
       <r>    6.8656    1.0000 </r>
       <r>    6.9504    1.0000 </r>
       <r>    7.2768    1.0000 </r>
       <r>    7.3136    1.0000 </r>
       <r>    7.4348    1.0000 </r>
       <r>    7.5133    1.0000 </r>
       <r>    7.8707    1.0000 </r>
       <r>    8.2870    1.0000 </r>
       <r>    8.4431    1.0000 </r>
       <r>    8.9580    1.0000 </r>
       <r>    9.0243    1.0000 </r>
       <r>    9.2035    1.0011 </r>
       <r>    9.3556    1.0165 </r>
       <r>    9.7682    0.2475 </r>
       <r>    9.9306   -0.0338 </r>
       <r>   10.2966   -0.0001 </r>
       <r>   10.4316   -0.0000 </r>
       <r>   10.6092   -0.0000 </r>
       <r>   10.7408   -0.0000 </r>
       <r>   10.8922   -0.0000 </r>
       <r>   10.9770   -0.0000 </r>
       <r>   11.3130   -0.0000 </r>
       <r>   11.4612   -0.0000 </r>
       <r>   11.8766   -0.0000 </r>
       <r>   11.9474   -0.0000 </r>
       <r>   12.4543   -0.0000 </r>
       <r>   12.5090   -0.0000 </r>
       <r>   12.6717   -0.0000 </r>
       <r>   12.7103   -0.0000 </r>
       <r>   13.1291   -0.0000 </r>
       <r>   13.2452   -0.0000 </r>
       <r>   13.3261   -0.0000 </r>
       <r>   13.3433   -0.0000 </r>
       <r>   13.3906   -0.0000 </r>
       <r>   13.4175   -0.0000 </r>
       <r>   13.4642   -0.0000 </r>
       <r>   14.1388   -0.0000 </r>
      </set>
      <set comment="kpoint 112">
       <r>   -1.7235    1.0000 </r>
       <r>   -1.1810    1.0000 </r>
       <r>   -0.9070    1.0000 </r>
       <r>   -0.4118    1.0000 </r>
       <r>   -0.2617    1.0000 </r>
       <r>    0.2387    1.0000 </r>
       <r>    2.0046    1.0000 </r>
       <r>    2.1425    1.0000 </r>
       <r>    2.5262    1.0000 </r>
       <r>    2.6915    1.0000 </r>
       <r>    2.8691    1.0000 </r>
       <r>    3.0290    1.0000 </r>
       <r>    3.2252    1.0000 </r>
       <r>    3.3938    1.0000 </r>
       <r>    3.4852    1.0000 </r>
       <r>    3.6193    1.0000 </r>
       <r>    3.7189    1.0000 </r>
       <r>    3.9543    1.0000 </r>
       <r>    4.0134    1.0000 </r>
       <r>    4.3911    1.0000 </r>
       <r>    4.5224    1.0000 </r>
       <r>    4.9631    1.0000 </r>
       <r>    5.9073    1.0000 </r>
       <r>    6.0594    1.0000 </r>
       <r>    6.3757    1.0000 </r>
       <r>    6.7104    1.0000 </r>
       <r>    6.8067    1.0000 </r>
       <r>    6.9077    1.0000 </r>
       <r>    6.9547    1.0000 </r>
       <r>    7.2435    1.0000 </r>
       <r>    7.3277    1.0000 </r>
       <r>    7.4563    1.0000 </r>
       <r>    7.4941    1.0000 </r>
       <r>    7.9087    1.0000 </r>
       <r>    8.2978    1.0000 </r>
       <r>    8.4110    1.0000 </r>
       <r>    8.9204    1.0000 </r>
       <r>    9.0338    1.0000 </r>
       <r>    9.2202    1.0016 </r>
       <r>    9.3579    1.0170 </r>
       <r>    9.7756    0.2218 </r>
       <r>    9.9254   -0.0327 </r>
       <r>   10.2815   -0.0002 </r>
       <r>   10.4209   -0.0000 </r>
       <r>   10.6155   -0.0000 </r>
       <r>   10.7728   -0.0000 </r>
       <r>   10.8942   -0.0000 </r>
       <r>   10.9733   -0.0000 </r>
       <r>   11.2993   -0.0000 </r>
       <r>   11.4296   -0.0000 </r>
       <r>   11.8790   -0.0000 </r>
       <r>   11.9590   -0.0000 </r>
       <r>   12.4620   -0.0000 </r>
       <r>   12.4908   -0.0000 </r>
       <r>   12.6545   -0.0000 </r>
       <r>   12.7176   -0.0000 </r>
       <r>   13.1176   -0.0000 </r>
       <r>   13.2139   -0.0000 </r>
       <r>   13.2822   -0.0000 </r>
       <r>   13.3593   -0.0000 </r>
       <r>   13.4123   -0.0000 </r>
       <r>   13.4289   -0.0000 </r>
       <r>   13.4854   -0.0000 </r>
       <r>   14.1201   -0.0000 </r>
      </set>
      <set comment="kpoint 113">
       <r>   -2.1344    1.0000 </r>
       <r>   -1.3083    1.0000 </r>
       <r>    0.2176    1.0000 </r>
       <r>    0.2954    1.0000 </r>
       <r>    0.3926    1.0000 </r>
       <r>    0.5698    1.0000 </r>
       <r>    0.6240    1.0000 </r>
       <r>    0.7167    1.0000 </r>
       <r>    1.8771    1.0000 </r>
       <r>    1.9686    1.0000 </r>
       <r>    2.0566    1.0000 </r>
       <r>    3.1959    1.0000 </r>
       <r>    3.2853    1.0000 </r>
       <r>    3.3736    1.0000 </r>
       <r>    3.5461    1.0000 </r>
       <r>    3.7364    1.0000 </r>
       <r>    3.8195    1.0000 </r>
       <r>    3.9173    1.0000 </r>
       <r>    5.4851    1.0000 </r>
       <r>    5.5709    1.0000 </r>
       <r>    5.6603    1.0000 </r>
       <r>    5.9947    1.0000 </r>
       <r>    6.1786    1.0000 </r>
       <r>    6.2164    1.0000 </r>
       <r>    6.3026    1.0000 </r>
       <r>    6.3528    1.0000 </r>
       <r>    6.4013    1.0000 </r>
       <r>    6.4372    1.0000 </r>
       <r>    7.1870    1.0000 </r>
       <r>    7.2218    1.0000 </r>
       <r>    7.2414    1.0000 </r>
       <r>    7.2714    1.0000 </r>
       <r>    7.3550    1.0000 </r>
       <r>    7.4063    1.0000 </r>
       <r>    8.6453    1.0000 </r>
       <r>    8.7063    1.0000 </r>
       <r>    8.7726    1.0000 </r>
       <r>    9.0248    1.0000 </r>
       <r>    9.0943    1.0001 </r>
       <r>    9.1164    1.0001 </r>
       <r>    9.3024    1.0076 </r>
       <r>    9.3826    1.0225 </r>
       <r>    9.5033    1.0261 </r>
       <r>   10.7419   -0.0000 </r>
       <r>   10.7686   -0.0000 </r>
       <r>   10.8001   -0.0000 </r>
       <r>   11.4954   -0.0000 </r>
       <r>   11.5446   -0.0000 </r>
       <r>   11.6422   -0.0000 </r>
       <r>   11.9588   -0.0000 </r>
       <r>   11.9998   -0.0000 </r>
       <r>   12.0367   -0.0000 </r>
       <r>   12.0641   -0.0000 </r>
       <r>   12.0859   -0.0000 </r>
       <r>   12.1540   -0.0000 </r>
       <r>   12.1699   -0.0000 </r>
       <r>   12.2259   -0.0000 </r>
       <r>   12.2526   -0.0000 </r>
       <r>   12.4070   -0.0000 </r>
       <r>   12.4849   -0.0000 </r>
       <r>   12.5231   -0.0000 </r>
       <r>   13.6157   -0.0000 </r>
       <r>   13.6968   -0.0000 </r>
       <r>   13.7457   -0.0000 </r>
      </set>
      <set comment="kpoint 114">
       <r>   -2.1323    1.0000 </r>
       <r>   -1.3102    1.0000 </r>
       <r>    0.1540    1.0000 </r>
       <r>    0.2947    1.0000 </r>
       <r>    0.4630    1.0000 </r>
       <r>    0.5231    1.0000 </r>
       <r>    0.6154    1.0000 </r>
       <r>    0.7943    1.0000 </r>
       <r>    1.8213    1.0000 </r>
       <r>    1.9332    1.0000 </r>
       <r>    2.1378    1.0000 </r>
       <r>    3.1534    1.0000 </r>
       <r>    3.2595    1.0000 </r>
       <r>    3.4485    1.0000 </r>
       <r>    3.5365    1.0000 </r>
       <r>    3.6963    1.0000 </r>
       <r>    3.7925    1.0000 </r>
       <r>    3.9809    1.0000 </r>
       <r>    5.4211    1.0000 </r>
       <r>    5.5370    1.0000 </r>
       <r>    5.7261    1.0000 </r>
       <r>    5.9901    1.0000 </r>
       <r>    6.1216    1.0000 </r>
       <r>    6.1724    1.0000 </r>
       <r>    6.2538    1.0000 </r>
       <r>    6.4085    1.0000 </r>
       <r>    6.4547    1.0000 </r>
       <r>    6.5241    1.0000 </r>
       <r>    7.1165    1.0000 </r>
       <r>    7.1669    1.0000 </r>
       <r>    7.2116    1.0000 </r>
       <r>    7.3229    1.0000 </r>
       <r>    7.4252    1.0000 </r>
       <r>    7.4527    1.0000 </r>
       <r>    8.6588    1.0000 </r>
       <r>    8.6993    1.0000 </r>
       <r>    8.7696    1.0000 </r>
       <r>    9.0181    1.0000 </r>
       <r>    9.0745    1.0000 </r>
       <r>    9.1326    1.0002 </r>
       <r>    9.2379    1.0023 </r>
       <r>    9.3645    1.0184 </r>
       <r>    9.5828    0.9254 </r>
       <r>   10.7286   -0.0000 </r>
       <r>   10.7658   -0.0000 </r>
       <r>   10.8209   -0.0000 </r>
       <r>   11.4513   -0.0000 </r>
       <r>   11.5446   -0.0000 </r>
       <r>   11.7055   -0.0000 </r>
       <r>   11.8942   -0.0000 </r>
       <r>   11.9370   -0.0000 </r>
       <r>   11.9767   -0.0000 </r>
       <r>   12.0536   -0.0000 </r>
       <r>   12.1134   -0.0000 </r>
       <r>   12.1454   -0.0000 </r>
       <r>   12.2115   -0.0000 </r>
       <r>   12.2512   -0.0000 </r>
       <r>   12.2931   -0.0000 </r>
       <r>   12.3952   -0.0000 </r>
       <r>   12.4640   -0.0000 </r>
       <r>   12.5966   -0.0000 </r>
       <r>   13.5965   -0.0000 </r>
       <r>   13.6765   -0.0000 </r>
       <r>   13.7134   -0.0000 </r>
      </set>
      <set comment="kpoint 115">
       <r>   -2.1317    1.0000 </r>
       <r>   -1.3146    1.0000 </r>
       <r>    0.1811    1.0000 </r>
       <r>    0.3447    1.0000 </r>
       <r>    0.3970    1.0000 </r>
       <r>    0.5510    1.0000 </r>
       <r>    0.6442    1.0000 </r>
       <r>    0.7066    1.0000 </r>
       <r>    1.8568    1.0000 </r>
       <r>    1.9817    1.0000 </r>
       <r>    2.0635    1.0000 </r>
       <r>    3.1743    1.0000 </r>
       <r>    3.3113    1.0000 </r>
       <r>    3.3864    1.0000 </r>
       <r>    3.5303    1.0000 </r>
       <r>    3.7275    1.0000 </r>
       <r>    3.8354    1.0000 </r>
       <r>    3.9058    1.0000 </r>
       <r>    5.4557    1.0000 </r>
       <r>    5.5914    1.0000 </r>
       <r>    5.6442    1.0000 </r>
       <r>    5.9859    1.0000 </r>
       <r>    6.1707    1.0000 </r>
       <r>    6.2486    1.0000 </r>
       <r>    6.3028    1.0000 </r>
       <r>    6.3329    1.0000 </r>
       <r>    6.3913    1.0000 </r>
       <r>    6.4556    1.0000 </r>
       <r>    7.1828    1.0000 </r>
       <r>    7.2063    1.0000 </r>
       <r>    7.2582    1.0000 </r>
       <r>    7.2863    1.0000 </r>
       <r>    7.3539    1.0000 </r>
       <r>    7.4160    1.0000 </r>
       <r>    8.6861    1.0000 </r>
       <r>    8.7285    1.0000 </r>
       <r>    8.7765    1.0000 </r>
       <r>    9.0341    1.0000 </r>
       <r>    9.0621    1.0000 </r>
       <r>    9.1055    1.0001 </r>
       <r>    9.2573    1.0034 </r>
       <r>    9.4154    1.0298 </r>
       <r>    9.4961    1.0293 </r>
       <r>   10.7420   -0.0000 </r>
       <r>   10.7762   -0.0000 </r>
       <r>   10.8038   -0.0000 </r>
       <r>   11.4681   -0.0000 </r>
       <r>   11.5889   -0.0000 </r>
       <r>   11.6411   -0.0000 </r>
       <r>   11.9158   -0.0000 </r>
       <r>   11.9731   -0.0000 </r>
       <r>   12.0246   -0.0000 </r>
       <r>   12.0441   -0.0000 </r>
       <r>   12.0790   -0.0000 </r>
       <r>   12.1539   -0.0000 </r>
       <r>   12.1801   -0.0000 </r>
       <r>   12.2138   -0.0000 </r>
       <r>   12.2480   -0.0000 </r>
       <r>   12.4299   -0.0000 </r>
       <r>   12.4997   -0.0000 </r>
       <r>   12.5532   -0.0000 </r>
       <r>   13.6243   -0.0000 </r>
       <r>   13.6690   -0.0000 </r>
       <r>   13.7168   -0.0000 </r>
      </set>
      <set comment="kpoint 116">
       <r>   -2.1342    1.0000 </r>
       <r>   -1.3044    1.0000 </r>
       <r>    0.1546    1.0000 </r>
       <r>    0.2923    1.0000 </r>
       <r>    0.4687    1.0000 </r>
       <r>    0.4950    1.0000 </r>
       <r>    0.6317    1.0000 </r>
       <r>    0.7889    1.0000 </r>
       <r>    1.8119    1.0000 </r>
       <r>    1.9676    1.0000 </r>
       <r>    2.1292    1.0000 </r>
       <r>    3.1268    1.0000 </r>
       <r>    3.2878    1.0000 </r>
       <r>    3.4433    1.0000 </r>
       <r>    3.5515    1.0000 </r>
       <r>    3.6527    1.0000 </r>
       <r>    3.8214    1.0000 </r>
       <r>    3.9842    1.0000 </r>
       <r>    5.4050    1.0000 </r>
       <r>    5.5730    1.0000 </r>
       <r>    5.7305    1.0000 </r>
       <r>    5.9425    1.0000 </r>
       <r>    6.0947    1.0000 </r>
       <r>    6.1663    1.0000 </r>
       <r>    6.3085    1.0000 </r>
       <r>    6.3482    1.0000 </r>
       <r>    6.4860    1.0000 </r>
       <r>    6.5113    1.0000 </r>
       <r>    7.1321    1.0000 </r>
       <r>    7.1903    1.0000 </r>
       <r>    7.2383    1.0000 </r>
       <r>    7.2840    1.0000 </r>
       <r>    7.3801    1.0000 </r>
       <r>    7.5209    1.0000 </r>
       <r>    8.6672    1.0000 </r>
       <r>    8.7020    1.0000 </r>
       <r>    8.8001    1.0000 </r>
       <r>    8.9961    1.0000 </r>
       <r>    9.0800    1.0000 </r>
       <r>    9.1193    1.0001 </r>
       <r>    9.1877    1.0008 </r>
       <r>    9.3895    1.0241 </r>
       <r>    9.5842    0.9224 </r>
       <r>   10.7324   -0.0000 </r>
       <r>   10.7717   -0.0000 </r>
       <r>   10.8141   -0.0000 </r>
       <r>   11.4076   -0.0000 </r>
       <r>   11.5569   -0.0000 </r>
       <r>   11.6850   -0.0000 </r>
       <r>   11.8763   -0.0000 </r>
       <r>   11.9671   -0.0000 </r>
       <r>   12.0373   -0.0000 </r>
       <r>   12.0504   -0.0000 </r>
       <r>   12.0850   -0.0000 </r>
       <r>   12.1462   -0.0000 </r>
       <r>   12.1593   -0.0000 </r>
       <r>   12.2613   -0.0000 </r>
       <r>   12.3177   -0.0000 </r>
       <r>   12.4022   -0.0000 </r>
       <r>   12.4948   -0.0000 </r>
       <r>   12.5840   -0.0000 </r>
       <r>   13.5404   -0.0000 </r>
       <r>   13.6710   -0.0000 </r>
       <r>   13.7524   -0.0000 </r>
      </set>
      <set comment="kpoint 117">
       <r>   -1.7347    1.0000 </r>
       <r>   -1.4363    1.0000 </r>
       <r>   -0.8935    1.0000 </r>
       <r>   -0.1159    1.0000 </r>
       <r>   -0.0256    1.0000 </r>
       <r>    1.2321    1.0000 </r>
       <r>    1.2956    1.0000 </r>
       <r>    1.5880    1.0000 </r>
       <r>    1.7781    1.0000 </r>
       <r>    1.8830    1.0000 </r>
       <r>    2.0898    1.0000 </r>
       <r>    3.1435    1.0000 </r>
       <r>    3.6176    1.0000 </r>
       <r>    3.7205    1.0000 </r>
       <r>    3.9443    1.0000 </r>
       <r>    4.3814    1.0000 </r>
       <r>    4.4084    1.0000 </r>
       <r>    4.4984    1.0000 </r>
       <r>    4.6649    1.0000 </r>
       <r>    4.7713    1.0000 </r>
       <r>    4.9507    1.0000 </r>
       <r>    5.0394    1.0000 </r>
       <r>    5.1640    1.0000 </r>
       <r>    5.2648    1.0000 </r>
       <r>    5.4329    1.0000 </r>
       <r>    6.3105    1.0000 </r>
       <r>    6.3830    1.0000 </r>
       <r>    6.7020    1.0000 </r>
       <r>    6.7642    1.0000 </r>
       <r>    7.1209    1.0000 </r>
       <r>    7.1593    1.0000 </r>
       <r>    7.6301    1.0000 </r>
       <r>    7.6752    1.0000 </r>
       <r>    8.5136    1.0000 </r>
       <r>    8.7189    1.0000 </r>
       <r>    8.8206    1.0000 </r>
       <r>    8.8866    1.0000 </r>
       <r>    8.9776    1.0000 </r>
       <r>    9.7531    0.3039 </r>
       <r>    9.8760   -0.0025 </r>
       <r>   10.0245   -0.0232 </r>
       <r>   10.1165   -0.0066 </r>
       <r>   10.1841   -0.0018 </r>
       <r>   10.3798   -0.0000 </r>
       <r>   10.4173   -0.0000 </r>
       <r>   10.6713   -0.0000 </r>
       <r>   10.7968   -0.0000 </r>
       <r>   10.8879   -0.0000 </r>
       <r>   11.3281   -0.0000 </r>
       <r>   11.4003   -0.0000 </r>
       <r>   11.4685   -0.0000 </r>
       <r>   11.8696   -0.0000 </r>
       <r>   11.9182   -0.0000 </r>
       <r>   12.0272   -0.0000 </r>
       <r>   12.4379   -0.0000 </r>
       <r>   12.4650   -0.0000 </r>
       <r>   12.5079   -0.0000 </r>
       <r>   12.5594   -0.0000 </r>
       <r>   12.7531   -0.0000 </r>
       <r>   12.7748   -0.0000 </r>
       <r>   13.8704   -0.0000 </r>
       <r>   14.1506   -0.0000 </r>
       <r>   14.2177   -0.0000 </r>
       <r>   14.3053   -0.0000 </r>
      </set>
      <set comment="kpoint 118">
       <r>   -1.7339    1.0000 </r>
       <r>   -1.4497    1.0000 </r>
       <r>   -0.8620    1.0000 </r>
       <r>   -0.1505    1.0000 </r>
       <r>   -0.0068    1.0000 </r>
       <r>    1.1924    1.0000 </r>
       <r>    1.3139    1.0000 </r>
       <r>    1.5530    1.0000 </r>
       <r>    1.7783    1.0000 </r>
       <r>    1.9269    1.0000 </r>
       <r>    2.1126    1.0000 </r>
       <r>    3.1572    1.0000 </r>
       <r>    3.5853    1.0000 </r>
       <r>    3.7225    1.0000 </r>
       <r>    3.9311    1.0000 </r>
       <r>    4.3668    1.0000 </r>
       <r>    4.4259    1.0000 </r>
       <r>    4.4995    1.0000 </r>
       <r>    4.6339    1.0000 </r>
       <r>    4.7998    1.0000 </r>
       <r>    4.9555    1.0000 </r>
       <r>    5.0809    1.0000 </r>
       <r>    5.1436    1.0000 </r>
       <r>    5.2885    1.0000 </r>
       <r>    5.4227    1.0000 </r>
       <r>    6.2992    1.0000 </r>
       <r>    6.3860    1.0000 </r>
       <r>    6.6790    1.0000 </r>
       <r>    6.7658    1.0000 </r>
       <r>    7.1017    1.0000 </r>
       <r>    7.1376    1.0000 </r>
       <r>    7.6427    1.0000 </r>
       <r>    7.7040    1.0000 </r>
       <r>    8.5252    1.0000 </r>
       <r>    8.6597    1.0000 </r>
       <r>    8.8690    1.0000 </r>
       <r>    8.8855    1.0000 </r>
       <r>    8.9915    1.0000 </r>
       <r>    9.7541    0.2998 </r>
       <r>    9.9044   -0.0247 </r>
       <r>   10.0134   -0.0258 </r>
       <r>   10.0355   -0.0207 </r>
       <r>   10.2201   -0.0008 </r>
       <r>   10.3721   -0.0000 </r>
       <r>   10.4377   -0.0000 </r>
       <r>   10.7087   -0.0000 </r>
       <r>   10.7589   -0.0000 </r>
       <r>   10.9187   -0.0000 </r>
       <r>   11.3374   -0.0000 </r>
       <r>   11.3816   -0.0000 </r>
       <r>   11.4777   -0.0000 </r>
       <r>   11.8507   -0.0000 </r>
       <r>   11.8941   -0.0000 </r>
       <r>   12.0381   -0.0000 </r>
       <r>   12.4170   -0.0000 </r>
       <r>   12.4493   -0.0000 </r>
       <r>   12.4933   -0.0000 </r>
       <r>   12.5510   -0.0000 </r>
       <r>   12.7868   -0.0000 </r>
       <r>   12.8108   -0.0000 </r>
       <r>   13.8705   -0.0000 </r>
       <r>   14.1360   -0.0000 </r>
       <r>   14.2385   -0.0000 </r>
       <r>   14.3369   -0.0000 </r>
      </set>
      <set comment="kpoint 119">
       <r>   -1.7338    1.0000 </r>
       <r>   -1.4403    1.0000 </r>
       <r>   -0.8901    1.0000 </r>
       <r>   -0.0972    1.0000 </r>
       <r>   -0.0403    1.0000 </r>
       <r>    1.2225    1.0000 </r>
       <r>    1.3074    1.0000 </r>
       <r>    1.5548    1.0000 </r>
       <r>    1.8143    1.0000 </r>
       <r>    1.8459    1.0000 </r>
       <r>    2.1199    1.0000 </r>
       <r>    3.1412    1.0000 </r>
       <r>    3.6322    1.0000 </r>
       <r>    3.6908    1.0000 </r>
       <r>    3.9564    1.0000 </r>
       <r>    4.4004    1.0000 </r>
       <r>    4.4151    1.0000 </r>
       <r>    4.4691    1.0000 </r>
       <r>    4.6963    1.0000 </r>
       <r>    4.7386    1.0000 </r>
       <r>    4.9756    1.0000 </r>
       <r>    5.0143    1.0000 </r>
       <r>    5.1925    1.0000 </r>
       <r>    5.2367    1.0000 </r>
       <r>    5.4474    1.0000 </r>
       <r>    6.2985    1.0000 </r>
       <r>    6.4008    1.0000 </r>
       <r>    6.7172    1.0000 </r>
       <r>    6.7421    1.0000 </r>
       <r>    7.1325    1.0000 </r>
       <r>    7.1397    1.0000 </r>
       <r>    7.6449    1.0000 </r>
       <r>    7.6586    1.0000 </r>
       <r>    8.5277    1.0000 </r>
       <r>    8.7419    1.0000 </r>
       <r>    8.8108    1.0000 </r>
       <r>    8.8934    1.0000 </r>
       <r>    8.9341    1.0000 </r>
       <r>    9.7926    0.1667 </r>
       <r>    9.8387    0.0520 </r>
       <r>   10.0473   -0.0181 </r>
       <r>   10.0982   -0.0089 </r>
       <r>   10.1674   -0.0026 </r>
       <r>   10.3834   -0.0000 </r>
       <r>   10.4032   -0.0000 </r>
       <r>   10.6874   -0.0000 </r>
       <r>   10.8165   -0.0000 </r>
       <r>   10.8812   -0.0000 </r>
       <r>   11.3617   -0.0000 </r>
       <r>   11.3999   -0.0000 </r>
       <r>   11.4431   -0.0000 </r>
       <r>   11.8796   -0.0000 </r>
       <r>   11.9344   -0.0000 </r>
       <r>   11.9774   -0.0000 </r>
       <r>   12.4188   -0.0000 </r>
       <r>   12.4472   -0.0000 </r>
       <r>   12.5281   -0.0000 </r>
       <r>   12.5771   -0.0000 </r>
       <r>   12.7742   -0.0000 </r>
       <r>   12.7856   -0.0000 </r>
       <r>   13.8839   -0.0000 </r>
       <r>   14.1445   -0.0000 </r>
       <r>   14.2398   -0.0000 </r>
       <r>   14.2928   -0.0000 </r>
      </set>
      <set comment="kpoint 120">
       <r>   -1.7239    1.0000 </r>
       <r>   -1.4583    1.0000 </r>
       <r>   -0.8795    1.0000 </r>
       <r>   -0.1254    1.0000 </r>
       <r>   -0.0085    1.0000 </r>
       <r>    1.1936    1.0000 </r>
       <r>    1.2986    1.0000 </r>
       <r>    1.5455    1.0000 </r>
       <r>    1.7921    1.0000 </r>
       <r>    1.9244    1.0000 </r>
       <r>    2.1231    1.0000 </r>
       <r>    3.1492    1.0000 </r>
       <r>    3.5783    1.0000 </r>
       <r>    3.7539    1.0000 </r>
       <r>    3.9372    1.0000 </r>
       <r>    4.3591    1.0000 </r>
       <r>    4.4140    1.0000 </r>
       <r>    4.4718    1.0000 </r>
       <r>    4.6361    1.0000 </r>
       <r>    4.8096    1.0000 </r>
       <r>    4.9296    1.0000 </r>
       <r>    5.0846    1.0000 </r>
       <r>    5.1487    1.0000 </r>
       <r>    5.2719    1.0000 </r>
       <r>    5.4348    1.0000 </r>
       <r>    6.3019    1.0000 </r>
       <r>    6.4005    1.0000 </r>
       <r>    6.6998    1.0000 </r>
       <r>    6.7673    1.0000 </r>
       <r>    7.0867    1.0000 </r>
       <r>    7.1429    1.0000 </r>
       <r>    7.6489    1.0000 </r>
       <r>    7.6936    1.0000 </r>
       <r>    8.5222    1.0000 </r>
       <r>    8.7248    1.0000 </r>
       <r>    8.8205    1.0000 </r>
       <r>    8.8984    1.0000 </r>
       <r>    8.9954    1.0000 </r>
       <r>    9.7487    0.3207 </r>
       <r>    9.9009   -0.0227 </r>
       <r>   10.0140   -0.0257 </r>
       <r>   10.0784   -0.0120 </r>
       <r>   10.1840   -0.0018 </r>
       <r>   10.3453   -0.0000 </r>
       <r>   10.4237   -0.0000 </r>
       <r>   10.6870   -0.0000 </r>
       <r>   10.7805   -0.0000 </r>
       <r>   10.8994   -0.0000 </r>
       <r>   11.3585   -0.0000 </r>
       <r>   11.4125   -0.0000 </r>
       <r>   11.4548   -0.0000 </r>
       <r>   11.8224   -0.0000 </r>
       <r>   11.9349   -0.0000 </r>
       <r>   12.0377   -0.0000 </r>
       <r>   12.4077   -0.0000 </r>
       <r>   12.4312   -0.0000 </r>
       <r>   12.5091   -0.0000 </r>
       <r>   12.5520   -0.0000 </r>
       <r>   12.7911   -0.0000 </r>
       <r>   12.8102   -0.0000 </r>
       <r>   13.8659   -0.0000 </r>
       <r>   14.1653   -0.0000 </r>
       <r>   14.2592   -0.0000 </r>
       <r>   14.3293   -0.0000 </r>
      </set>
      <set comment="kpoint 121">
       <r>   -1.7296    1.0000 </r>
       <r>   -1.4428    1.0000 </r>
       <r>   -0.8939    1.0000 </r>
       <r>   -0.1161    1.0000 </r>
       <r>   -0.0271    1.0000 </r>
       <r>    1.2379    1.0000 </r>
       <r>    1.3200    1.0000 </r>
       <r>    1.5478    1.0000 </r>
       <r>    1.7774    1.0000 </r>
       <r>    1.8894    1.0000 </r>
       <r>    2.1096    1.0000 </r>
       <r>    3.1246    1.0000 </r>
       <r>    3.6272    1.0000 </r>
       <r>    3.7076    1.0000 </r>
       <r>    3.9730    1.0000 </r>
       <r>    4.3633    1.0000 </r>
       <r>    4.4174    1.0000 </r>
       <r>    4.4860    1.0000 </r>
       <r>    4.6631    1.0000 </r>
       <r>    4.7491    1.0000 </r>
       <r>    4.9525    1.0000 </r>
       <r>    5.0614    1.0000 </r>
       <r>    5.1621    1.0000 </r>
       <r>    5.2717    1.0000 </r>
       <r>    5.4161    1.0000 </r>
       <r>    6.3162    1.0000 </r>
       <r>    6.3903    1.0000 </r>
       <r>    6.7046    1.0000 </r>
       <r>    6.7645    1.0000 </r>
       <r>    7.1207    1.0000 </r>
       <r>    7.1602    1.0000 </r>
       <r>    7.6305    1.0000 </r>
       <r>    7.6715    1.0000 </r>
       <r>    8.5164    1.0000 </r>
       <r>    8.7280    1.0000 </r>
       <r>    8.8556    1.0000 </r>
       <r>    8.8884    1.0000 </r>
       <r>    8.9555    1.0000 </r>
       <r>    9.7573    0.2877 </r>
       <r>    9.8468    0.0374 </r>
       <r>   10.0140   -0.0257 </r>
       <r>   10.0659   -0.0143 </r>
       <r>   10.2330   -0.0006 </r>
       <r>   10.3882   -0.0000 </r>
       <r>   10.4348   -0.0000 </r>
       <r>   10.6792   -0.0000 </r>
       <r>   10.7750   -0.0000 </r>
       <r>   10.8868   -0.0000 </r>
       <r>   11.3384   -0.0000 </r>
       <r>   11.4024   -0.0000 </r>
       <r>   11.4611   -0.0000 </r>
       <r>   11.8669   -0.0000 </r>
       <r>   11.9235   -0.0000 </r>
       <r>   12.0204   -0.0000 </r>
       <r>   12.4297   -0.0000 </r>
       <r>   12.4634   -0.0000 </r>
       <r>   12.5061   -0.0000 </r>
       <r>   12.5582   -0.0000 </r>
       <r>   12.7499   -0.0000 </r>
       <r>   12.7941   -0.0000 </r>
       <r>   13.8707   -0.0000 </r>
       <r>   14.1716   -0.0000 </r>
       <r>   14.2291   -0.0000 </r>
       <r>   14.2873   -0.0000 </r>
      </set>
      <set comment="kpoint 122">
       <r>   -1.7284    1.0000 </r>
       <r>   -1.4474    1.0000 </r>
       <r>   -0.8814    1.0000 </r>
       <r>   -0.2001    1.0000 </r>
       <r>    0.0659    1.0000 </r>
       <r>    1.1319    1.0000 </r>
       <r>    1.3986    1.0000 </r>
       <r>    1.5384    1.0000 </r>
       <r>    1.7446    1.0000 </r>
       <r>    1.9491    1.0000 </r>
       <r>    2.1231    1.0000 </r>
       <r>    3.1409    1.0000 </r>
       <r>    3.5133    1.0000 </r>
       <r>    3.8108    1.0000 </r>
       <r>    3.9487    1.0000 </r>
       <r>    4.2929    1.0000 </r>
       <r>    4.4018    1.0000 </r>
       <r>    4.5541    1.0000 </r>
       <r>    4.6166    1.0000 </r>
       <r>    4.8364    1.0000 </r>
       <r>    4.8857    1.0000 </r>
       <r>    5.0805    1.0000 </r>
       <r>    5.1159    1.0000 </r>
       <r>    5.3487    1.0000 </r>
       <r>    5.4322    1.0000 </r>
       <r>    6.3101    1.0000 </r>
       <r>    6.3835    1.0000 </r>
       <r>    6.6663    1.0000 </r>
       <r>    6.7977    1.0000 </r>
       <r>    7.0954    1.0000 </r>
       <r>    7.1807    1.0000 </r>
       <r>    7.6127    1.0000 </r>
       <r>    7.7091    1.0000 </r>
       <r>    8.5206    1.0000 </r>
       <r>    8.6879    1.0000 </r>
       <r>    8.7137    1.0000 </r>
       <r>    8.9446    1.0000 </r>
       <r>    9.0567    1.0000 </r>
       <r>    9.6738    0.6311 </r>
       <r>    9.9482   -0.0354 </r>
       <r>   10.0196   -0.0244 </r>
       <r>   10.1206   -0.0062 </r>
       <r>   10.1684   -0.0025 </r>
       <r>   10.3561   -0.0000 </r>
       <r>   10.4625   -0.0000 </r>
       <r>   10.6480   -0.0000 </r>
       <r>   10.7318   -0.0000 </r>
       <r>   10.9876   -0.0000 </r>
       <r>   11.3354   -0.0000 </r>
       <r>   11.3956   -0.0000 </r>
       <r>   11.4591   -0.0000 </r>
       <r>   11.7878   -0.0000 </r>
       <r>   11.9027   -0.0000 </r>
       <r>   12.1088   -0.0000 </r>
       <r>   12.4269   -0.0000 </r>
       <r>   12.4523   -0.0000 </r>
       <r>   12.4703   -0.0000 </r>
       <r>   12.5842   -0.0000 </r>
       <r>   12.7717   -0.0000 </r>
       <r>   12.7825   -0.0000 </r>
       <r>   13.8697   -0.0000 </r>
       <r>   14.1486   -0.0000 </r>
       <r>   14.1836   -0.0000 </r>
       <r>   14.3297   -0.0000 </r>
      </set>
      <set comment="kpoint 123">
       <r>   -1.7258    1.0000 </r>
       <r>   -1.4506    1.0000 </r>
       <r>   -0.8885    1.0000 </r>
       <r>   -0.1456    1.0000 </r>
       <r>    0.0103    1.0000 </r>
       <r>    1.1995    1.0000 </r>
       <r>    1.3235    1.0000 </r>
       <r>    1.5754    1.0000 </r>
       <r>    1.7428    1.0000 </r>
       <r>    1.9166    1.0000 </r>
       <r>    2.1164    1.0000 </r>
       <r>    3.1477    1.0000 </r>
       <r>    3.5940    1.0000 </r>
       <r>    3.7253    1.0000 </r>
       <r>    3.9559    1.0000 </r>
       <r>    4.3599    1.0000 </r>
       <r>    4.4038    1.0000 </r>
       <r>    4.5183    1.0000 </r>
       <r>    4.6595    1.0000 </r>
       <r>    4.7843    1.0000 </r>
       <r>    4.9108    1.0000 </r>
       <r>    5.0443    1.0000 </r>
       <r>    5.1410    1.0000 </r>
       <r>    5.2887    1.0000 </r>
       <r>    5.4397    1.0000 </r>
       <r>    6.3100    1.0000 </r>
       <r>    6.3921    1.0000 </r>
       <r>    6.7012    1.0000 </r>
       <r>    6.7734    1.0000 </r>
       <r>    7.1113    1.0000 </r>
       <r>    7.1629    1.0000 </r>
       <r>    7.6347    1.0000 </r>
       <r>    7.6846    1.0000 </r>
       <r>    8.5173    1.0000 </r>
       <r>    8.7242    1.0000 </r>
       <r>    8.8089    1.0000 </r>
       <r>    8.8914    1.0000 </r>
       <r>    8.9800    1.0000 </r>
       <r>    9.7369    0.3678 </r>
       <r>    9.8882   -0.0139 </r>
       <r>   10.0212   -0.0240 </r>
       <r>   10.1117   -0.0072 </r>
       <r>   10.1982   -0.0014 </r>
       <r>   10.3604   -0.0000 </r>
       <r>   10.4415   -0.0000 </r>
       <r>   10.6710   -0.0000 </r>
       <r>   10.7714   -0.0000 </r>
       <r>   10.9109   -0.0000 </r>
       <r>   11.3544   -0.0000 </r>
       <r>   11.3917   -0.0000 </r>
       <r>   11.4440   -0.0000 </r>
       <r>   11.8666   -0.0000 </r>
       <r>   11.8955   -0.0000 </r>
       <r>   12.0453   -0.0000 </r>
       <r>   12.4269   -0.0000 </r>
       <r>   12.4539   -0.0000 </r>
       <r>   12.5097   -0.0000 </r>
       <r>   12.5621   -0.0000 </r>
       <r>   12.7537   -0.0000 </r>
       <r>   12.7704   -0.0000 </r>
       <r>   13.8709   -0.0000 </r>
       <r>   14.1611   -0.0000 </r>
       <r>   14.2150   -0.0000 </r>
       <r>   14.3071   -0.0000 </r>
      </set>
      <set comment="kpoint 124">
       <r>   -1.7208    1.0000 </r>
       <r>   -1.4653    1.0000 </r>
       <r>   -0.8742    1.0000 </r>
       <r>   -0.1255    1.0000 </r>
       <r>   -0.0060    1.0000 </r>
       <r>    1.1767    1.0000 </r>
       <r>    1.3065    1.0000 </r>
       <r>    1.5557    1.0000 </r>
       <r>    1.7617    1.0000 </r>
       <r>    1.9535    1.0000 </r>
       <r>    2.1167    1.0000 </r>
       <r>    3.1567    1.0000 </r>
       <r>    3.5956    1.0000 </r>
       <r>    3.7216    1.0000 </r>
       <r>    3.9442    1.0000 </r>
       <r>    4.3652    1.0000 </r>
       <r>    4.4031    1.0000 </r>
       <r>    4.4733    1.0000 </r>
       <r>    4.6595    1.0000 </r>
       <r>    4.7872    1.0000 </r>
       <r>    4.9325    1.0000 </r>
       <r>    5.0961    1.0000 </r>
       <r>    5.1498    1.0000 </r>
       <r>    5.2703    1.0000 </r>
       <r>    5.4285    1.0000 </r>
       <r>    6.3150    1.0000 </r>
       <r>    6.3870    1.0000 </r>
       <r>    6.7018    1.0000 </r>
       <r>    6.7698    1.0000 </r>
       <r>    7.0825    1.0000 </r>
       <r>    7.1381    1.0000 </r>
       <r>    7.6503    1.0000 </r>
       <r>    7.6969    1.0000 </r>
       <r>    8.5220    1.0000 </r>
       <r>    8.7089    1.0000 </r>
       <r>    8.8188    1.0000 </r>
       <r>    8.8928    1.0000 </r>
       <r>    8.9999    1.0000 </r>
       <r>    9.7577    0.2863 </r>
       <r>    9.8994   -0.0218 </r>
       <r>   10.0048   -0.0277 </r>
       <r>   10.1054   -0.0080 </r>
       <r>   10.1922   -0.0015 </r>
       <r>   10.3716   -0.0000 </r>
       <r>   10.4287   -0.0000 </r>
       <r>   10.6681   -0.0000 </r>
       <r>   10.7737   -0.0000 </r>
       <r>   10.9063   -0.0000 </r>
       <r>   11.3157   -0.0000 </r>
       <r>   11.4115   -0.0000 </r>
       <r>   11.4492   -0.0000 </r>
       <r>   11.8306   -0.0000 </r>
       <r>   11.9211   -0.0000 </r>
       <r>   12.0469   -0.0000 </r>
       <r>   12.4300   -0.0000 </r>
       <r>   12.4372   -0.0000 </r>
       <r>   12.5021   -0.0000 </r>
       <r>   12.5618   -0.0000 </r>
       <r>   12.7768   -0.0000 </r>
       <r>   12.7960   -0.0000 </r>
       <r>   13.8743   -0.0000 </r>
       <r>   14.2014   -0.0000 </r>
       <r>   14.2188   -0.0000 </r>
       <r>   14.3343   -0.0000 </r>
      </set>
      <set comment="kpoint 125">
       <r>   -1.7257    1.0000 </r>
       <r>   -1.4540    1.0000 </r>
       <r>   -0.8847    1.0000 </r>
       <r>   -0.0980    1.0000 </r>
       <r>   -0.0395    1.0000 </r>
       <r>    1.2283    1.0000 </r>
       <r>    1.2994    1.0000 </r>
       <r>    1.5587    1.0000 </r>
       <r>    1.8171    1.0000 </r>
       <r>    1.8463    1.0000 </r>
       <r>    2.1159    1.0000 </r>
       <r>    3.1411    1.0000 </r>
       <r>    3.6372    1.0000 </r>
       <r>    3.7024    1.0000 </r>
       <r>    3.9494    1.0000 </r>
       <r>    4.3771    1.0000 </r>
       <r>    4.4277    1.0000 </r>
       <r>    4.4582    1.0000 </r>
       <r>    4.6825    1.0000 </r>
       <r>    4.7500    1.0000 </r>
       <r>    4.9857    1.0000 </r>
       <r>    5.0172    1.0000 </r>
       <r>    5.1930    1.0000 </r>
       <r>    5.2378    1.0000 </r>
       <r>    5.4348    1.0000 </r>
       <r>    6.3110    1.0000 </r>
       <r>    6.3993    1.0000 </r>
       <r>    6.7232    1.0000 </r>
       <r>    6.7451    1.0000 </r>
       <r>    7.1248    1.0000 </r>
       <r>    7.1282    1.0000 </r>
       <r>    7.6544    1.0000 </r>
       <r>    7.6615    1.0000 </r>
       <r>    8.5211    1.0000 </r>
       <r>    8.7550    1.0000 </r>
       <r>    8.8270    1.0000 </r>
       <r>    8.8691    1.0000 </r>
       <r>    8.9518    1.0000 </r>
       <r>    9.7812    0.2028 </r>
       <r>    9.8331    0.0632 </r>
       <r>   10.0137   -0.0257 </r>
       <r>   10.1027   -0.0083 </r>
       <r>   10.2121   -0.0010 </r>
       <r>   10.3921   -0.0000 </r>
       <r>   10.4174   -0.0000 </r>
       <r>   10.6715   -0.0000 </r>
       <r>   10.8140   -0.0000 </r>
       <r>   10.8635   -0.0000 </r>
       <r>   11.3484   -0.0000 </r>
       <r>   11.3998   -0.0000 </r>
       <r>   11.4424   -0.0000 </r>
       <r>   11.8646   -0.0000 </r>
       <r>   11.9471   -0.0000 </r>
       <r>   11.9935   -0.0000 </r>
       <r>   12.4219   -0.0000 </r>
       <r>   12.4466   -0.0000 </r>
       <r>   12.5338   -0.0000 </r>
       <r>   12.5615   -0.0000 </r>
       <r>   12.7737   -0.0000 </r>
       <r>   12.7870   -0.0000 </r>
       <r>   13.8864   -0.0000 </r>
       <r>   14.1757   -0.0000 </r>
       <r>   14.2287   -0.0000 </r>
       <r>   14.2440   -0.0000 </r>
      </set>
      <set comment="kpoint 126">
       <r>   -1.7349    1.0000 </r>
       <r>   -1.4452    1.0000 </r>
       <r>   -0.8673    1.0000 </r>
       <r>   -0.1521    1.0000 </r>
       <r>   -0.0067    1.0000 </r>
       <r>    1.1969    1.0000 </r>
       <r>    1.3116    1.0000 </r>
       <r>    1.5637    1.0000 </r>
       <r>    1.7737    1.0000 </r>
       <r>    1.9165    1.0000 </r>
       <r>    2.1240    1.0000 </r>
       <r>    3.1451    1.0000 </r>
       <r>    3.5929    1.0000 </r>
       <r>    3.7468    1.0000 </r>
       <r>    3.9321    1.0000 </r>
       <r>    4.3601    1.0000 </r>
       <r>    4.4224    1.0000 </r>
       <r>    4.4896    1.0000 </r>
       <r>    4.6250    1.0000 </r>
       <r>    4.7551    1.0000 </r>
       <r>    4.9718    1.0000 </r>
       <r>    5.0943    1.0000 </r>
       <r>    5.1453    1.0000 </r>
       <r>    5.2948    1.0000 </r>
       <r>    5.4119    1.0000 </r>
       <r>    6.3141    1.0000 </r>
       <r>    6.3975    1.0000 </r>
       <r>    6.6771    1.0000 </r>
       <r>    6.7578    1.0000 </r>
       <r>    7.0940    1.0000 </r>
       <r>    7.1504    1.0000 </r>
       <r>    7.6432    1.0000 </r>
       <r>    7.7011    1.0000 </r>
       <r>    8.5281    1.0000 </r>
       <r>    8.7171    1.0000 </r>
       <r>    8.7758    1.0000 </r>
       <r>    8.9107    1.0000 </r>
       <r>    9.0388    1.0000 </r>
       <r>    9.7312    0.3912 </r>
       <r>    9.8840   -0.0103 </r>
       <r>    9.9681   -0.0344 </r>
       <r>   10.0810   -0.0116 </r>
       <r>   10.2384   -0.0005 </r>
       <r>   10.3619   -0.0000 </r>
       <r>   10.4305   -0.0000 </r>
       <r>   10.7048   -0.0000 </r>
       <r>   10.7699   -0.0000 </r>
       <r>   10.9001   -0.0000 </r>
       <r>   11.3230   -0.0000 </r>
       <r>   11.4268   -0.0000 </r>
       <r>   11.4608   -0.0000 </r>
       <r>   11.8149   -0.0000 </r>
       <r>   11.9187   -0.0000 </r>
       <r>   12.0676   -0.0000 </r>
       <r>   12.4174   -0.0000 </r>
       <r>   12.4400   -0.0000 </r>
       <r>   12.4864   -0.0000 </r>
       <r>   12.5532   -0.0000 </r>
       <r>   12.7833   -0.0000 </r>
       <r>   12.8075   -0.0000 </r>
       <r>   13.8596   -0.0000 </r>
       <r>   14.1745   -0.0000 </r>
       <r>   14.1992   -0.0000 </r>
       <r>   14.3623   -0.0000 </r>
      </set>
      <set comment="kpoint 127">
       <r>   -1.7348    1.0000 </r>
       <r>   -1.4320    1.0000 </r>
       <r>   -0.9000    1.0000 </r>
       <r>   -0.1450    1.0000 </r>
       <r>    0.0085    1.0000 </r>
       <r>    1.2014    1.0000 </r>
       <r>    1.3259    1.0000 </r>
       <r>    1.5656    1.0000 </r>
       <r>    1.7621    1.0000 </r>
       <r>    1.9043    1.0000 </r>
       <r>    2.1229    1.0000 </r>
       <r>    3.1347    1.0000 </r>
       <r>    3.6037    1.0000 </r>
       <r>    3.7302    1.0000 </r>
       <r>    3.9716    1.0000 </r>
       <r>    4.3555    1.0000 </r>
       <r>    4.4081    1.0000 </r>
       <r>    4.5145    1.0000 </r>
       <r>    4.6002    1.0000 </r>
       <r>    4.7855    1.0000 </r>
       <r>    4.9447    1.0000 </r>
       <r>    5.0458    1.0000 </r>
       <r>    5.1414    1.0000 </r>
       <r>    5.2835    1.0000 </r>
       <r>    5.4430    1.0000 </r>
       <r>    6.3091    1.0000 </r>
       <r>    6.3976    1.0000 </r>
       <r>    6.6906    1.0000 </r>
       <r>    6.7707    1.0000 </r>
       <r>    7.1354    1.0000 </r>
       <r>    7.1726    1.0000 </r>
       <r>    7.6216    1.0000 </r>
       <r>    7.6774    1.0000 </r>
       <r>    8.5158    1.0000 </r>
       <r>    8.6817    1.0000 </r>
       <r>    8.8532    1.0000 </r>
       <r>    8.9111    1.0000 </r>
       <r>    8.9869    1.0000 </r>
       <r>    9.7262    0.4120 </r>
       <r>    9.8636    0.0121 </r>
       <r>    9.9974   -0.0294 </r>
       <r>   10.1418   -0.0042 </r>
       <r>   10.1971   -0.0014 </r>
       <r>   10.3640   -0.0000 </r>
       <r>   10.4249   -0.0000 </r>
       <r>   10.6789   -0.0000 </r>
       <r>   10.7720   -0.0000 </r>
       <r>   10.9063   -0.0000 </r>
       <r>   11.3428   -0.0000 </r>
       <r>   11.3922   -0.0000 </r>
       <r>   11.4733   -0.0000 </r>
       <r>   11.8478   -0.0000 </r>
       <r>   11.9110   -0.0000 </r>
       <r>   12.0364   -0.0000 </r>
       <r>   12.4248   -0.0000 </r>
       <r>   12.4517   -0.0000 </r>
       <r>   12.5169   -0.0000 </r>
       <r>   12.5655   -0.0000 </r>
       <r>   12.7445   -0.0000 </r>
       <r>   12.7885   -0.0000 </r>
       <r>   13.8702   -0.0000 </r>
       <r>   14.1832   -0.0000 </r>
       <r>   14.2238   -0.0000 </r>
       <r>   14.3246   -0.0000 </r>
      </set>
      <set comment="kpoint 128">
       <r>   -1.7345    1.0000 </r>
       <r>   -1.4361    1.0000 </r>
       <r>   -0.8871    1.0000 </r>
       <r>   -0.1992    1.0000 </r>
       <r>    0.0658    1.0000 </r>
       <r>    1.1171    1.0000 </r>
       <r>    1.4085    1.0000 </r>
       <r>    1.5551    1.0000 </r>
       <r>    1.7304    1.0000 </r>
       <r>    1.9577    1.0000 </r>
       <r>    2.1124    1.0000 </r>
       <r>    3.1444    1.0000 </r>
       <r>    3.5370    1.0000 </r>
       <r>    3.8010    1.0000 </r>
       <r>    3.9498    1.0000 </r>
       <r>    4.2945    1.0000 </r>
       <r>    4.3858    1.0000 </r>
       <r>    4.5446    1.0000 </r>
       <r>    4.5921    1.0000 </r>
       <r>    4.8382    1.0000 </r>
       <r>    4.9181    1.0000 </r>
       <r>    5.0765    1.0000 </r>
       <r>    5.1267    1.0000 </r>
       <r>    5.3425    1.0000 </r>
       <r>    5.4287    1.0000 </r>
       <r>    6.2949    1.0000 </r>
       <r>    6.4040    1.0000 </r>
       <r>    6.6608    1.0000 </r>
       <r>    6.7949    1.0000 </r>
       <r>    7.1051    1.0000 </r>
       <r>    7.1849    1.0000 </r>
       <r>    7.6087    1.0000 </r>
       <r>    7.7072    1.0000 </r>
       <r>    8.5110    1.0000 </r>
       <r>    8.6278    1.0000 </r>
       <r>    8.7673    1.0000 </r>
       <r>    8.9562    1.0000 </r>
       <r>    9.0708    1.0000 </r>
       <r>    9.6758    0.6229 </r>
       <r>    9.9284   -0.0333 </r>
       <r>   10.0257   -0.0230 </r>
       <r>   10.0839   -0.0111 </r>
       <r>   10.2365   -0.0006 </r>
       <r>   10.3537   -0.0000 </r>
       <r>   10.4470   -0.0000 </r>
       <r>   10.6515   -0.0000 </r>
       <r>   10.7160   -0.0000 </r>
       <r>   10.9824   -0.0000 </r>
       <r>   11.3023   -0.0000 </r>
       <r>   11.4041   -0.0000 </r>
       <r>   11.4758   -0.0000 </r>
       <r>   11.7797   -0.0000 </r>
       <r>   11.9078   -0.0000 </r>
       <r>   12.1101   -0.0000 </r>
       <r>   12.4357   -0.0000 </r>
       <r>   12.4490   -0.0000 </r>
       <r>   12.4788   -0.0000 </r>
       <r>   12.5961   -0.0000 </r>
       <r>   12.7658   -0.0000 </r>
       <r>   12.7756   -0.0000 </r>
       <r>   13.8759   -0.0000 </r>
       <r>   14.1805   -0.0000 </r>
       <r>   14.2032   -0.0000 </r>
       <r>   14.3148   -0.0000 </r>
      </set>
     </set>
    </set>
   </array>
  </eigenvalues>
  <separator name="orbital magnetization" >
   <v name="MAGDIPOLOUT">      0.00000000      0.00000000      0.00000000</v>
  </separator>
  <dos>
   <i name="efermi">      9.70523448 </i>
   <total>
    <array>
     <dimension dim="1">gridpoints</dimension>
     <dimension dim="2">spin</dimension>
     <field>energy</field>
     <field>total</field>
     <field>integrated</field>
     <set>
      <set comment="spin 1">
       <r>    -4.5441     0.0000     0.0000 </r>
       <r>    -4.4722     0.0000     0.0000 </r>
       <r>    -4.4004     0.0000     0.0000 </r>
       <r>    -4.3285     0.0000     0.0000 </r>
       <r>    -4.2567     0.0000     0.0000 </r>
       <r>    -4.1849    -0.0000    -0.0000 </r>
       <r>    -4.1130    -0.0000    -0.0000 </r>
       <r>    -4.0412    -0.0000    -0.0000 </r>
       <r>    -3.9693    -0.0000    -0.0000 </r>
       <r>    -3.8975    -0.0000    -0.0000 </r>
       <r>    -3.8256    -0.0000    -0.0000 </r>
       <r>    -3.7538    -0.0000    -0.0000 </r>
       <r>    -3.6820    -0.0000    -0.0000 </r>
       <r>    -3.6101    -0.0000    -0.0000 </r>
       <r>    -3.5383    -0.0000    -0.0000 </r>
       <r>    -3.4664    -0.0000    -0.0000 </r>
       <r>    -3.3946    -0.0000    -0.0000 </r>
       <r>    -3.3228    -0.0000    -0.0000 </r>
       <r>    -3.2509    -0.0000    -0.0000 </r>
       <r>    -3.1791    -0.0000    -0.0000 </r>
       <r>    -3.1072    -0.0002    -0.0000 </r>
       <r>    -3.0354    -0.0011    -0.0001 </r>
       <r>    -2.9635    -0.0045    -0.0004 </r>
       <r>    -2.8917    -0.0132    -0.0014 </r>
       <r>    -2.8199    -0.0269    -0.0033 </r>
       <r>    -2.7480    -0.0302    -0.0055 </r>
       <r>    -2.6762     0.0160    -0.0043 </r>
       <r>    -2.6043     0.1622     0.0073 </r>
       <r>    -2.5325     0.4301     0.0382 </r>
       <r>    -2.4606     0.7740     0.0938 </r>
       <r>    -2.3888     1.0917     0.1723 </r>
       <r>    -2.3170     1.3116     0.2665 </r>
       <r>    -2.2451     1.4716     0.3722 </r>
       <r>    -2.1733     1.6760     0.4926 </r>
       <r>    -2.1014     1.9573     0.6332 </r>
       <r>    -2.0296     2.1947     0.7909 </r>
       <r>    -1.9578     2.2287     0.9510 </r>
       <r>    -1.8859     2.1015     1.1020 </r>
       <r>    -1.8141     2.0967     1.2526 </r>
       <r>    -1.7422     2.4265     1.4270 </r>
       <r>    -1.6704     2.9303     1.6375 </r>
       <r>    -1.5985     3.1863     1.8664 </r>
       <r>    -1.5267     2.9614     2.0792 </r>
       <r>    -1.4549     2.5237     2.2605 </r>
       <r>    -1.3830     2.3828     2.4316 </r>
       <r>    -1.3112     2.7109     2.6264 </r>
       <r>    -1.2393     3.1834     2.8551 </r>
       <r>    -1.1675     3.4020     3.0995 </r>
       <r>    -1.0956     3.3394     3.3394 </r>
       <r>    -1.0238     3.3069     3.5770 </r>
       <r>    -0.9520     3.5107     3.8292 </r>
       <r>    -0.8801     3.7954     4.1019 </r>
       <r>    -0.8083     3.9016     4.3822 </r>
       <r>    -0.7364     3.7728     4.6532 </r>
       <r>    -0.6646     3.5191     4.9061 </r>
       <r>    -0.5928     3.2918     5.1425 </r>
       <r>    -0.5209     3.2903     5.3789 </r>
       <r>    -0.4491     3.7062     5.6452 </r>
       <r>    -0.3772     4.4661     5.9660 </r>
       <r>    -0.3054     5.1062     6.3329 </r>
       <r>    -0.2335     5.1694     6.7043 </r>
       <r>    -0.1617     4.7164     7.0431 </r>
       <r>    -0.0899     4.1851     7.3438 </r>
       <r>    -0.0180     3.8161     7.6179 </r>
       <r>     0.0538     3.5287     7.8714 </r>
       <r>     0.1257     3.3489     8.1120 </r>
       <r>     0.1975     3.6326     8.3730 </r>
       <r>     0.2694     4.6148     8.7045 </r>
       <r>     0.3412     5.8256     9.1231 </r>
       <r>     0.4130     6.3326     9.5780 </r>
       <r>     0.4849     5.7326     9.9899 </r>
       <r>     0.5567     4.6433    10.3234 </r>
       <r>     0.6286     4.0440    10.6140 </r>
       <r>     0.7004     4.2946    10.9225 </r>
       <r>     0.7723     4.9177    11.2758 </r>
       <r>     0.8441     5.2272    11.6513 </r>
       <r>     0.9159     5.0483    12.0140 </r>
       <r>     0.9878     4.8410    12.3618 </r>
       <r>     1.0596     5.1204    12.7297 </r>
       <r>     1.1315     5.7586    13.1434 </r>
       <r>     1.2033     6.0493    13.5780 </r>
       <r>     1.2751     5.5557    13.9771 </r>
       <r>     1.3470     4.6561    14.3116 </r>
       <r>     1.4188     4.1705    14.6112 </r>
       <r>     1.4907     4.6258    14.9436 </r>
       <r>     1.5625     5.8524    15.3640 </r>
       <r>     1.6344     7.1470    15.8775 </r>
       <r>     1.7062     7.7921    16.4373 </r>
       <r>     1.7780     7.4666    16.9737 </r>
       <r>     1.8499     6.3723    17.4315 </r>
       <r>     1.9217     5.1463    17.8012 </r>
       <r>     1.9936     4.4858    18.1235 </r>
       <r>     2.0654     4.5974    18.4538 </r>
       <r>     2.1373     5.0423    18.8160 </r>
       <r>     2.2091     5.3404    19.1997 </r>
       <r>     2.2809     5.6306    19.6042 </r>
       <r>     2.3528     6.3498    20.0604 </r>
       <r>     2.4246     7.3538    20.5887 </r>
       <r>     2.4965     7.9018    21.1564 </r>
       <r>     2.5683     7.5784    21.7008 </r>
       <r>     2.6401     6.8185    22.1907 </r>
       <r>     2.7120     6.3775    22.6488 </r>
       <r>     2.7838     6.4625    23.1131 </r>
       <r>     2.8557     6.5889    23.5865 </r>
       <r>     2.9275     6.3600    24.0434 </r>
       <r>     2.9994     6.1102    24.4824 </r>
       <r>     3.0712     6.3904    24.9415 </r>
       <r>     3.1430     7.0154    25.4455 </r>
       <r>     3.2149     7.2105    25.9635 </r>
       <r>     3.2867     6.7019    26.4450 </r>
       <r>     3.3586     6.1245    26.8850 </r>
       <r>     3.4304     6.2191    27.3318 </r>
       <r>     3.5023     6.9802    27.8332 </r>
       <r>     3.5741     7.7459    28.3897 </r>
       <r>     3.6459     7.9214    28.9588 </r>
       <r>     3.7178     7.4652    29.4951 </r>
       <r>     3.7896     6.8630    29.9882 </r>
       <r>     3.8615     6.8078    30.4773 </r>
       <r>     3.9333     7.5851    31.0222 </r>
       <r>     4.0051     8.5364    31.6355 </r>
       <r>     4.0770     8.5900    32.2526 </r>
       <r>     4.1488     7.6369    32.8012 </r>
       <r>     4.2207     6.8975    33.2968 </r>
       <r>     4.2925     7.4917    33.8350 </r>
       <r>     4.3644     8.9861    34.4806 </r>
       <r>     4.4362     9.8189    35.1860 </r>
       <r>     4.5080     9.0009    35.8326 </r>
       <r>     4.5799     7.0732    36.3408 </r>
       <r>     4.6517     5.4633    36.7333 </r>
       <r>     4.7236     5.1116    37.1005 </r>
       <r>     4.7954     5.8474    37.5206 </r>
       <r>     4.8673     7.0053    38.0239 </r>
       <r>     4.9391     8.2283    38.6150 </r>
       <r>     5.0109     9.3967    39.2901 </r>
       <r>     5.0828    10.1526    40.0195 </r>
       <r>     5.1546    10.0133    40.7388 </r>
       <r>     5.2265     8.9867    41.3845 </r>
       <r>     5.2983     7.8397    41.9477 </r>
       <r>     5.3701     7.5450    42.4897 </r>
       <r>     5.4420     8.2878    43.0851 </r>
       <r>     5.5138     9.1477    43.7423 </r>
       <r>     5.5857     9.0778    44.3945 </r>
       <r>     5.6575     8.0462    44.9726 </r>
       <r>     5.7294     6.8689    45.4660 </r>
       <r>     5.8012     6.2123    45.9123 </r>
       <r>     5.8730     6.2313    46.3600 </r>
       <r>     5.9449     6.9190    46.8571 </r>
       <r>     6.0167     8.1875    47.4453 </r>
       <r>     6.0886     9.6279    48.1370 </r>
       <r>     6.1604    10.6719    48.9037 </r>
       <r>     6.2323    11.0592    49.6982 </r>
       <r>     6.3041    10.9500    50.4849 </r>
       <r>     6.3759    10.6351    51.2489 </r>
       <r>     6.4478    10.1841    51.9806 </r>
       <r>     6.5196     9.3816    52.6545 </r>
       <r>     6.5915     8.2025    53.2438 </r>
       <r>     6.6633     7.3241    53.7700 </r>
       <r>     6.7352     7.6732    54.3213 </r>
       <r>     6.8070     9.2150    54.9833 </r>
       <r>     6.8788    10.6573    55.7489 </r>
       <r>     6.9507    10.7769    56.5232 </r>
       <r>     7.0225     9.7230    57.2217 </r>
       <r>     7.0944     8.5533    57.8362 </r>
       <r>     7.1662     7.8571    58.4007 </r>
       <r>     7.2380     7.5647    58.9441 </r>
       <r>     7.3099     7.7594    59.5016 </r>
       <r>     7.3817     8.6643    60.1240 </r>
       <r>     7.4536     9.8910    60.8346 </r>
       <r>     7.5254    10.5370    61.5916 </r>
       <r>     7.5973    10.0838    62.3161 </r>
       <r>     7.6691     8.7897    62.9475 </r>
       <r>     7.7409     7.4120    63.4800 </r>
       <r>     7.8128     6.7703    63.9664 </r>
       <r>     7.8846     7.2021    64.4838 </r>
       <r>     7.9565     8.2815    65.0788 </r>
       <r>     8.0283     9.2376    65.7425 </r>
       <r>     8.1002     9.6093    66.4328 </r>
       <r>     8.1720     9.5402    67.1182 </r>
       <r>     8.2438     9.4981    67.8006 </r>
       <r>     8.3157     9.6195    68.4916 </r>
       <r>     8.3875     9.6154    69.1824 </r>
       <r>     8.4594     9.4975    69.8648 </r>
       <r>     8.5312     9.8131    70.5698 </r>
       <r>     8.6030    10.8494    71.3492 </r>
       <r>     8.6749    12.0934    72.2180 </r>
       <r>     8.7467    12.7051    73.1308 </r>
       <r>     8.8186    12.2590    74.0115 </r>
       <r>     8.8904    10.9951    74.8014 </r>
       <r>     8.9623     9.5680    75.4888 </r>
       <r>     9.0341     8.5890    76.1058 </r>
       <r>     9.1059     8.2081    76.6955 </r>
       <r>     9.1778     7.9729    77.2683 </r>
       <r>     9.2496     7.2790    77.7913 </r>
       <r>     9.3215     6.1949    78.2363 </r>
       <r>     9.3933     5.5256    78.6333 </r>
       <r>     9.4652     5.7738    79.0481 </r>
       <r>     9.5370     6.5912    79.5216 </r>
       <r>     9.6088     7.6499    80.0712 </r>
       <r>     9.6807     9.2584    80.7363 </r>
       <r>     9.7525    11.5556    81.5665 </r>
       <r>     9.8244    13.8553    82.5619 </r>
       <r>     9.8962    15.2370    83.6566 </r>
       <r>     9.9680    15.2639    84.7532 </r>
       <r>    10.0399    14.1135    85.7671 </r>
       <r>    10.1117    12.4371    86.6606 </r>
       <r>    10.1836    10.9626    87.4482 </r>
       <r>    10.2554     9.9549    88.1634 </r>
       <r>    10.3273     9.0543    88.8139 </r>
       <r>    10.3991     7.7218    89.3686 </r>
       <r>    10.4709     6.0516    89.8034 </r>
       <r>    10.5428     5.1266    90.1717 </r>
       <r>    10.6146     6.1262    90.6118 </r>
       <r>    10.6865     9.0067    91.2589 </r>
       <r>    10.7583    12.3905    92.1490 </r>
       <r>    10.8302    14.6865    93.2041 </r>
       <r>    10.9020    15.0912    94.2883 </r>
       <r>    10.9738    13.7825    95.2785 </r>
       <r>    11.0457    11.6185    96.1132 </r>
       <r>    11.1175     9.6100    96.8036 </r>
       <r>    11.1894     8.3970    97.4068 </r>
       <r>    11.2612     8.1689    97.9937 </r>
       <r>    11.3330     8.8243    98.6277 </r>
       <r>    11.4049     9.8612    99.3361 </r>
       <r>    11.4767    10.4100   100.0840 </r>
       <r>    11.5486     9.9141   100.7962 </r>
       <r>    11.6204     8.8237   101.4301 </r>
       <r>    11.6923     8.3756   102.0319 </r>
       <r>    11.7641     9.5202   102.7158 </r>
       <r>    11.8359    11.9177   103.5720 </r>
       <r>    11.9078    13.9977   104.5776 </r>
       <r>    11.9796    14.3025   105.6052 </r>
       <r>    12.0515    12.8125   106.5256 </r>
       <r>    12.1233    10.7095   107.2950 </r>
       <r>    12.1952     9.1445   107.9520 </r>
       <r>    12.2670     8.6663   108.5746 </r>
       <r>    12.3388     9.4347   109.2524 </r>
       <r>    12.4107    11.2113   110.0579 </r>
       <r>    12.4825    13.0424   110.9949 </r>
       <r>    12.5544    13.6611   111.9763 </r>
       <r>    12.6262    12.6673   112.8863 </r>
       <r>    12.6981    10.8039   113.6625 </r>
       <r>    12.7699     8.9361   114.3045 </r>
       <r>    12.8417     7.5883   114.8497 </r>
       <r>    12.9136     7.3176   115.3754 </r>
       <r>    12.9854     8.4307   115.9811 </r>
       <r>    13.0573    10.4789   116.7339 </r>
       <r>    13.1291    12.6905   117.6456 </r>
       <r>    13.2009    14.4547   118.6841 </r>
       <r>    13.2728    15.1219   119.7704 </r>
       <r>    13.3446    14.2260   120.7925 </r>
       <r>    13.4165    12.3084   121.6767 </r>
       <r>    13.4883    10.6397   122.4411 </r>
       <r>    13.5602     9.7479   123.1414 </r>
       <r>    13.6320     9.0682   123.7929 </r>
       <r>    13.7038     8.2980   124.3891 </r>
       <r>    13.7757     8.0223   124.9654 </r>
       <r>    13.8475     8.4452   125.5721 </r>
       <r>    13.9194     8.5445   126.1860 </r>
       <r>    13.9912     7.3538   126.7143 </r>
       <r>    14.0631     5.3294   127.0972 </r>
       <r>    14.1349     3.6451   127.3590 </r>
       <r>    14.2067     2.7307   127.5552 </r>
       <r>    14.2786     2.1532   127.7099 </r>
       <r>    14.3504     1.4904   127.8170 </r>
       <r>    14.4223     0.7694   127.8722 </r>
       <r>    14.4941     0.2195   127.8880 </r>
       <r>    14.5659    -0.0484   127.8845 </r>
       <r>    14.6378    -0.0876   127.8782 </r>
       <r>    14.7096     0.0058   127.8787 </r>
       <r>    14.7815     0.1669   127.8907 </r>
       <r>    14.8533     0.3347   127.9147 </r>
       <r>    14.9252     0.4295   127.9456 </r>
       <r>    14.9970     0.3983   127.9742 </r>
       <r>    15.0688     0.2658   127.9933 </r>
       <r>    15.1407     0.1157   128.0016 </r>
       <r>    15.2125     0.0183   128.0029 </r>
       <r>    15.2844    -0.0156   128.0018 </r>
       <r>    15.3562    -0.0149   128.0007 </r>
       <r>    15.4281    -0.0070   128.0002 </r>
       <r>    15.4999    -0.0022   128.0000 </r>
       <r>    15.5717    -0.0005   128.0000 </r>
       <r>    15.6436    -0.0001   128.0000 </r>
       <r>    15.7154    -0.0000   128.0000 </r>
       <r>    15.7873    -0.0000   128.0000 </r>
       <r>    15.8591    -0.0000   128.0000 </r>
       <r>    15.9309    -0.0000   128.0000 </r>
       <r>    16.0028    -0.0000   128.0000 </r>
       <r>    16.0746    -0.0000   128.0000 </r>
       <r>    16.1465    -0.0000   128.0000 </r>
       <r>    16.2183    -0.0000   128.0000 </r>
       <r>    16.2902    -0.0000   128.0000 </r>
       <r>    16.3620     0.0000   128.0000 </r>
       <r>    16.4338     0.0000   128.0000 </r>
       <r>    16.5057     0.0000   128.0000 </r>
       <r>    16.5775     0.0000   128.0000 </r>
       <r>    16.6494     0.0000   128.0000 </r>
       <r>    16.7212     0.0000   128.0000 </r>
       <r>    16.7931     0.0000   128.0000 </r>
       <r>    16.8649     0.0000   128.0000 </r>
       <r>    16.9367     0.0000   128.0000 </r>
       <r>    17.0086     0.0000   128.0000 </r>
      </set>
     </set>
    </array>
   </total>
  </dos>
 </calculation>
 <structure name="finalpos" >
  <crystal>
   <varray name="basis" >
    <v>       0.00000000       5.77125000       5.77125000 </v>
    <v>       5.77125000       0.00000000       5.77125000 </v>
    <v>       5.77125000       5.77125000       0.00000000 </v>
   </varray>
   <i name="volume">    384.44981685 </i>
   <varray name="rec_basis" >
    <v>      -0.08663634       0.08663634       0.08663634 </v>
    <v>       0.08663634      -0.08663634       0.08663634 </v>
    <v>       0.08663634       0.08663634      -0.08663634 </v>
   </varray>
  </crystal>
  <varray name="positions" >
   <v>       0.00295478       0.98662491       0.01061011 </v>
   <v>       0.01472285       0.99586383       0.32576786 </v>
   <v>       0.99183540       0.99333907       0.66778231 </v>
   <v>       0.00023333       0.34702246       0.99022184 </v>
   <v>       0.00276798       0.32827286       0.34597602 </v>
   <v>       0.99562347       0.34493603       0.65529636 </v>
   <v>       0.01122320       0.66279566       0.98819181 </v>
   <v>       0.00309904       0.65419034       0.34476752 </v>
   <v>       0.98531156       0.67415572       0.66915223 </v>
   <v>       0.32462080       0.00254146       0.01305614 </v>
   <v>       0.34149982       0.00843898       0.32153378 </v>
   <v>       0.33867025       0.99048844       0.65946507 </v>
   <v>       0.33059539       0.32127270       0.01174555 </v>
   <v>       0.33372049       0.31907839       0.34086864 </v>
   <v>       0.32265425       0.33845475       0.67794605 </v>
   <v>       0.34779917       0.66341094       0.99143346 </v>
   <v>       0.33019647       0.66460301       0.32425856 </v>
   <v>       0.32693070       0.67865077       0.67094860 </v>
   <v>       0.67521957       0.98777945       0.99587503 </v>
   <v>       0.66108197       0.98882512       0.34034825 </v>
   <v>       0.66924235       0.00037965       0.67721166 </v>
   <v>       0.65651339       0.34116624       0.99300240 </v>
   <v>       0.66926255       0.32358260       0.32761499 </v>
   <v>       0.67342703       0.31860148       0.66895948 </v>
   <v>       0.65899594       0.67147533       0.01177935 </v>
   <v>       0.65298962       0.66600024       0.33828460 </v>
   <v>       0.65766974       0.67658787       0.65844463 </v>
  </varray>
 </structure>
</modeling>
