<?xml version="1.0" encoding="ISO-8859-1"?>
<modeling>
 <generator>
  <i name="program" type="string">vasp </i>
  <i name="version" type="string">5.3.5  </i>
  <i name="subversion" type="string">31Mar14 (build Jun 17 2014 14:04:22) complex                          parallel </i>
  <i name="platform" type="string">LinuxIfort </i>
  <i name="date" type="string">2025 12 23 </i>
  <i name="time" type="string">05:26:35 </i>
 </generator>
 <incar>
  <i type="string" name="SYSTEM"> Al Random Displacement</i>
  <i type="string" name="PREC">normal</i>
  <i type="string" name="ALGO"> Fast</i>
  <i type="int" name="IBRION">    -1</i>
  <i type="int" name="NSW">     0</i>
  <i name="ENCUT">    300.00000000</i>
  <i type="string" name="LREAL"> Auto</i>
  <i type="int" name="ISMEAR">     1</i>
  <i name="SIGMA">      0.20000000</i>
  <i type="logical" name="LWAVE"> F  </i>
  <i type="logical" name="LCHARG"> F  </i>
 </incar>
 <kpoints>
  <generation param="Monkhorst-Pack">
   <v type="int" name="divisions">       4        4        4 </v>
   <v name="usershift">      0.00000000       0.00000000       0.00000000 </v>
   <v name="genvec1">      0.25000000       0.00000000       0.00000000 </v>
   <v name="genvec2">      0.00000000       0.25000000       0.00000000 </v>
   <v name="genvec3">      0.00000000       0.00000000       0.25000000 </v>
   <v name="shift">      0.50000000       0.50000000       0.50000000 </v>
  </generation>
  <varray name="kpointlist" >
   <v>       0.12500000       0.12500000       0.12500000 </v>
   <v>       0.12500000       0.00000000       0.00000000 </v>
   <v>       0.00000000       0.00000000      -0.12500000 </v>
   <v>       0.00000000       0.12500000       0.00000000 </v>
   <v>       0.37500000       0.12500000       0.12500000 </v>
   <v>       0.12500000       0.37500000       0.12500000 </v>
   <v>       0.12500000       0.12500000       0.37500000 </v>
   <v>       0.12500000       0.00000000      -0.25000000 </v>
   <v>       0.37500000       0.25000000       0.25000000 </v>
   <v>       0.12500000      -0.25000000       0.00000000 </v>
   <v>       0.00000000       0.25000000      -0.12500000 </v>
   <v>       0.25000000       0.00000000      -0.12500000 </v>
   <v>      -0.25000000      -0.25000000      -0.37500000 </v>
   <v>       0.25000000       0.37500000       0.25000000 </v>
   <v>       0.00000000       0.12500000      -0.25000000 </v>
   <v>      -0.25000000       0.12500000       0.00000000 </v>
   <v>      -0.37500000       0.12500000       0.12500000 </v>
   <v>       0.12500000      -0.37500000       0.12500000 </v>
   <v>       0.12500000       0.12500000      -0.37500000 </v>
   <v>       0.12500000       0.00000000       0.50000000 </v>
   <v>      -0.37500000       0.50000000       0.50000000 </v>
   <v>       0.12500000       0.50000000       0.00000000 </v>
   <v>       0.00000000       0.50000000      -0.12500000 </v>
   <v>       0.50000000       0.00000000      -0.12500000 </v>
   <v>       0.50000000       0.50000000       0.37500000 </v>
   <v>       0.50000000      -0.37500000       0.50000000 </v>
   <v>       0.00000000       0.12500000       0.50000000 </v>
   <v>       0.50000000       0.12500000       0.00000000 </v>
   <v>      -0.12500000       0.12500000       0.12500000 </v>
   <v>       0.12500000      -0.12500000       0.12500000 </v>
   <v>       0.12500000       0.12500000      -0.12500000 </v>
   <v>       0.12500000       0.00000000       0.25000000 </v>
   <v>      -0.12500000      -0.25000000      -0.25000000 </v>
   <v>       0.12500000       0.25000000       0.00000000 </v>
   <v>       0.00000000      -0.25000000      -0.12500000 </v>
   <v>      -0.25000000       0.00000000      -0.12500000 </v>
   <v>       0.25000000       0.25000000       0.12500000 </v>
   <v>      -0.25000000      -0.12500000      -0.25000000 </v>
   <v>       0.00000000       0.12500000       0.25000000 </v>
   <v>       0.25000000       0.12500000       0.00000000 </v>
   <v>       0.37500000       0.37500000       0.12500000 </v>
   <v>       0.12500000       0.37500000       0.37500000 </v>
   <v>       0.37500000       0.12500000       0.37500000 </v>
   <v>       0.37500000       0.25000000       0.00000000 </v>
   <v>       0.37500000       0.00000000       0.25000000 </v>
   <v>       0.12500000      -0.25000000      -0.25000000 </v>
   <v>       0.25000000       0.25000000      -0.12500000 </v>
   <v>       0.00000000      -0.25000000      -0.37500000 </v>
   <v>      -0.25000000       0.00000000      -0.37500000 </v>
   <v>       0.25000000       0.37500000       0.00000000 </v>
   <v>      -0.25000000       0.12500000      -0.25000000 </v>
   <v>       0.00000000       0.37500000       0.25000000 </v>
   <v>      -0.37500000       0.37500000       0.12500000 </v>
   <v>       0.12500000      -0.37500000       0.37500000 </v>
   <v>       0.37500000       0.12500000      -0.37500000 </v>
   <v>       0.37500000       0.25000000      -0.25000000 </v>
   <v>      -0.37500000       0.25000000       0.50000000 </v>
   <v>       0.12500000       0.50000000      -0.25000000 </v>
   <v>       0.25000000       0.50000000      -0.12500000 </v>
   <v>       0.25000000      -0.25000000      -0.37500000 </v>
   <v>       0.50000000      -0.25000000       0.37500000 </v>
   <v>       0.50000000      -0.37500000       0.25000000 </v>
   <v>      -0.25000000       0.12500000       0.50000000 </v>
   <v>      -0.25000000       0.37500000       0.25000000 </v>
   <v>      -0.12500000       0.25000000       0.50000000 </v>
   <v>      -0.37500000       0.25000000      -0.25000000 </v>
   <v>       0.37500000       0.50000000      -0.25000000 </v>
   <v>       0.25000000       0.50000000      -0.37500000 </v>
   <v>       0.50000000      -0.25000000       0.12500000 </v>
   <v>       0.25000000      -0.25000000       0.37500000 </v>
   <v>       0.50000000      -0.12500000       0.25000000 </v>
   <v>      -0.25000000      -0.37500000       0.25000000 </v>
   <v>      -0.25000000       0.37500000       0.50000000 </v>
   <v>       0.37500000      -0.12500000      -0.37500000 </v>
   <v>      -0.37500000       0.37500000      -0.12500000 </v>
   <v>      -0.12500000      -0.37500000       0.37500000 </v>
   <v>      -0.12500000       0.37500000       0.12500000 </v>
   <v>       0.12500000      -0.12500000       0.37500000 </v>
   <v>       0.37500000       0.12500000      -0.12500000 </v>
   <v>       0.37500000       0.25000000       0.50000000 </v>
   <v>      -0.12500000       0.50000000      -0.25000000 </v>
   <v>       0.12500000       0.25000000      -0.25000000 </v>
   <v>       0.25000000      -0.25000000      -0.12500000 </v>
   <v>       0.50000000      -0.25000000      -0.37500000 </v>
   <v>       0.25000000       0.50000000       0.12500000 </v>
   <v>      -0.25000000      -0.12500000       0.50000000 </v>
   <v>      -0.25000000       0.12500000       0.25000000 </v>
   <v>       0.50000000       0.37500000       0.25000000 </v>
   <v>      -0.12500000       0.25000000      -0.25000000 </v>
   <v>      -0.37500000       0.50000000      -0.25000000 </v>
   <v>       0.12500000       0.25000000       0.50000000 </v>
   <v>       0.50000000      -0.25000000      -0.12500000 </v>
   <v>       0.25000000      -0.25000000       0.12500000 </v>
   <v>       0.25000000       0.50000000       0.37500000 </v>
   <v>      -0.25000000      -0.12500000       0.25000000 </v>
   <v>      -0.25000000      -0.37500000       0.50000000 </v>
   <v>       0.50000000       0.12500000       0.25000000 </v>
   <v>       0.12500000      -0.12500000      -0.37500000 </v>
   <v>      -0.37500000       0.12500000      -0.12500000 </v>
   <v>      -0.12500000      -0.37500000       0.12500000 </v>
   <v>      -0.37500000      -0.37500000       0.12500000 </v>
   <v>       0.12500000      -0.37500000      -0.37500000 </v>
   <v>      -0.37500000       0.12500000      -0.37500000 </v>
   <v>      -0.37500000       0.50000000       0.00000000 </v>
   <v>      -0.37500000       0.00000000       0.50000000 </v>
   <v>       0.12500000       0.50000000       0.50000000 </v>
   <v>       0.50000000       0.50000000      -0.12500000 </v>
   <v>       0.00000000       0.50000000       0.37500000 </v>
   <v>       0.50000000       0.00000000       0.37500000 </v>
   <v>       0.50000000      -0.37500000       0.00000000 </v>
   <v>       0.50000000       0.12500000       0.50000000 </v>
   <v>       0.00000000      -0.37500000       0.50000000 </v>
   <v>       0.37500000       0.37500000       0.37500000 </v>
   <v>       0.37500000       0.00000000       0.00000000 </v>
   <v>       0.00000000       0.00000000      -0.37500000 </v>
   <v>       0.00000000       0.37500000       0.00000000 </v>
   <v>      -0.37500000       0.37500000       0.37500000 </v>
   <v>       0.37500000      -0.37500000       0.37500000 </v>
   <v>       0.37500000       0.37500000      -0.37500000 </v>
   <v>       0.37500000       0.00000000      -0.25000000 </v>
   <v>      -0.37500000       0.25000000       0.25000000 </v>
   <v>       0.37500000      -0.25000000       0.00000000 </v>
   <v>       0.00000000       0.25000000      -0.37500000 </v>
   <v>       0.25000000       0.00000000      -0.37500000 </v>
   <v>      -0.25000000      -0.25000000       0.37500000 </v>
   <v>       0.25000000      -0.37500000       0.25000000 </v>
   <v>       0.00000000       0.37500000      -0.25000000 </v>
   <v>      -0.25000000       0.37500000       0.00000000 </v>
  </varray>
  <varray name="weights" >
   <v>       0.00781250 </v>
   <v>       0.00781250 </v>
   <v>       0.00781250 </v>
   <v>       0.00781250 </v>
   <v>       0.00781250 </v>
   <v>       0.00781250 </v>
   <v>       0.00781250 </v>
   <v>       0.00781250 </v>
   <v>       0.00781250 </v>
   <v>       0.00781250 </v>
   <v>       0.00781250 </v>
   <v>       0.00781250 </v>
   <v>       0.00781250 </v>
   <v>       0.00781250 </v>
   <v>       0.00781250 </v>
   <v>       0.00781250 </v>
   <v>       0.00781250 </v>
   <v>       0.00781250 </v>
   <v>       0.00781250 </v>
   <v>       0.00781250 </v>
   <v>       0.00781250 </v>
   <v>       0.00781250 </v>
   <v>       0.00781250 </v>
   <v>       0.00781250 </v>
   <v>       0.00781250 </v>
   <v>       0.00781250 </v>
   <v>       0.00781250 </v>
   <v>       0.00781250 </v>
   <v>       0.00781250 </v>
   <v>       0.00781250 </v>
   <v>       0.00781250 </v>
   <v>       0.00781250 </v>
   <v>       0.00781250 </v>
   <v>       0.00781250 </v>
   <v>       0.00781250 </v>
   <v>       0.00781250 </v>
   <v>       0.00781250 </v>
   <v>       0.00781250 </v>
   <v>       0.00781250 </v>
   <v>       0.00781250 </v>
   <v>       0.00781250 </v>
   <v>       0.00781250 </v>
   <v>       0.00781250 </v>
   <v>       0.00781250 </v>
   <v>       0.00781250 </v>
   <v>       0.00781250 </v>
   <v>       0.00781250 </v>
   <v>       0.00781250 </v>
   <v>       0.00781250 </v>
   <v>       0.00781250 </v>
   <v>       0.00781250 </v>
   <v>       0.00781250 </v>
   <v>       0.00781250 </v>
   <v>       0.00781250 </v>
   <v>       0.00781250 </v>
   <v>       0.00781250 </v>
   <v>       0.00781250 </v>
   <v>       0.00781250 </v>
   <v>       0.00781250 </v>
   <v>       0.00781250 </v>
   <v>       0.00781250 </v>
   <v>       0.00781250 </v>
   <v>       0.00781250 </v>
   <v>       0.00781250 </v>
   <v>       0.00781250 </v>
   <v>       0.00781250 </v>
   <v>       0.00781250 </v>
   <v>       0.00781250 </v>
   <v>       0.00781250 </v>
   <v>       0.00781250 </v>
   <v>       0.00781250 </v>
   <v>       0.00781250 </v>
   <v>       0.00781250 </v>
   <v>       0.00781250 </v>
   <v>       0.00781250 </v>
   <v>       0.00781250 </v>
   <v>       0.00781250 </v>
   <v>       0.00781250 </v>
   <v>       0.00781250 </v>
   <v>       0.00781250 </v>
   <v>       0.00781250 </v>
   <v>       0.00781250 </v>
   <v>       0.00781250 </v>
   <v>       0.00781250 </v>
   <v>       0.00781250 </v>
   <v>       0.00781250 </v>
   <v>       0.00781250 </v>
   <v>       0.00781250 </v>
   <v>       0.00781250 </v>
   <v>       0.00781250 </v>
   <v>       0.00781250 </v>
   <v>       0.00781250 </v>
   <v>       0.00781250 </v>
   <v>       0.00781250 </v>
   <v>       0.00781250 </v>
   <v>       0.00781250 </v>
   <v>       0.00781250 </v>
   <v>       0.00781250 </v>
   <v>       0.00781250 </v>
   <v>       0.00781250 </v>
   <v>       0.00781250 </v>
   <v>       0.00781250 </v>
   <v>       0.00781250 </v>
   <v>       0.00781250 </v>
   <v>       0.00781250 </v>
   <v>       0.00781250 </v>
   <v>       0.00781250 </v>
   <v>       0.00781250 </v>
   <v>       0.00781250 </v>
   <v>       0.00781250 </v>
   <v>       0.00781250 </v>
   <v>       0.00781250 </v>
   <v>       0.00781250 </v>
   <v>       0.00781250 </v>
   <v>       0.00781250 </v>
   <v>       0.00781250 </v>
   <v>       0.00781250 </v>
   <v>       0.00781250 </v>
   <v>       0.00781250 </v>
   <v>       0.00781250 </v>
   <v>       0.00781250 </v>
   <v>       0.00781250 </v>
   <v>       0.00781250 </v>
   <v>       0.00781250 </v>
   <v>       0.00781250 </v>
   <v>       0.00781250 </v>
   <v>       0.00781250 </v>
   <v>       0.00781250 </v>
  </varray>
 </kpoints>
 <parameters>
  <separator name="general" >
   <i type="string" name="SYSTEM">Al Random Displacement</i>
   <i type="logical" name="LCOMPAT"> F  </i>
  </separator>
  <separator name="electronic" >
   <i type="string" name="PREC">normal</i>
   <i name="ENMAX">    300.00000000</i>
   <i name="ENAUG">    291.05200000</i>
   <i name="EDIFF">      0.00010000</i>
   <i type="int" name="IALGO">    68</i>
   <i type="int" name="IWAVPR">    10</i>
   <i type="int" name="NBANDS">    64</i>
   <i name="NELECT">     81.00000000</i>
   <i type="int" name="TURBO">     0</i>
   <i type="int" name="IRESTART">     0</i>
   <i type="int" name="NREBOOT">     0</i>
   <i type="int" name="NMIN">     0</i>
   <i name="EREF">      0.00000000</i>
   <separator name="electronic smearing" >
    <i type="int" name="ISMEAR">     1</i>
    <i name="SIGMA">      0.20000000</i>
    <i name="KSPACING">      0.50000000</i>
    <i type="logical" name="KGAMMA"> T  </i>
   </separator>
   <separator name="electronic projectors" >
    <i type="logical" name="LREAL"> T  </i>
    <v name="ROPT">     -0.00050000</v>
    <i type="int" name="LMAXPAW">  -100</i>
    <i type="int" name="LMAXMIX">     2</i>
    <i type="logical" name="NLSPLINE"> F  </i>
   </separator>
   <separator name="electronic startup" >
    <i type="int" name="ISTART">     0</i>
    <i type="int" name="ICHARG">     2</i>
    <i type="int" name="INIWAV">     1</i>
   </separator>
   <separator name="electronic spin" >
    <i type="int" name="ISPIN">     1</i>
    <i type="logical" name="LNONCOLLINEAR"> F  </i>
    <v name="MAGMOM">      1.00000000      1.00000000      1.00000000      1.00000000      1.00000000      1.00000000      1.00000000      1.00000000      1.00000000      1.00000000      1.00000000      1.00000000      1.00000000      1.00000000      1.00000000      1.00000000      1.00000000      1.00000000      1.00000000      1.00000000
      1.00000000      1.00000000      1.00000000      1.00000000      1.00000000      1.00000000      1.00000000</v>
    <i name="NUPDOWN">     -1.00000000</i>
    <i type="logical" name="LSORBIT"> F  </i>
    <v name="SAXIS">      0.00000000      0.00000000      1.00000000</v>
    <i type="logical" name="LSPIRAL"> F  </i>
    <v name="QSPIRAL">      0.00000000      0.00000000      0.00000000</v>
    <i type="logical" name="LZEROZ"> F  </i>
   </separator>
   <separator name="electronic exchange-correlation" >
    <i type="logical" name="LASPH"> F  </i>
    <i type="logical" name="LMETAGGA"> F  </i>
   </separator>
   <separator name="electronic convergence" >
    <i type="int" name="NELM">    60</i>
    <i type="int" name="NELMDL">    -5</i>
    <i type="int" name="NELMIN">     2</i>
    <i name="ENINI">    300.00000000</i>
    <separator name="electronic convergence detail" >
     <i type="logical" name="LDIAG"> T  </i>
     <i type="logical" name="LSUBROT"> F  </i>
     <i name="WEIMIN">      0.00000000</i>
     <i name="EBREAK">      0.00000039</i>
     <i name="DEPER">      0.30000000</i>
     <i type="int" name="NRMM">     4</i>
     <i name="TIME">      0.40000000</i>
    </separator>
   </separator>
   <separator name="electronic mixer" >
    <i name="AMIX">      0.40000000</i>
    <i name="BMIX">      1.00000000</i>
    <i name="AMIN">      0.10000000</i>
    <i name="AMIX_MAG">      1.60000000</i>
    <i name="BMIX_MAG">      1.00000000</i>
    <separator name="electronic mixer details" >
     <i type="int" name="IMIX">     4</i>
     <i type="int" name="MAXMIX">   -45</i>
     <i name="WC">    100.00000000</i>
     <i type="int" name="INIMIX">     1</i>
     <i type="int" name="MIXPRE">     1</i>
     <i type="int" name="MREMOVE">     5</i>
    </separator>
   </separator>
   <separator name="electronic dipolcorrection" >
    <i type="logical" name="LDIPOL"> F  </i>
    <i type="logical" name="LMONO"> F  </i>
    <i type="int" name="IDIPOL">     0</i>
    <i name="EPSILON">      1.00000000</i>
    <v name="DIPOL">   -100.00000000   -100.00000000   -100.00000000</v>
    <i name="EFIELD">      0.00000000</i>
   </separator>
  </separator>
  <separator name="grids" >
   <i type="int" name="NGX">    40</i>
   <i type="int" name="NGY">    40</i>
   <i type="int" name="NGZ">    40</i>
   <i type="int" name="NGXF">    80</i>
   <i type="int" name="NGYF">    80</i>
   <i type="int" name="NGZF">    80</i>
   <i type="logical" name="ADDGRID"> F  </i>
  </separator>
  <separator name="ionic" >
   <i type="int" name="NSW">     0</i>
   <i type="int" name="IBRION">    -1</i>
   <i type="int" name="ISIF">     2</i>
   <i name="PSTRESS">      0.00000000</i>
   <i name="EDIFFG">      0.00100000</i>
   <i type="int" name="NFREE">     0</i>
   <i name="POTIM">      0.50000000</i>
   <i name="SMASS">     -3.00000000</i>
   <i name="SCALEE">      1.00000000</i>
  </separator>
  <separator name="ionic md" >
   <i name="TEBEG">      0.00010000</i>
   <i name="TEEND">      0.00010000</i>
   <i type="int" name="NBLOCK">     1</i>
   <i type="int" name="KBLOCK">     1</i>
   <i type="int" name="NPACO">   256</i>
   <i name="APACO">     16.00000000</i>
  </separator>
  <separator name="symmetry" >
   <i type="int" name="ISYM">     2</i>
   <i name="SYMPREC">      0.00001000</i>
  </separator>
  <separator name="dos" >
   <i type="logical" name="LORBIT"> F  </i>
   <v name="RWIGS">     -1.00000000</v>
   <i type="int" name="NEDOS">   301</i>
   <i name="EMIN">     10.00000000</i>
   <i name="EMAX">    -10.00000000</i>
   <i name="EFERMI">      0.00000000</i>
  </separator>
  <separator name="writing" >
   <i type="int" name="NWRITE">     2</i>
   <i type="logical" name="LWAVE"> F  </i>
   <i type="logical" name="LCHARG"> F  </i>
   <i type="logical" name="LPARD"> F  </i>
   <i type="logical" name="LVTOT"> F  </i>
   <i type="logical" name="LVHAR"> F  </i>
   <i type="logical" name="LELF"> F  </i>
   <i type="logical" name="LOPTICS"> F  </i>
   <v name="STM">      0.00000000      0.00000000      0.00000000      0.00000000      0.00000000      0.00000000      0.00000000</v>
  </separator>
  <separator name="performance" >
   <i type="int" name="NPAR">    16</i>
   <i type="int" name="NSIM">     4</i>
   <i type="int" name="NBLK">    -1</i>
   <i type="logical" name="LPLANE"> T  </i>
   <i type="logical" name="LSCALAPACK"> F  </i>
   <i type="logical" name="LSCAAWARE"> F  </i>
   <i type="logical" name="LSCALU"> F  </i>
   <i type="logical" name="LASYNC"> F  </i>
   <i type="logical" name="LORBITALREAL"> F  </i>
  </separator>
  <separator name="miscellaneous" >
   <i type="int" name="IDIOT">     3</i>
   <i type="logical" name="LMUSIC"> F  </i>
   <v name="POMASS">     26.98100000</v>
   <v name="DARWINR">      0.00000000</v>
   <v name="DARWINV">      1.00000000</v>
   <i type="logical" name="LCORR"> T  </i>
  </separator>
  <i type="logical" name="GGA_COMPAT"> T  </i>
  <i type="logical" name="LBERRY"> F  </i>
  <i type="int" name="ICORELEVEL">     0</i>
  <i type="logical" name="LDAU"> F  </i>
  <i type="int" name="I_CONSTRAINED_M">     0</i>
  <separator name="electronic exchange-correlation" >
   <i type="string" name="GGA">--</i>
   <i type="int" name="VOSKOWN">     0</i>
   <i type="logical" name="LHFCALC"> F  </i>
   <i type="string" name="PRECFOCK"></i>
   <i type="logical" name="LSYMGRAD"> F  </i>
   <i type="logical" name="LHFONE"> F  </i>
   <i type="logical" name="LRHFCALC"> F  </i>
   <i type="logical" name="LTHOMAS"> F  </i>
   <i type="logical" name="LMODELHF"> F  </i>
   <i name="ENCUT4O">     -1.00000000</i>
   <i type="int" name="EXXOEP">     0</i>
   <i type="int" name="FOURORBIT">     0</i>
   <i name="AEXX">      0.00000000</i>
   <i name="HFALPHA">      0.00000000</i>
   <i name="MCALPHA">      0.00000000</i>
   <i name="ALDAX">      1.00000000</i>
   <i name="AGGAX">      1.00000000</i>
   <i name="ALDAC">      1.00000000</i>
   <i name="AGGAC">      1.00000000</i>
   <i type="int" name="NKREDX">     1</i>
   <i type="int" name="NKREDY">     1</i>
   <i type="int" name="NKREDZ">     1</i>
   <i type="logical" name="SHIFTRED"> F  </i>
   <i type="logical" name="ODDONLY"> F  </i>
   <i type="logical" name="EVENONLY"> F  </i>
   <i type="int" name="LMAXFOCK">     0</i>
   <i type="int" name="NMAXFOCKAE">     0</i>
   <i type="logical" name="LFOCKAEDFT"> F  </i>
   <i name="HFSCREEN">      0.00000000</i>
   <i name="HFSCREENC">      0.00000000</i>
   <i type="int" name="NBANDSGWLOW">     0</i>
  </separator>
  <separator name="vdW DFT" >
   <i type="logical" name="LUSE_VDW"> F  </i>
   <i name="Zab_VDW">     -0.84910000</i>
   <i name="PARAM1">      0.12340000</i>
   <i name="PARAM2">      1.00000000</i>
   <i name="PARAM3">      0.00000000</i>
  </separator>
  <separator name="model GW" >
   <i type="int" name="MODEL_GW">     0</i>
   <i name="MODEL_EPS0">     13.26277446</i>
   <i name="MODEL_ALPHA">      1.00000000</i>
  </separator>
  <separator name="linear response parameters" >
   <i type="logical" name="LEPSILON"> F  </i>
   <i type="logical" name="LRPA"> F  </i>
   <i type="logical" name="LNABLA"> F  </i>
   <i type="logical" name="LVEL"> F  </i>
   <i type="int" name="KINTER">     0</i>
   <i name="CSHIFT">      0.10000000</i>
   <i name="OMEGAMAX">     -1.00000000</i>
   <i name="DEG_THRESHOLD">      0.00200000</i>
  </separator>
  <separator name="orbital magnetization" >
   <i type="logical" name="NUCIND"> F  </i>
   <v name="MAGPOS">      0.00000000      0.00000000      0.00000000</v>
   <i type="logical" name="LNICSALL"> T  </i>
   <i type="logical" name="ORBITALMAG"> F  </i>
   <i type="logical" name="LMAGBLOCH"> F  </i>
   <i type="logical" name="LCHIMAG"> F  </i>
   <i type="logical" name="LGAUGE"> T  </i>
   <i type="int" name="MAGATOM">     0</i>
   <v name="MAGDIPOL">      0.00000000      0.00000000      0.00000000</v>
   <v name="AVECCONST">      0.00000000      0.00000000      0.00000000</v>
  </separator>
  <separator name="response functions" >
   <i type="logical" name="LADDER"> F  </i>
   <i type="logical" name="LFXC"> F  </i>
   <i type="logical" name="LHARTREE"> T  </i>
   <i type="int" name="IBSE">     0</i>
   <i type="logical" name="LTCTE"> F  </i>
   <i type="logical" name="LTETE"> F  </i>
   <i type="logical" name="LTRIPLET"> F  </i>
   <i type="logical" name="LFXCEPS"> F  </i>
   <i type="logical" name="LFXHEG"> F  </i>
   <i type="logical" name="L2ORDER"> F  </i>
   <i type="logical" name="LUSEW"> F  </i>
   <i name="ENCUTGW">     -2.00000000</i>
   <i name="ENCUTGWSOFT">     -2.00000000</i>
   <i name="ENCUTLF">     -1.00000000</i>
   <i type="int" name="LMAXMP2">    -1</i>
   <i name="SCISSOR">      0.00000000</i>
   <i type="int" name="NOMEGA">     0</i>
   <i type="int" name="NOMEGAR">     0</i>
   <i type="int" name="NBANDSGW">    -1</i>
   <i type="int" name="NBANDSO">    -1</i>
   <i type="int" name="NBANDSV">    -1</i>
   <i type="int" name="NELM">     1</i>
   <i type="int" name="DIM">     3</i>
   <i type="int" name="ANTIRES">     0</i>
   <i name="OMEGAMAX">    -30.00000000</i>
   <i name="OMEGAMIN">    -30.00000000</i>
   <i name="OMEGATL">   -200.00000000</i>
   <i type="int" name="OMEGAGRID">     0</i>
   <i name="CSHIFT">     -0.10000000</i>
   <i type="logical" name="SELFENERGY"> F  </i>
   <i type="logical" name="LSPECTRAL"> F  </i>
   <i type="logical" name="ODDONLYGW"> F  </i>
   <i type="logical" name="EVENONLYGW"> F  </i>
   <i type="int" name="NKREDLFX">     1</i>
   <i type="int" name="NKREDLFY">     1</i>
   <i type="int" name="NKREDLFZ">     1</i>
   <i type="int" name="MAXMEM">  1800</i>
   <i type="int" name="TELESCOPE">     0</i>
   <i type="int" name="TAUPAR">     1</i>
  </separator>
  <separator name="External order field" >
   <i name="OFIELD_KAPPA">      0.00000000</i>
   <v name="OFIELD_K">      0.00000000      0.00000000      0.00000000</v>
   <i name="OFIELD_Q6_NEAR">      0.00000000</i>
   <i name="OFIELD_Q6_FAR">      0.00000000</i>
   <i name="OFIELD_A">      0.00000000</i>
  </separator>
 </parameters>
 <atominfo>
  <atoms>      27 </atoms>
  <types>       1 </types>
  <array name="atoms" >
   <dimension dim="1">ion</dimension>
   <field type="string">element</field>
   <field type="int">atomtype</field>
   <set>
    <rc><c>Al</c><c>   1</c></rc>
    <rc><c>Al</c><c>   1</c></rc>
    <rc><c>Al</c><c>   1</c></rc>
    <rc><c>Al</c><c>   1</c></rc>
    <rc><c>Al</c><c>   1</c></rc>
    <rc><c>Al</c><c>   1</c></rc>
    <rc><c>Al</c><c>   1</c></rc>
    <rc><c>Al</c><c>   1</c></rc>
    <rc><c>Al</c><c>   1</c></rc>
    <rc><c>Al</c><c>   1</c></rc>
    <rc><c>Al</c><c>   1</c></rc>
    <rc><c>Al</c><c>   1</c></rc>
    <rc><c>Al</c><c>   1</c></rc>
    <rc><c>Al</c><c>   1</c></rc>
    <rc><c>Al</c><c>   1</c></rc>
    <rc><c>Al</c><c>   1</c></rc>
    <rc><c>Al</c><c>   1</c></rc>
    <rc><c>Al</c><c>   1</c></rc>
    <rc><c>Al</c><c>   1</c></rc>
    <rc><c>Al</c><c>   1</c></rc>
    <rc><c>Al</c><c>   1</c></rc>
    <rc><c>Al</c><c>   1</c></rc>
    <rc><c>Al</c><c>   1</c></rc>
    <rc><c>Al</c><c>   1</c></rc>
    <rc><c>Al</c><c>   1</c></rc>
    <rc><c>Al</c><c>   1</c></rc>
    <rc><c>Al</c><c>   1</c></rc>
   </set>
  </array>
  <array name="atomtypes" >
   <dimension dim="1">type</dimension>
   <field type="int">atomspertype</field>
   <field type="string">element</field>
   <field>mass</field>
   <field>valence</field>
   <field type="string">pseudopotential</field>
   <set>
    <rc><c>  27</c><c>Al</c><c>     26.98100000</c><c>      3.00000000</c><c>  PAW_PBE Al 04Jan2001                  </c></rc>
   </set>
  </array>
 </atominfo>
 <structure name="initialpos" >
  <crystal>
   <varray name="basis" >
    <v>       0.00000000       6.68250000       6.68250000 </v>
    <v>       6.68250000       0.00000000       6.68250000 </v>
    <v>       6.68250000       6.68250000       0.00000000 </v>
   </varray>
   <i name="volume">    596.82485053 </i>
   <varray name="rec_basis" >
    <v>      -0.07482230       0.07482230       0.07482230 </v>
    <v>       0.07482230      -0.07482230       0.07482230 </v>
    <v>       0.07482230       0.07482230      -0.07482230 </v>
   </varray>
  </crystal>
  <varray name="positions" >
   <v>       0.99086247       0.99745800       0.01157445 </v>
   <v>       0.00175233       0.01048802       0.33145303 </v>
   <v>       0.99700770       0.99182205       0.66570522 </v>
   <v>       0.99086587       0.33691220       0.01026976 </v>
   <v>       0.01068699       0.33658033       0.32534108 </v>
   <v>       0.00660478       0.34067183       0.65587071 </v>
   <v>       0.99141610       0.67824729       0.00091523 </v>
   <v>       0.01083138       0.65840974       0.32785532 </v>
   <v>       0.01095212       0.65744307       0.66875347 </v>
   <v>       0.32235464       0.00725632       0.00654205 </v>
   <v>       0.34600796       0.99344692       0.32937549 </v>
   <v>       0.32419107       0.99445355       0.67493623 </v>
   <v>       0.34268402       0.32981381       0.00440260 </v>
   <v>       0.32462830       0.34447215       0.33536624 </v>
   <v>       0.34339763       0.33279013       0.66811193 </v>
   <v>       0.33581439       0.66891680       0.98759637 </v>
   <v>       0.33413933       0.66000728       0.34525466 </v>
   <v>       0.32899823       0.65913206       0.67884359 </v>
   <v>       0.65801702       0.99905481       0.99764917 </v>
   <v>       0.67907311       0.99268638       0.33212069 </v>
   <v>       0.65568769       0.00060548       0.66689227 </v>
   <v>       0.66304515       0.33584331       0.01065285 </v>
   <v>       0.66071405       0.33476120       0.34498256 </v>
   <v>       0.65584960       0.33848722       0.67516958 </v>
   <v>       0.67710838       0.65729279       0.99582837 </v>
   <v>       0.66572132       0.65546406       0.34285381 </v>
   <v>       0.66411652       0.66425379       0.67913051 </v>
  </varray>
 </structure>
 <calculation>
  <scstep>
   <time name="dav">    9.14    9.15</time>
   <time name="total">    9.17    9.19</time>
   <energy>
    <i name="alphaZ">     -4.10266499 </i>
    <i name="ewald">  -1797.50202130 </i>
    <i name="hartreedc">    -10.22904098 </i>
    <i name="XCdc">   -721.69594007 </i>
    <i name="pawpsdc">   1787.40424240 </i>
    <i name="pawaedc">   -924.63176043 </i>
    <i name="eentropy">     -0.00207583 </i>
    <i name="bandstr">    261.05398058 </i>
    <i name="atom">   1445.51584806 </i>
    <i name="e_fr_energy">     35.81056745 </i>
    <i name="e_wo_entrp">     35.81264328 </i>
    <i name="e_0_energy">     35.81125939 </i>
   </energy>
  </scstep>
  <scstep>
   <time name="dav">   10.94   10.94</time>
   <time name="total">   10.94   10.96</time>
   <energy>
    <i name="e_fr_energy">    -88.99556089 </i>
    <i name="e_wo_entrp">    -88.98406067 </i>
    <i name="e_0_energy">    -88.99172749 </i>
   </energy>
  </scstep>
  <scstep>
   <time name="dav">   11.60   11.60</time>
   <time name="total">   11.60   11.62</time>
   <energy>
    <i name="e_fr_energy">    -94.36465558 </i>
    <i name="e_wo_entrp">    -94.34459772 </i>
    <i name="e_0_energy">    -94.35796962 </i>
   </energy>
  </scstep>
  <scstep>
   <time name="dav">   10.77   10.77</time>
   <time name="total">   10.78   10.79</time>
   <energy>
    <i name="e_fr_energy">    -94.42273657 </i>
    <i name="e_wo_entrp">    -94.40247114 </i>
    <i name="e_0_energy">    -94.41598142 </i>
   </energy>
  </scstep>
  <scstep>
   <time name="dav">   11.38   11.38</time>
   <time name="total">   11.83   11.85</time>
   <energy>
    <i name="e_fr_energy">    -94.42345577 </i>
    <i name="e_wo_entrp">    -94.40318765 </i>
    <i name="e_0_energy">    -94.41669973 </i>
   </energy>
  </scstep>
  <scstep>
   <time name="diag">    1.56    1.56</time>
   <time name="diis">    4.74    4.74</time>
   <time name="orth">    0.25    0.25</time>
   <time name="total">    7.02    7.03</time>
   <energy>
    <i name="e_fr_energy">    -94.07170652 </i>
    <i name="e_wo_entrp">    -94.04945613 </i>
    <i name="e_0_energy">    -94.06428972 </i>
   </energy>
  </scstep>
  <scstep>
   <time name="diag">    1.56    1.56</time>
   <time name="diis">    5.14    5.14</time>
   <time name="orth">    0.25    0.25</time>
   <time name="total">    7.42    7.44</time>
   <energy>
    <i name="e_fr_energy">    -93.86578873 </i>
    <i name="e_wo_entrp">    -93.84274445 </i>
    <i name="e_0_energy">    -93.85810730 </i>
   </energy>
  </scstep>
  <scstep>
   <time name="diag">    1.56    1.56</time>
   <time name="diis">    5.68    5.68</time>
   <time name="orth">    0.25    0.25</time>
   <time name="total">    7.96    7.98</time>
   <energy>
    <i name="e_fr_energy">    -93.85740233 </i>
    <i name="e_wo_entrp">    -93.83410545 </i>
    <i name="e_0_energy">    -93.84963670 </i>
   </energy>
  </scstep>
  <scstep>
   <time name="diag">    1.56    1.56</time>
   <time name="diis">    5.62    5.63</time>
   <time name="orth">    0.25    0.25</time>
   <time name="total">    7.90    7.92</time>
   <energy>
    <i name="e_fr_energy">    -93.85668255 </i>
    <i name="e_wo_entrp">    -93.83330260 </i>
    <i name="e_0_energy">    -93.84888923 </i>
   </energy>
  </scstep>
  <scstep>
   <time name="diag">    1.56    1.56</time>
   <time name="diis">    4.60    4.60</time>
   <time name="orth">    0.25    0.25</time>
   <time name="total">    6.43    6.45</time>
   <energy>
    <i name="alphaZ">     -4.10266499 </i>
    <i name="ewald">  -1797.50202130 </i>
    <i name="hartreedc">     -6.41224741 </i>
    <i name="XCdc">   -720.45615800 </i>
    <i name="pawpsdc">   2677.99901344 </i>
    <i name="pawaedc">  -1814.80754136 </i>
    <i name="eentropy">     -0.02336598 </i>
    <i name="bandstr">    125.93252515 </i>
    <i name="atom">   1445.51584806 </i>
    <i name="e_fr_energy">    -93.85661238 </i>
    <i name="e_wo_entrp">    -93.83324640 </i>
    <i name="e_0_energy">    -93.84882372 </i>
   </energy>
  </scstep>
  <structure>
   <crystal>
    <varray name="basis" >
     <v>       0.00000000       6.68250000       6.68250000 </v>
     <v>       6.68250000       0.00000000       6.68250000 </v>
     <v>       6.68250000       6.68250000       0.00000000 </v>
    </varray>
    <i name="volume">    596.82485053 </i>
    <varray name="rec_basis" >
     <v>      -0.07482230       0.07482230       0.07482230 </v>
     <v>       0.07482230      -0.07482230       0.07482230 </v>
     <v>       0.07482230       0.07482230      -0.07482230 </v>
    </varray>
   </crystal>
   <varray name="positions" >
    <v>       0.99086247       0.99745800       0.01157445 </v>
    <v>       0.00175233       0.01048802       0.33145303 </v>
    <v>       0.99700770       0.99182205       0.66570522 </v>
    <v>       0.99086587       0.33691220       0.01026976 </v>
    <v>       0.01068699       0.33658033       0.32534108 </v>
    <v>       0.00660478       0.34067183       0.65587071 </v>
    <v>       0.99141610       0.67824729       0.00091523 </v>
    <v>       0.01083138       0.65840974       0.32785532 </v>
    <v>       0.01095212       0.65744307       0.66875347 </v>
    <v>       0.32235464       0.00725632       0.00654205 </v>
    <v>       0.34600796       0.99344692       0.32937549 </v>
    <v>       0.32419107       0.99445355       0.67493623 </v>
    <v>       0.34268402       0.32981381       0.00440260 </v>
    <v>       0.32462830       0.34447215       0.33536624 </v>
    <v>       0.34339763       0.33279013       0.66811193 </v>
    <v>       0.33581439       0.66891680       0.98759637 </v>
    <v>       0.33413933       0.66000728       0.34525466 </v>
    <v>       0.32899823       0.65913206       0.67884359 </v>
    <v>       0.65801702       0.99905481       0.99764917 </v>
    <v>       0.67907311       0.99268638       0.33212069 </v>
    <v>       0.65568769       0.00060548       0.66689227 </v>
    <v>       0.66304515       0.33584331       0.01065285 </v>
    <v>       0.66071405       0.33476120       0.34498256 </v>
    <v>       0.65584960       0.33848722       0.67516958 </v>
    <v>       0.67710838       0.65729279       0.99582837 </v>
    <v>       0.66572132       0.65546406       0.34285381 </v>
    <v>       0.66411652       0.66425379       0.67913051 </v>
   </varray>
  </structure>
  <varray name="forces" >
   <v>      -0.02140177      -0.03613906       0.08575279 </v>
   <v>      -0.00330484       0.06234305      -0.06183451 </v>
   <v>       0.07003826      -0.04116566       0.06651589 </v>
   <v>      -0.06935479       0.02824518       0.04781724 </v>
   <v>       0.00570418      -0.02435489      -0.07557224 </v>
   <v>       0.02637635       0.05464570      -0.13850448 </v>
   <v>      -0.04592194       0.02481658      -0.06125636 </v>
   <v>       0.12423145      -0.07238582       0.04116416 </v>
   <v>       0.00372798      -0.05341184      -0.02018749 </v>
   <v>      -0.07742340      -0.00022878      -0.01507967 </v>
   <v>       0.05991421       0.05055387      -0.02414165 </v>
   <v>       0.02340870      -0.07905795       0.05408440 </v>
   <v>       0.03152551      -0.04118990      -0.03311034 </v>
   <v>      -0.15082437       0.10439084       0.04118127 </v>
   <v>       0.03645273      -0.04847104      -0.16671684 </v>
   <v>       0.14218922       0.08488908      -0.05191696 </v>
   <v>      -0.01733721      -0.09229490       0.07858255 </v>
   <v>       0.00934332      -0.03998630       0.05442582 </v>
   <v>      -0.05289288       0.04475645       0.03948789 </v>
   <v>       0.05413034      -0.00749630      -0.08737162 </v>
   <v>      -0.01791294       0.04157077       0.02223441 </v>
   <v>      -0.05293894       0.02956883      -0.02013806 </v>
   <v>      -0.05634356      -0.03178264       0.00481203 </v>
   <v>      -0.06405928       0.12530157       0.08411774 </v>
   <v>       0.12835796      -0.04193940      -0.00206175 </v>
   <v>       0.03562829      -0.00520865       0.05562771 </v>
   <v>      -0.12131255      -0.03596882       0.08208808 </v>
  </varray>
  <varray name="stress" >
   <v>    -109.78136851      -0.15741008      -0.23216482 </v>
   <v>      -0.15741009    -110.23986629      -0.07884306 </v>
   <v>      -0.23216470      -0.07884309    -110.10759186 </v>
  </varray>
  <energy>
   <i name="e_fr_energy">    -93.85661238 </i>
   <i name="e_wo_entrp">    -93.84882372 </i>
   <i name="e_0_energy">     -0.02336598 </i>
  </energy>
  <time name="totalsc">  100.78  101.00</time>
  <eigenvalues>
   <array>
    <dimension dim="1">band</dimension>
    <dimension dim="2">kpoint</dimension>
    <dimension dim="3">spin</dimension>
    <field>eigene</field>
    <field>occ</field>
    <set>
     <set comment="spin 1">
      <set comment="kpoint 1">
       <r>   -3.9844    1.0000 </r>
       <r>   -2.1523    1.0000 </r>
       <r>   -1.8526    1.0000 </r>
       <r>   -1.7585    1.0000 </r>
       <r>   -1.6168    1.0000 </r>
       <r>   -1.4400    1.0000 </r>
       <r>   -1.3466    1.0000 </r>
       <r>   -1.2214    1.0000 </r>
       <r>   -1.1845    1.0000 </r>
       <r>   -1.0882    1.0000 </r>
       <r>   -0.9797    1.0000 </r>
       <r>   -0.8741    1.0000 </r>
       <r>   -0.3933    1.0000 </r>
       <r>   -0.2901    1.0000 </r>
       <r>   -0.1478    1.0000 </r>
       <r>    1.5906    1.0000 </r>
       <r>    1.6837    1.0000 </r>
       <r>    1.8175    1.0000 </r>
       <r>    2.3800    1.0000 </r>
       <r>    2.3853    1.0000 </r>
       <r>    2.4682    1.0000 </r>
       <r>    2.5048    1.0000 </r>
       <r>    2.5761    1.0000 </r>
       <r>    2.6326    1.0000 </r>
       <r>    3.1331    1.0000 </r>
       <r>    3.2275    1.0000 </r>
       <r>    3.3637    1.0000 </r>
       <r>    3.7893    1.0000 </r>
       <r>    3.8883    1.0000 </r>
       <r>    4.0101    1.0000 </r>
       <r>    4.1397    1.0000 </r>
       <r>    4.1654    1.0000 </r>
       <r>    4.2312    1.0000 </r>
       <r>    4.3142    1.0000 </r>
       <r>    4.3867    1.0000 </r>
       <r>    4.4254    1.0000 </r>
       <r>    4.5350    1.0000 </r>
       <r>    4.6448    1.0001 </r>
       <r>    4.6752    1.0001 </r>
       <r>    4.7037    1.0003 </r>
       <r>    5.1944    0.7806 </r>
       <r>    5.2033    0.7494 </r>
       <r>    5.2453    0.5848 </r>
       <r>    5.3155    0.2954 </r>
       <r>    5.3295    0.2437 </r>
       <r>    5.3458    0.1886 </r>
       <r>    5.4912   -0.0338 </r>
       <r>    5.5392   -0.0329 </r>
       <r>    5.5840   -0.0234 </r>
       <r>    5.6297   -0.0136 </r>
       <r>    5.7238   -0.0028 </r>
       <r>    5.7395   -0.0020 </r>
       <r>    5.9046   -0.0000 </r>
       <r>    5.9916   -0.0000 </r>
       <r>    6.0887   -0.0000 </r>
       <r>    6.1192   -0.0000 </r>
       <r>    6.1483   -0.0000 </r>
       <r>    6.1604   -0.0000 </r>
       <r>    6.8814   -0.0000 </r>
       <r>    8.0111   -0.0000 </r>
       <r>    8.0186   -0.0000 </r>
       <r>    8.0271   -0.0000 </r>
       <r>    9.4270   -0.0000 </r>
       <r>    9.4802   -0.0000 </r>
      </set>
      <set comment="kpoint 2">
       <r>   -3.9844    1.0000 </r>
       <r>   -2.1572    1.0000 </r>
       <r>   -1.8269    1.0000 </r>
       <r>   -1.7587    1.0000 </r>
       <r>   -1.6423    1.0000 </r>
       <r>   -1.4383    1.0000 </r>
       <r>   -1.3385    1.0000 </r>
       <r>   -1.2390    1.0000 </r>
       <r>   -1.1711    1.0000 </r>
       <r>   -1.0896    1.0000 </r>
       <r>   -0.9890    1.0000 </r>
       <r>   -0.8694    1.0000 </r>
       <r>   -0.3802    1.0000 </r>
       <r>   -0.2855    1.0000 </r>
       <r>   -0.1605    1.0000 </r>
       <r>    1.6057    1.0000 </r>
       <r>    1.6901    1.0000 </r>
       <r>    1.7975    1.0000 </r>
       <r>    2.3749    1.0000 </r>
       <r>    2.4010    1.0000 </r>
       <r>    2.4684    1.0000 </r>
       <r>    2.5235    1.0000 </r>
       <r>    2.5706    1.0000 </r>
       <r>    2.5902    1.0000 </r>
       <r>    3.1523    1.0000 </r>
       <r>    3.2370    1.0000 </r>
       <r>    3.3481    1.0000 </r>
       <r>    3.8087    1.0000 </r>
       <r>    3.8874    1.0000 </r>
       <r>    3.9952    1.0000 </r>
       <r>    4.1463    1.0000 </r>
       <r>    4.1703    1.0000 </r>
       <r>    4.2422    1.0000 </r>
       <r>    4.3119    1.0000 </r>
       <r>    4.3546    1.0000 </r>
       <r>    4.3860    1.0000 </r>
       <r>    4.5534    1.0000 </r>
       <r>    4.6581    1.0001 </r>
       <r>    4.6888    1.0002 </r>
       <r>    4.7182    1.0004 </r>
       <r>    5.2040    0.7469 </r>
       <r>    5.2171    0.6981 </r>
       <r>    5.2369    0.6196 </r>
       <r>    5.3021    0.3479 </r>
       <r>    5.3187    0.2833 </r>
       <r>    5.3510    0.1722 </r>
       <r>    5.5085   -0.0354 </r>
       <r>    5.5366   -0.0333 </r>
       <r>    5.6022   -0.0193 </r>
       <r>    5.6469   -0.0107 </r>
       <r>    5.6877   -0.0055 </r>
       <r>    5.7265   -0.0026 </r>
       <r>    5.9125   -0.0000 </r>
       <r>    5.9765   -0.0000 </r>
       <r>    6.0695   -0.0000 </r>
       <r>    6.1143   -0.0000 </r>
       <r>    6.1350   -0.0000 </r>
       <r>    6.1922   -0.0000 </r>
       <r>    6.8868   -0.0000 </r>
       <r>    8.0159   -0.0000 </r>
       <r>    8.0186   -0.0000 </r>
       <r>    8.0239   -0.0000 </r>
       <r>    9.4512   -0.0000 </r>
       <r>    9.4785   -0.0000 </r>
      </set>
      <set comment="kpoint 3">
       <r>   -3.9844    1.0000 </r>
       <r>   -2.1623    1.0000 </r>
       <r>   -1.8066    1.0000 </r>
       <r>   -1.7622    1.0000 </r>
       <r>   -1.6662    1.0000 </r>
       <r>   -1.4095    1.0000 </r>
       <r>   -1.3313    1.0000 </r>
       <r>   -1.2439    1.0000 </r>
       <r>   -1.1683    1.0000 </r>
       <r>   -1.0935    1.0000 </r>
       <r>   -1.0245    1.0000 </r>
       <r>   -0.8670    1.0000 </r>
       <r>   -0.3487    1.0000 </r>
       <r>   -0.2783    1.0000 </r>
       <r>   -0.1832    1.0000 </r>
       <r>    1.6191    1.0000 </r>
       <r>    1.6899    1.0000 </r>
       <r>    1.7690    1.0000 </r>
       <r>    2.4042    1.0000 </r>
       <r>    2.4331    1.0000 </r>
       <r>    2.4575    1.0000 </r>
       <r>    2.4999    1.0000 </r>
       <r>    2.5496    1.0000 </r>
       <r>    2.5954    1.0000 </r>
       <r>    3.1757    1.0000 </r>
       <r>    3.2393    1.0000 </r>
       <r>    3.3273    1.0000 </r>
       <r>    3.8361    1.0000 </r>
       <r>    3.8780    1.0000 </r>
       <r>    3.9623    1.0000 </r>
       <r>    4.1749    1.0000 </r>
       <r>    4.2050    1.0000 </r>
       <r>    4.2490    1.0000 </r>
       <r>    4.2780    1.0000 </r>
       <r>    4.3260    1.0000 </r>
       <r>    4.3836    1.0000 </r>
       <r>    4.5620    1.0000 </r>
       <r>    4.6499    1.0001 </r>
       <r>    4.6805    1.0001 </r>
       <r>    4.7143    1.0003 </r>
       <r>    5.2067    0.7371 </r>
       <r>    5.2116    0.7190 </r>
       <r>    5.2507    0.5623 </r>
       <r>    5.3060    0.3320 </r>
       <r>    5.3150    0.2971 </r>
       <r>    5.3391    0.2106 </r>
       <r>    5.5243   -0.0348 </r>
       <r>    5.5718   -0.0262 </r>
       <r>    5.6042   -0.0188 </r>
       <r>    5.6316   -0.0133 </r>
       <r>    5.6753   -0.0068 </r>
       <r>    5.7094   -0.0037 </r>
       <r>    5.9322   -0.0000 </r>
       <r>    6.0100   -0.0000 </r>
       <r>    6.0454   -0.0000 </r>
       <r>    6.1125   -0.0000 </r>
       <r>    6.1264   -0.0000 </r>
       <r>    6.1893   -0.0000 </r>
       <r>    6.8844   -0.0000 </r>
       <r>    8.0097   -0.0000 </r>
       <r>    8.0200   -0.0000 </r>
       <r>    8.0273   -0.0000 </r>
       <r>    9.4306   -0.0000 </r>
       <r>    9.4845   -0.0000 </r>
      </set>
      <set comment="kpoint 4">
       <r>   -3.9846    1.0000 </r>
       <r>   -2.1505    1.0000 </r>
       <r>   -1.8314    1.0000 </r>
       <r>   -1.7642    1.0000 </r>
       <r>   -1.6296    1.0000 </r>
       <r>   -1.4582    1.0000 </r>
       <r>   -1.3518    1.0000 </r>
       <r>   -1.2126    1.0000 </r>
       <r>   -1.1572    1.0000 </r>
       <r>   -1.1086    1.0000 </r>
       <r>   -0.9998    1.0000 </r>
       <r>   -0.8559    1.0000 </r>
       <r>   -0.3709    1.0000 </r>
       <r>   -0.2922    1.0000 </r>
       <r>   -0.1634    1.0000 </r>
       <r>    1.6180    1.0000 </r>
       <r>    1.6756    1.0000 </r>
       <r>    1.8044    1.0000 </r>
       <r>    2.3679    1.0000 </r>
       <r>    2.3868    1.0000 </r>
       <r>    2.4840    1.0000 </r>
       <r>    2.5059    1.0000 </r>
       <r>    2.5623    1.0000 </r>
       <r>    2.6174    1.0000 </r>
       <r>    3.1611    1.0000 </r>
       <r>    3.2231    1.0000 </r>
       <r>    3.3553    1.0000 </r>
       <r>    3.8073    1.0000 </r>
       <r>    3.8878    1.0000 </r>
       <r>    4.0062    1.0000 </r>
       <r>    4.1557    1.0000 </r>
       <r>    4.1750    1.0000 </r>
       <r>    4.2509    1.0000 </r>
       <r>    4.2955    1.0000 </r>
       <r>    4.3540    1.0000 </r>
       <r>    4.4106    1.0000 </r>
       <r>    4.5443    1.0000 </r>
       <r>    4.6379    1.0000 </r>
       <r>    4.6719    1.0001 </r>
       <r>    4.7084    1.0003 </r>
       <r>    5.1662    0.8681 </r>
       <r>    5.1891    0.7984 </r>
       <r>    5.2160    0.7023 </r>
       <r>    5.3148    0.2981 </r>
       <r>    5.3515    0.1705 </r>
       <r>    5.3646    0.1321 </r>
       <r>    5.4753   -0.0295 </r>
       <r>    5.5714   -0.0263 </r>
       <r>    5.6174   -0.0160 </r>
       <r>    5.6553   -0.0094 </r>
       <r>    5.7001   -0.0044 </r>
       <r>    5.7356   -0.0022 </r>
       <r>    5.9315   -0.0000 </r>
       <r>    5.9705   -0.0000 </r>
       <r>    6.0826   -0.0000 </r>
       <r>    6.1246   -0.0000 </r>
       <r>    6.1384   -0.0000 </r>
       <r>    6.1569   -0.0000 </r>
       <r>    6.8760   -0.0000 </r>
       <r>    8.0156   -0.0000 </r>
       <r>    8.0187   -0.0000 </r>
       <r>    8.0258   -0.0000 </r>
       <r>    9.4348   -0.0000 </r>
       <r>    9.5035   -0.0000 </r>
      </set>
      <set comment="kpoint 5">
       <r>   -3.7793    1.0000 </r>
       <r>   -2.7569    1.0000 </r>
       <r>   -2.3509    1.0000 </r>
       <r>   -1.8117    1.0000 </r>
       <r>   -1.6459    1.0000 </r>
       <r>   -1.6068    1.0000 </r>
       <r>   -1.4479    1.0000 </r>
       <r>   -1.2029    1.0000 </r>
       <r>   -1.0188    1.0000 </r>
       <r>   -0.8755    1.0000 </r>
       <r>   -0.3130    1.0000 </r>
       <r>   -0.0870    1.0000 </r>
       <r>    0.0957    1.0000 </r>
       <r>    0.3041    1.0000 </r>
       <r>    0.6364    1.0000 </r>
       <r>    0.8143    1.0000 </r>
       <r>    1.0344    1.0000 </r>
       <r>    1.1912    1.0000 </r>
       <r>    1.8144    1.0000 </r>
       <r>    1.9595    1.0000 </r>
       <r>    2.3982    1.0000 </r>
       <r>    2.5578    1.0000 </r>
       <r>    2.6784    1.0000 </r>
       <r>    2.7001    1.0000 </r>
       <r>    2.7620    1.0000 </r>
       <r>    2.9292    1.0000 </r>
       <r>    3.1626    1.0000 </r>
       <r>    3.2752    1.0000 </r>
       <r>    3.4935    1.0000 </r>
       <r>    3.6457    1.0000 </r>
       <r>    3.7336    1.0000 </r>
       <r>    3.7776    1.0000 </r>
       <r>    3.9485    1.0000 </r>
       <r>    4.1027    1.0000 </r>
       <r>    4.1242    1.0000 </r>
       <r>    4.2455    1.0000 </r>
       <r>    4.3873    1.0000 </r>
       <r>    4.4009    1.0000 </r>
       <r>    4.5168    1.0000 </r>
       <r>    4.5780    1.0000 </r>
       <r>    5.2135    0.7116 </r>
       <r>    5.4958   -0.0346 </r>
       <r>    5.5144   -0.0354 </r>
       <r>    5.6368   -0.0124 </r>
       <r>    5.7139   -0.0034 </r>
       <r>    5.8770   -0.0001 </r>
       <r>    6.1280   -0.0000 </r>
       <r>    6.1656   -0.0000 </r>
       <r>    6.2817   -0.0000 </r>
       <r>    6.2972   -0.0000 </r>
       <r>    6.5098   -0.0000 </r>
       <r>    6.5363   -0.0000 </r>
       <r>    6.6856   -0.0000 </r>
       <r>    6.7030   -0.0000 </r>
       <r>    6.9817   -0.0000 </r>
       <r>    7.2143   -0.0000 </r>
       <r>    7.3634   -0.0000 </r>
       <r>    7.5190   -0.0000 </r>
       <r>    7.6162   -0.0000 </r>
       <r>    7.7721   -0.0000 </r>
       <r>    7.8558   -0.0000 </r>
       <r>    7.9622   -0.0000 </r>
       <r>    8.2406   -0.0000 </r>
       <r>    8.2832   -0.0000 </r>
      </set>
      <set comment="kpoint 6">
       <r>   -3.7808    1.0000 </r>
       <r>   -2.7500    1.0000 </r>
       <r>   -2.3455    1.0000 </r>
       <r>   -1.8288    1.0000 </r>
       <r>   -1.6826    1.0000 </r>
       <r>   -1.5908    1.0000 </r>
       <r>   -1.4170    1.0000 </r>
       <r>   -1.1778    1.0000 </r>
       <r>   -1.0400    1.0000 </r>
       <r>   -0.8975    1.0000 </r>
       <r>   -0.3046    1.0000 </r>
       <r>   -0.0969    1.0000 </r>
       <r>    0.1175    1.0000 </r>
       <r>    0.3133    1.0000 </r>
       <r>    0.6295    1.0000 </r>
       <r>    0.7943    1.0000 </r>
       <r>    1.0377    1.0000 </r>
       <r>    1.2029    1.0000 </r>
       <r>    1.8024    1.0000 </r>
       <r>    1.9651    1.0000 </r>
       <r>    2.4047    1.0000 </r>
       <r>    2.5716    1.0000 </r>
       <r>    2.6779    1.0000 </r>
       <r>    2.6919    1.0000 </r>
       <r>    2.7848    1.0000 </r>
       <r>    2.9271    1.0000 </r>
       <r>    3.1531    1.0000 </r>
       <r>    3.2705    1.0000 </r>
       <r>    3.4817    1.0000 </r>
       <r>    3.6467    1.0000 </r>
       <r>    3.7357    1.0000 </r>
       <r>    3.7682    1.0000 </r>
       <r>    3.9229    1.0000 </r>
       <r>    4.1165    1.0000 </r>
       <r>    4.1482    1.0000 </r>
       <r>    4.2425    1.0000 </r>
       <r>    4.3762    1.0000 </r>
       <r>    4.4097    1.0000 </r>
       <r>    4.5093    1.0000 </r>
       <r>    4.5754    1.0000 </r>
       <r>    5.2119    0.7179 </r>
       <r>    5.4652   -0.0250 </r>
       <r>    5.4964   -0.0346 </r>
       <r>    5.6635   -0.0082 </r>
       <r>    5.7272   -0.0026 </r>
       <r>    5.8785   -0.0001 </r>
       <r>    6.1215   -0.0000 </r>
       <r>    6.1650   -0.0000 </r>
       <r>    6.2801   -0.0000 </r>
       <r>    6.2929   -0.0000 </r>
       <r>    6.5338   -0.0000 </r>
       <r>    6.5564   -0.0000 </r>
       <r>    6.6857   -0.0000 </r>
       <r>    6.6893   -0.0000 </r>
       <r>    6.9659   -0.0000 </r>
       <r>    7.2200   -0.0000 </r>
       <r>    7.3780   -0.0000 </r>
       <r>    7.5333   -0.0000 </r>
       <r>    7.6177   -0.0000 </r>
       <r>    7.7585   -0.0000 </r>
       <r>    7.8416   -0.0000 </r>
       <r>    7.9776   -0.0000 </r>
       <r>    8.2174   -0.0000 </r>
       <r>    8.3202   -0.0000 </r>
      </set>
      <set comment="kpoint 7">
       <r>   -3.7788    1.0000 </r>
       <r>   -2.7634    1.0000 </r>
       <r>   -2.3466    1.0000 </r>
       <r>   -1.7701    1.0000 </r>
       <r>   -1.7114    1.0000 </r>
       <r>   -1.5383    1.0000 </r>
       <r>   -1.5031    1.0000 </r>
       <r>   -1.1243    1.0000 </r>
       <r>   -1.0757    1.0000 </r>
       <r>   -0.8955    1.0000 </r>
       <r>   -0.3129    1.0000 </r>
       <r>   -0.0874    1.0000 </r>
       <r>    0.1021    1.0000 </r>
       <r>    0.2955    1.0000 </r>
       <r>    0.7031    1.0000 </r>
       <r>    0.7539    1.0000 </r>
       <r>    1.0838    1.0000 </r>
       <r>    1.1362    1.0000 </r>
       <r>    1.8725    1.0000 </r>
       <r>    1.9173    1.0000 </r>
       <r>    2.4519    1.0000 </r>
       <r>    2.4899    1.0000 </r>
       <r>    2.6821    1.0000 </r>
       <r>    2.6974    1.0000 </r>
       <r>    2.8370    1.0000 </r>
       <r>    2.8766    1.0000 </r>
       <r>    3.1454    1.0000 </r>
       <r>    3.2740    1.0000 </r>
       <r>    3.5432    1.0000 </r>
       <r>    3.5828    1.0000 </r>
       <r>    3.7349    1.0000 </r>
       <r>    3.7675    1.0000 </r>
       <r>    3.9372    1.0000 </r>
       <r>    4.1070    1.0000 </r>
       <r>    4.1402    1.0000 </r>
       <r>    4.3003    1.0000 </r>
       <r>    4.3471    1.0000 </r>
       <r>    4.4571    1.0000 </r>
       <r>    4.4976    1.0000 </r>
       <r>    4.5438    1.0000 </r>
       <r>    5.2158    0.7030 </r>
       <r>    5.4820   -0.0317 </r>
       <r>    5.5007   -0.0351 </r>
       <r>    5.6509   -0.0100 </r>
       <r>    5.7749   -0.0009 </r>
       <r>    5.8164   -0.0003 </r>
       <r>    6.1402   -0.0000 </r>
       <r>    6.1643   -0.0000 </r>
       <r>    6.2815   -0.0000 </r>
       <r>    6.2943   -0.0000 </r>
       <r>    6.5209   -0.0000 </r>
       <r>    6.5386   -0.0000 </r>
       <r>    6.6705   -0.0000 </r>
       <r>    6.6911   -0.0000 </r>
       <r>    6.9815   -0.0000 </r>
       <r>    7.2679   -0.0000 </r>
       <r>    7.3059   -0.0000 </r>
       <r>    7.5483   -0.0000 </r>
       <r>    7.6744   -0.0000 </r>
       <r>    7.7184   -0.0000 </r>
       <r>    7.8356   -0.0000 </r>
       <r>    7.9712   -0.0000 </r>
       <r>    8.2580   -0.0000 </r>
       <r>    8.3079   -0.0000 </r>
      </set>
      <set comment="kpoint 8">
       <r>   -3.7791    1.0000 </r>
       <r>   -2.7605    1.0000 </r>
       <r>   -2.3500    1.0000 </r>
       <r>   -1.7889    1.0000 </r>
       <r>   -1.6798    1.0000 </r>
       <r>   -1.5614    1.0000 </r>
       <r>   -1.4777    1.0000 </r>
       <r>   -1.1611    1.0000 </r>
       <r>   -1.0869    1.0000 </r>
       <r>   -0.8618    1.0000 </r>
       <r>   -0.3174    1.0000 </r>
       <r>   -0.0785    1.0000 </r>
       <r>    0.0951    1.0000 </r>
       <r>    0.3151    1.0000 </r>
       <r>    0.6684    1.0000 </r>
       <r>    0.7800    1.0000 </r>
       <r>    1.0563    1.0000 </r>
       <r>    1.1556    1.0000 </r>
       <r>    1.8475    1.0000 </r>
       <r>    1.9440    1.0000 </r>
       <r>    2.4229    1.0000 </r>
       <r>    2.5105    1.0000 </r>
       <r>    2.6886    1.0000 </r>
       <r>    2.7010    1.0000 </r>
       <r>    2.8025    1.0000 </r>
       <r>    2.8922    1.0000 </r>
       <r>    3.1681    1.0000 </r>
       <r>    3.2568    1.0000 </r>
       <r>    3.5336    1.0000 </r>
       <r>    3.6199    1.0000 </r>
       <r>    3.7380    1.0000 </r>
       <r>    3.7580    1.0000 </r>
       <r>    3.9498    1.0000 </r>
       <r>    4.0995    1.0000 </r>
       <r>    4.1321    1.0000 </r>
       <r>    4.2889    1.0000 </r>
       <r>    4.3759    1.0000 </r>
       <r>    4.4139    1.0000 </r>
       <r>    4.5063    1.0000 </r>
       <r>    4.5459    1.0000 </r>
       <r>    5.2213    0.6817 </r>
       <r>    5.4880   -0.0332 </r>
       <r>    5.5028   -0.0352 </r>
       <r>    5.6493   -0.0103 </r>
       <r>    5.7454   -0.0018 </r>
       <r>    5.8407   -0.0002 </r>
       <r>    6.1357   -0.0000 </r>
       <r>    6.1589   -0.0000 </r>
       <r>    6.2901   -0.0000 </r>
       <r>    6.3015   -0.0000 </r>
       <r>    6.5141   -0.0000 </r>
       <r>    6.5380   -0.0000 </r>
       <r>    6.6805   -0.0000 </r>
       <r>    6.6921   -0.0000 </r>
       <r>    6.9777   -0.0000 </r>
       <r>    7.2506   -0.0000 </r>
       <r>    7.3308   -0.0000 </r>
       <r>    7.5361   -0.0000 </r>
       <r>    7.6399   -0.0000 </r>
       <r>    7.7022   -0.0000 </r>
       <r>    7.8610   -0.0000 </r>
       <r>    7.9962   -0.0000 </r>
       <r>    8.2324   -0.0000 </r>
       <r>    8.2994   -0.0000 </r>
      </set>
      <set comment="kpoint 9">
       <r>   -3.7791    1.0000 </r>
       <r>   -2.7551    1.0000 </r>
       <r>   -2.3564    1.0000 </r>
       <r>   -1.8203    1.0000 </r>
       <r>   -1.6585    1.0000 </r>
       <r>   -1.5820    1.0000 </r>
       <r>   -1.4314    1.0000 </r>
       <r>   -1.2115    1.0000 </r>
       <r>   -1.0293    1.0000 </r>
       <r>   -0.8721    1.0000 </r>
       <r>   -0.3077    1.0000 </r>
       <r>   -0.0887    1.0000 </r>
       <r>    0.0875    1.0000 </r>
       <r>    0.3056    1.0000 </r>
       <r>    0.6364    1.0000 </r>
       <r>    0.8159    1.0000 </r>
       <r>    1.0333    1.0000 </r>
       <r>    1.1863    1.0000 </r>
       <r>    1.8157    1.0000 </r>
       <r>    1.9672    1.0000 </r>
       <r>    2.3999    1.0000 </r>
       <r>    2.5496    1.0000 </r>
       <r>    2.6770    1.0000 </r>
       <r>    2.7053    1.0000 </r>
       <r>    2.7668    1.0000 </r>
       <r>    2.9310    1.0000 </r>
       <r>    3.1585    1.0000 </r>
       <r>    3.2675    1.0000 </r>
       <r>    3.4980    1.0000 </r>
       <r>    3.6458    1.0000 </r>
       <r>    3.7374    1.0000 </r>
       <r>    3.7885    1.0000 </r>
       <r>    3.9292    1.0000 </r>
       <r>    4.1242    1.0000 </r>
       <r>    4.1327    1.0000 </r>
       <r>    4.2410    1.0000 </r>
       <r>    4.3765    1.0000 </r>
       <r>    4.3937    1.0000 </r>
       <r>    4.5120    1.0000 </r>
       <r>    4.5801    1.0000 </r>
       <r>    5.2176    0.6960 </r>
       <r>    5.4704   -0.0275 </r>
       <r>    5.5092   -0.0355 </r>
       <r>    5.6571   -0.0091 </r>
       <r>    5.7233   -0.0028 </r>
       <r>    5.8726   -0.0001 </r>
       <r>    6.1169   -0.0000 </r>
       <r>    6.1628   -0.0000 </r>
       <r>    6.2936   -0.0000 </r>
       <r>    6.3107   -0.0000 </r>
       <r>    6.5053   -0.0000 </r>
       <r>    6.5378   -0.0000 </r>
       <r>    6.6836   -0.0000 </r>
       <r>    6.7057   -0.0000 </r>
       <r>    6.9718   -0.0000 </r>
       <r>    7.2131   -0.0000 </r>
       <r>    7.3700   -0.0000 </r>
       <r>    7.5407   -0.0000 </r>
       <r>    7.5898   -0.0000 </r>
       <r>    7.7737   -0.0000 </r>
       <r>    7.8499   -0.0000 </r>
       <r>    7.9815   -0.0000 </r>
       <r>    8.1922   -0.0000 </r>
       <r>    8.2978   -0.0000 </r>
      </set>
      <set comment="kpoint 10">
       <r>   -3.7808    1.0000 </r>
       <r>   -2.7512    1.0000 </r>
       <r>   -2.3476    1.0000 </r>
       <r>   -1.7902    1.0000 </r>
       <r>   -1.7284    1.0000 </r>
       <r>   -1.5247    1.0000 </r>
       <r>   -1.4875    1.0000 </r>
       <r>   -1.1288    1.0000 </r>
       <r>   -1.0833    1.0000 </r>
       <r>   -0.8939    1.0000 </r>
       <r>   -0.2951    1.0000 </r>
       <r>   -0.1074    1.0000 </r>
       <r>    0.1106    1.0000 </r>
       <r>    0.3119    1.0000 </r>
       <r>    0.6889    1.0000 </r>
       <r>    0.7445    1.0000 </r>
       <r>    1.0789    1.0000 </r>
       <r>    1.1648    1.0000 </r>
       <r>    1.8653    1.0000 </r>
       <r>    1.9170    1.0000 </r>
       <r>    2.4432    1.0000 </r>
       <r>    2.4955    1.0000 </r>
       <r>    2.6779    1.0000 </r>
       <r>    2.6999    1.0000 </r>
       <r>    2.8230    1.0000 </r>
       <r>    2.8824    1.0000 </r>
       <r>    3.1484    1.0000 </r>
       <r>    3.2769    1.0000 </r>
       <r>    3.5343    1.0000 </r>
       <r>    3.5938    1.0000 </r>
       <r>    3.7263    1.0000 </r>
       <r>    3.7881    1.0000 </r>
       <r>    3.9237    1.0000 </r>
       <r>    4.1066    1.0000 </r>
       <r>    4.1392    1.0000 </r>
       <r>    4.3046    1.0000 </r>
       <r>    4.3403    1.0000 </r>
       <r>    4.4533    1.0000 </r>
       <r>    4.5167    1.0000 </r>
       <r>    4.5264    1.0000 </r>
       <r>    5.2298    0.6482 </r>
       <r>    5.4669   -0.0259 </r>
       <r>    5.4871   -0.0330 </r>
       <r>    5.6636   -0.0082 </r>
       <r>    5.7731   -0.0010 </r>
       <r>    5.8269   -0.0003 </r>
       <r>    6.1459   -0.0000 </r>
       <r>    6.1625   -0.0000 </r>
       <r>    6.2723   -0.0000 </r>
       <r>    6.2804   -0.0000 </r>
       <r>    6.5226   -0.0000 </r>
       <r>    6.5443   -0.0000 </r>
       <r>    6.6847   -0.0000 </r>
       <r>    6.6890   -0.0000 </r>
       <r>    6.9557   -0.0000 </r>
       <r>    7.2736   -0.0000 </r>
       <r>    7.3248   -0.0000 </r>
       <r>    7.5470   -0.0000 </r>
       <r>    7.6650   -0.0000 </r>
       <r>    7.7296   -0.0000 </r>
       <r>    7.8311   -0.0000 </r>
       <r>    7.9819   -0.0000 </r>
       <r>    8.2250   -0.0000 </r>
       <r>    8.3024   -0.0000 </r>
      </set>
      <set comment="kpoint 11">
       <r>   -3.7809    1.0000 </r>
       <r>   -2.7481    1.0000 </r>
       <r>   -2.3554    1.0000 </r>
       <r>   -1.7940    1.0000 </r>
       <r>   -1.6931    1.0000 </r>
       <r>   -1.5724    1.0000 </r>
       <r>   -1.4617    1.0000 </r>
       <r>   -1.1703    1.0000 </r>
       <r>   -1.0542    1.0000 </r>
       <r>   -0.8826    1.0000 </r>
       <r>   -0.3107    1.0000 </r>
       <r>   -0.0862    1.0000 </r>
       <r>    0.1034    1.0000 </r>
       <r>    0.3150    1.0000 </r>
       <r>    0.6632    1.0000 </r>
       <r>    0.7715    1.0000 </r>
       <r>    1.0673    1.0000 </r>
       <r>    1.1744    1.0000 </r>
       <r>    1.8291    1.0000 </r>
       <r>    1.9333    1.0000 </r>
       <r>    2.4306    1.0000 </r>
       <r>    2.5218    1.0000 </r>
       <r>    2.6911    1.0000 </r>
       <r>    2.6957    1.0000 </r>
       <r>    2.7931    1.0000 </r>
       <r>    2.9010    1.0000 </r>
       <r>    3.1674    1.0000 </r>
       <r>    3.2701    1.0000 </r>
       <r>    3.5322    1.0000 </r>
       <r>    3.6194    1.0000 </r>
       <r>    3.7403    1.0000 </r>
       <r>    3.7608    1.0000 </r>
       <r>    3.9355    1.0000 </r>
       <r>    4.0972    1.0000 </r>
       <r>    4.1286    1.0000 </r>
       <r>    4.2723    1.0000 </r>
       <r>    4.3721    1.0000 </r>
       <r>    4.4296    1.0000 </r>
       <r>    4.5094    1.0000 </r>
       <r>    4.5411    1.0000 </r>
       <r>    5.2116    0.7189 </r>
       <r>    5.4865   -0.0329 </r>
       <r>    5.5000   -0.0350 </r>
       <r>    5.6470   -0.0106 </r>
       <r>    5.7491   -0.0017 </r>
       <r>    5.8460   -0.0002 </r>
       <r>    6.1231   -0.0000 </r>
       <r>    6.1509   -0.0000 </r>
       <r>    6.2914   -0.0000 </r>
       <r>    6.3183   -0.0000 </r>
       <r>    6.5175   -0.0000 </r>
       <r>    6.5414   -0.0000 </r>
       <r>    6.6841   -0.0000 </r>
       <r>    6.6953   -0.0000 </r>
       <r>    6.9712   -0.0000 </r>
       <r>    7.2531   -0.0000 </r>
       <r>    7.3532   -0.0000 </r>
       <r>    7.5469   -0.0000 </r>
       <r>    7.6130   -0.0000 </r>
       <r>    7.7512   -0.0000 </r>
       <r>    7.8259   -0.0000 </r>
       <r>    7.9943   -0.0000 </r>
       <r>    8.2519   -0.0000 </r>
       <r>    8.2653   -0.0000 </r>
      </set>
      <set comment="kpoint 12">
       <r>   -3.7793    1.0000 </r>
       <r>   -2.7576    1.0000 </r>
       <r>   -2.3538    1.0000 </r>
       <r>   -1.7881    1.0000 </r>
       <r>   -1.6797    1.0000 </r>
       <r>   -1.5598    1.0000 </r>
       <r>   -1.4817    1.0000 </r>
       <r>   -1.1624    1.0000 </r>
       <r>   -1.0893    1.0000 </r>
       <r>   -0.8547    1.0000 </r>
       <r>   -0.2977    1.0000 </r>
       <r>   -0.0933    1.0000 </r>
       <r>    0.0851    1.0000 </r>
       <r>    0.3141    1.0000 </r>
       <r>    0.6640    1.0000 </r>
       <r>    0.7810    1.0000 </r>
       <r>    1.0667    1.0000 </r>
       <r>    1.1678    1.0000 </r>
       <r>    1.8400    1.0000 </r>
       <r>    1.9285    1.0000 </r>
       <r>    2.4307    1.0000 </r>
       <r>    2.5272    1.0000 </r>
       <r>    2.6686    1.0000 </r>
       <r>    2.6910    1.0000 </r>
       <r>    2.8033    1.0000 </r>
       <r>    2.8832    1.0000 </r>
       <r>    3.1845    1.0000 </r>
       <r>    3.2689    1.0000 </r>
       <r>    3.5132    1.0000 </r>
       <r>    3.6168    1.0000 </r>
       <r>    3.7396    1.0000 </r>
       <r>    3.7905    1.0000 </r>
       <r>    3.9402    1.0000 </r>
       <r>    4.1067    1.0000 </r>
       <r>    4.1387    1.0000 </r>
       <r>    4.2740    1.0000 </r>
       <r>    4.3654    1.0000 </r>
       <r>    4.4181    1.0000 </r>
       <r>    4.5083    1.0000 </r>
       <r>    4.5489    1.0000 </r>
       <r>    5.2159    0.7028 </r>
       <r>    5.4880   -0.0332 </r>
       <r>    5.5087   -0.0354 </r>
       <r>    5.6497   -0.0102 </r>
       <r>    5.7409   -0.0020 </r>
       <r>    5.8453   -0.0002 </r>
       <r>    6.1403   -0.0000 </r>
       <r>    6.1626   -0.0000 </r>
       <r>    6.2810   -0.0000 </r>
       <r>    6.2951   -0.0000 </r>
       <r>    6.5116   -0.0000 </r>
       <r>    6.5370   -0.0000 </r>
       <r>    6.6849   -0.0000 </r>
       <r>    6.6949   -0.0000 </r>
       <r>    6.9755   -0.0000 </r>
       <r>    7.2448   -0.0000 </r>
       <r>    7.3285   -0.0000 </r>
       <r>    7.5277   -0.0000 </r>
       <r>    7.6598   -0.0000 </r>
       <r>    7.7013   -0.0000 </r>
       <r>    7.8704   -0.0000 </r>
       <r>    7.9762   -0.0000 </r>
       <r>    8.2126   -0.0000 </r>
       <r>    8.3486   -0.0000 </r>
      </set>
      <set comment="kpoint 13">
       <r>   -3.7788    1.0000 </r>
       <r>   -2.7588    1.0000 </r>
       <r>   -2.3565    1.0000 </r>
       <r>   -1.7707    1.0000 </r>
       <r>   -1.7190    1.0000 </r>
       <r>   -1.5333    1.0000 </r>
       <r>   -1.4864    1.0000 </r>
       <r>   -1.1210    1.0000 </r>
       <r>   -1.0953    1.0000 </r>
       <r>   -0.8829    1.0000 </r>
       <r>   -0.2974    1.0000 </r>
       <r>   -0.1031    1.0000 </r>
       <r>    0.0919    1.0000 </r>
       <r>    0.2921    1.0000 </r>
       <r>    0.7025    1.0000 </r>
       <r>    0.7579    1.0000 </r>
       <r>    1.0866    1.0000 </r>
       <r>    1.1452    1.0000 </r>
       <r>    1.8657    1.0000 </r>
       <r>    1.9137    1.0000 </r>
       <r>    2.4560    1.0000 </r>
       <r>    2.4784    1.0000 </r>
       <r>    2.6803    1.0000 </r>
       <r>    2.7025    1.0000 </r>
       <r>    2.8376    1.0000 </r>
       <r>    2.8796    1.0000 </r>
       <r>    3.1423    1.0000 </r>
       <r>    3.2764    1.0000 </r>
       <r>    3.5334    1.0000 </r>
       <r>    3.5911    1.0000 </r>
       <r>    3.7408    1.0000 </r>
       <r>    3.7883    1.0000 </r>
       <r>    3.9206    1.0000 </r>
       <r>    4.1152    1.0000 </r>
       <r>    4.1614    1.0000 </r>
       <r>    4.2909    1.0000 </r>
       <r>    4.3289    1.0000 </r>
       <r>    4.4669    1.0000 </r>
       <r>    4.4930    1.0000 </r>
       <r>    4.5361    1.0000 </r>
       <r>    5.2190    0.6908 </r>
       <r>    5.4654   -0.0251 </r>
       <r>    5.4986   -0.0349 </r>
       <r>    5.6702   -0.0074 </r>
       <r>    5.7692   -0.0011 </r>
       <r>    5.8129   -0.0004 </r>
       <r>    6.1426   -0.0000 </r>
       <r>    6.1639   -0.0000 </r>
       <r>    6.2828   -0.0000 </r>
       <r>    6.2895   -0.0000 </r>
       <r>    6.5301   -0.0000 </r>
       <r>    6.5381   -0.0000 </r>
       <r>    6.6730   -0.0000 </r>
       <r>    6.6912   -0.0000 </r>
       <r>    6.9688   -0.0000 </r>
       <r>    7.2729   -0.0000 </r>
       <r>    7.3088   -0.0000 </r>
       <r>    7.5399   -0.0000 </r>
       <r>    7.6695   -0.0000 </r>
       <r>    7.7214   -0.0000 </r>
       <r>    7.8346   -0.0000 </r>
       <r>    7.9770   -0.0000 </r>
       <r>    8.2159   -0.0000 </r>
       <r>    8.3170   -0.0000 </r>
      </set>
      <set comment="kpoint 14">
       <r>   -3.7797    1.0000 </r>
       <r>   -2.7548    1.0000 </r>
       <r>   -2.3450    1.0000 </r>
       <r>   -1.8530    1.0000 </r>
       <r>   -1.6579    1.0000 </r>
       <r>   -1.5647    1.0000 </r>
       <r>   -1.4292    1.0000 </r>
       <r>   -1.1994    1.0000 </r>
       <r>   -1.0317    1.0000 </r>
       <r>   -0.8827    1.0000 </r>
       <r>   -0.3122    1.0000 </r>
       <r>   -0.1034    1.0000 </r>
       <r>    0.1184    1.0000 </r>
       <r>    0.3081    1.0000 </r>
       <r>    0.6316    1.0000 </r>
       <r>    0.8028    1.0000 </r>
       <r>    1.0304    1.0000 </r>
       <r>    1.1922    1.0000 </r>
       <r>    1.8206    1.0000 </r>
       <r>    1.9652    1.0000 </r>
       <r>    2.3991    1.0000 </r>
       <r>    2.5653    1.0000 </r>
       <r>    2.6755    1.0000 </r>
       <r>    2.7046    1.0000 </r>
       <r>    2.7709    1.0000 </r>
       <r>    2.9324    1.0000 </r>
       <r>    3.1184    1.0000 </r>
       <r>    3.2985    1.0000 </r>
       <r>    3.5097    1.0000 </r>
       <r>    3.6471    1.0000 </r>
       <r>    3.7276    1.0000 </r>
       <r>    3.7702    1.0000 </r>
       <r>    3.9293    1.0000 </r>
       <r>    4.1054    1.0000 </r>
       <r>    4.1401    1.0000 </r>
       <r>    4.2496    1.0000 </r>
       <r>    4.3833    1.0000 </r>
       <r>    4.3959    1.0000 </r>
       <r>    4.5051    1.0000 </r>
       <r>    4.5815    1.0000 </r>
       <r>    5.2148    0.7069 </r>
       <r>    5.4845   -0.0324 </r>
       <r>    5.5072   -0.0354 </r>
       <r>    5.6545   -0.0095 </r>
       <r>    5.7263   -0.0027 </r>
       <r>    5.8714   -0.0001 </r>
       <r>    6.1020   -0.0000 </r>
       <r>    6.1549   -0.0000 </r>
       <r>    6.2797   -0.0000 </r>
       <r>    6.3036   -0.0000 </r>
       <r>    6.5377   -0.0000 </r>
       <r>    6.5580   -0.0000 </r>
       <r>    6.6815   -0.0000 </r>
       <r>    6.6890   -0.0000 </r>
       <r>    6.9684   -0.0000 </r>
       <r>    7.2170   -0.0000 </r>
       <r>    7.3847   -0.0000 </r>
       <r>    7.5450   -0.0000 </r>
       <r>    7.6131   -0.0000 </r>
       <r>    7.7592   -0.0000 </r>
       <r>    7.8235   -0.0000 </r>
       <r>    7.9935   -0.0000 </r>
       <r>    8.2126   -0.0000 </r>
       <r>    8.2860   -0.0000 </r>
      </set>
      <set comment="kpoint 15">
       <r>   -3.7798    1.0000 </r>
       <r>   -2.7580    1.0000 </r>
       <r>   -2.3437    1.0000 </r>
       <r>   -1.8131    1.0000 </r>
       <r>   -1.6953    1.0000 </r>
       <r>   -1.5443    1.0000 </r>
       <r>   -1.4507    1.0000 </r>
       <r>   -1.1851    1.0000 </r>
       <r>   -1.0545    1.0000 </r>
       <r>   -0.8936    1.0000 </r>
       <r>   -0.2976    1.0000 </r>
       <r>   -0.1030    1.0000 </r>
       <r>    0.1202    1.0000 </r>
       <r>    0.3117    1.0000 </r>
       <r>    0.6696    1.0000 </r>
       <r>    0.7757    1.0000 </r>
       <r>    1.0506    1.0000 </r>
       <r>    1.1567    1.0000 </r>
       <r>    1.8376    1.0000 </r>
       <r>    1.9420    1.0000 </r>
       <r>    2.4491    1.0000 </r>
       <r>    2.5380    1.0000 </r>
       <r>    2.6648    1.0000 </r>
       <r>    2.6991    1.0000 </r>
       <r>    2.7915    1.0000 </r>
       <r>    2.9039    1.0000 </r>
       <r>    3.1321    1.0000 </r>
       <r>    3.3017    1.0000 </r>
       <r>    3.5155    1.0000 </r>
       <r>    3.6148    1.0000 </r>
       <r>    3.7312    1.0000 </r>
       <r>    3.7772    1.0000 </r>
       <r>    3.9355    1.0000 </r>
       <r>    4.1202    1.0000 </r>
       <r>    4.1331    1.0000 </r>
       <r>    4.2587    1.0000 </r>
       <r>    4.3616    1.0000 </r>
       <r>    4.4225    1.0000 </r>
       <r>    4.5107    1.0000 </r>
       <r>    4.5451    1.0000 </r>
       <r>    5.2108    0.7219 </r>
       <r>    5.4907   -0.0338 </r>
       <r>    5.5076   -0.0354 </r>
       <r>    5.6590   -0.0089 </r>
       <r>    5.7490   -0.0017 </r>
       <r>    5.8415   -0.0002 </r>
       <r>    6.1393   -0.0000 </r>
       <r>    6.1682   -0.0000 </r>
       <r>    6.2662   -0.0000 </r>
       <r>    6.2783   -0.0000 </r>
       <r>    6.5351   -0.0000 </r>
       <r>    6.5653   -0.0000 </r>
       <r>    6.6742   -0.0000 </r>
       <r>    6.6926   -0.0000 </r>
       <r>    6.9700   -0.0000 </r>
       <r>    7.2403   -0.0000 </r>
       <r>    7.3515   -0.0000 </r>
       <r>    7.5460   -0.0000 </r>
       <r>    7.6313   -0.0000 </r>
       <r>    7.7481   -0.0000 </r>
       <r>    7.8370   -0.0000 </r>
       <r>    7.9855   -0.0000 </r>
       <r>    8.2003   -0.0000 </r>
       <r>    8.3124   -0.0000 </r>
      </set>
      <set comment="kpoint 16">
       <r>   -3.7798    1.0000 </r>
       <r>   -2.7578    1.0000 </r>
       <r>   -2.3419    1.0000 </r>
       <r>   -1.7897    1.0000 </r>
       <r>   -1.7358    1.0000 </r>
       <r>   -1.5210    1.0000 </r>
       <r>   -1.4784    1.0000 </r>
       <r>   -1.1317    1.0000 </r>
       <r>   -1.0872    1.0000 </r>
       <r>   -0.8896    1.0000 </r>
       <r>   -0.2892    1.0000 </r>
       <r>   -0.1175    1.0000 </r>
       <r>    0.1099    1.0000 </r>
       <r>    0.3095    1.0000 </r>
       <r>    0.6899    1.0000 </r>
       <r>    0.7565    1.0000 </r>
       <r>    1.0874    1.0000 </r>
       <r>    1.1399    1.0000 </r>
       <r>    1.8576    1.0000 </r>
       <r>    1.9305    1.0000 </r>
       <r>    2.4512    1.0000 </r>
       <r>    2.4967    1.0000 </r>
       <r>    2.6685    1.0000 </r>
       <r>    2.6896    1.0000 </r>
       <r>    2.8349    1.0000 </r>
       <r>    2.8820    1.0000 </r>
       <r>    3.1241    1.0000 </r>
       <r>    3.3005    1.0000 </r>
       <r>    3.5281    1.0000 </r>
       <r>    3.5904    1.0000 </r>
       <r>    3.7522    1.0000 </r>
       <r>    3.7685    1.0000 </r>
       <r>    3.9330    1.0000 </r>
       <r>    4.1115    1.0000 </r>
       <r>    4.1307    1.0000 </r>
       <r>    4.2906    1.0000 </r>
       <r>    4.3469    1.0000 </r>
       <r>    4.4550    1.0000 </r>
       <r>    4.5167    1.0000 </r>
       <r>    4.5324    1.0000 </r>
       <r>    5.2318    0.6399 </r>
       <r>    5.4903   -0.0337 </r>
       <r>    5.5066   -0.0354 </r>
       <r>    5.6443   -0.0111 </r>
       <r>    5.7668   -0.0011 </r>
       <r>    5.8239   -0.0003 </r>
       <r>    6.1380   -0.0000 </r>
       <r>    6.1588   -0.0000 </r>
       <r>    6.2603   -0.0000 </r>
       <r>    6.2669   -0.0000 </r>
       <r>    6.5364   -0.0000 </r>
       <r>    6.5556   -0.0000 </r>
       <r>    6.6793   -0.0000 </r>
       <r>    6.6839   -0.0000 </r>
       <r>    6.9631   -0.0000 </r>
       <r>    7.2731   -0.0000 </r>
       <r>    7.3307   -0.0000 </r>
       <r>    7.5306   -0.0000 </r>
       <r>    7.6650   -0.0000 </r>
       <r>    7.7398   -0.0000 </r>
       <r>    7.8349   -0.0000 </r>
       <r>    7.9835   -0.0000 </r>
       <r>    8.2199   -0.0000 </r>
       <r>    8.3255   -0.0000 </r>
      </set>
      <set comment="kpoint 17">
       <r>   -3.4766    1.0000 </r>
       <r>   -3.2602    1.0000 </r>
       <r>   -2.2629    1.0000 </r>
       <r>   -2.1058    1.0000 </r>
       <r>   -1.9363    1.0000 </r>
       <r>   -1.5089    1.0000 </r>
       <r>   -1.3569    1.0000 </r>
       <r>   -1.1895    1.0000 </r>
       <r>   -0.8096    1.0000 </r>
       <r>   -0.2759    1.0000 </r>
       <r>   -0.1446    1.0000 </r>
       <r>   -0.0712    1.0000 </r>
       <r>    0.1114    1.0000 </r>
       <r>    0.5999    1.0000 </r>
       <r>    0.9187    1.0000 </r>
       <r>    1.0579    1.0000 </r>
       <r>    1.1610    1.0000 </r>
       <r>    1.2253    1.0000 </r>
       <r>    1.7918    1.0000 </r>
       <r>    1.8906    1.0000 </r>
       <r>    1.9358    1.0000 </r>
       <r>    2.0956    1.0000 </r>
       <r>    2.1351    1.0000 </r>
       <r>    2.2728    1.0000 </r>
       <r>    2.3189    1.0000 </r>
       <r>    2.4208    1.0000 </r>
       <r>    3.0735    1.0000 </r>
       <r>    3.1103    1.0000 </r>
       <r>    3.1646    1.0000 </r>
       <r>    3.1828    1.0000 </r>
       <r>    3.6456    1.0000 </r>
       <r>    3.7520    1.0000 </r>
       <r>    3.9225    1.0000 </r>
       <r>    3.9945    1.0000 </r>
       <r>    4.1341    1.0000 </r>
       <r>    4.2290    1.0000 </r>
       <r>    4.2467    1.0000 </r>
       <r>    5.1900    0.7953 </r>
       <r>    5.2078    0.7331 </r>
       <r>    5.3597    0.1460 </r>
       <r>    5.4065    0.0384 </r>
       <r>    5.5527   -0.0304 </r>
       <r>    5.5806   -0.0242 </r>
       <r>    5.7787   -0.0009 </r>
       <r>    6.1413   -0.0000 </r>
       <r>    6.2459   -0.0000 </r>
       <r>    6.3379   -0.0000 </r>
       <r>    6.3858   -0.0000 </r>
       <r>    6.5377   -0.0000 </r>
       <r>    6.6757   -0.0000 </r>
       <r>    6.8275   -0.0000 </r>
       <r>    6.9791   -0.0000 </r>
       <r>    7.0707   -0.0000 </r>
       <r>    7.1878   -0.0000 </r>
       <r>    7.2216   -0.0000 </r>
       <r>    7.3904   -0.0000 </r>
       <r>    7.4733   -0.0000 </r>
       <r>    7.5187   -0.0000 </r>
       <r>    7.5425   -0.0000 </r>
       <r>    7.5647   -0.0000 </r>
       <r>    7.6252   -0.0000 </r>
       <r>    8.0611   -0.0000 </r>
       <r>    8.0941   -0.0000 </r>
       <r>    8.2394   -0.0000 </r>
      </set>
      <set comment="kpoint 18">
       <r>   -3.4905    1.0000 </r>
       <r>   -3.2405    1.0000 </r>
       <r>   -2.2499    1.0000 </r>
       <r>   -2.1194    1.0000 </r>
       <r>   -1.9525    1.0000 </r>
       <r>   -1.5093    1.0000 </r>
       <r>   -1.3305    1.0000 </r>
       <r>   -1.2077    1.0000 </r>
       <r>   -0.8042    1.0000 </r>
       <r>   -0.2995    1.0000 </r>
       <r>   -0.1464    1.0000 </r>
       <r>   -0.0452    1.0000 </r>
       <r>    0.0983    1.0000 </r>
       <r>    0.5969    1.0000 </r>
       <r>    0.9330    1.0000 </r>
       <r>    1.0729    1.0000 </r>
       <r>    1.1482    1.0000 </r>
       <r>    1.2267    1.0000 </r>
       <r>    1.8165    1.0000 </r>
       <r>    1.9090    1.0000 </r>
       <r>    1.9342    1.0000 </r>
       <r>    2.0696    1.0000 </r>
       <r>    2.1109    1.0000 </r>
       <r>    2.2673    1.0000 </r>
       <r>    2.3475    1.0000 </r>
       <r>    2.4237    1.0000 </r>
       <r>    3.0338    1.0000 </r>
       <r>    3.0889    1.0000 </r>
       <r>    3.1894    1.0000 </r>
       <r>    3.1997    1.0000 </r>
       <r>    3.6375    1.0000 </r>
       <r>    3.7299    1.0000 </r>
       <r>    3.9520    1.0000 </r>
       <r>    3.9956    1.0000 </r>
       <r>    4.1184    1.0000 </r>
       <r>    4.2289    1.0000 </r>
       <r>    4.2550    1.0000 </r>
       <r>    5.1840    0.8149 </r>
       <r>    5.2035    0.7488 </r>
       <r>    5.3689    0.1206 </r>
       <r>    5.4044    0.0420 </r>
       <r>    5.5512   -0.0307 </r>
       <r>    5.5794   -0.0245 </r>
       <r>    5.7855   -0.0007 </r>
       <r>    6.1371   -0.0000 </r>
       <r>    6.2440   -0.0000 </r>
       <r>    6.3292   -0.0000 </r>
       <r>    6.3806   -0.0000 </r>
       <r>    6.5633   -0.0000 </r>
       <r>    6.6622   -0.0000 </r>
       <r>    6.8250   -0.0000 </r>
       <r>    7.0003   -0.0000 </r>
       <r>    7.0395   -0.0000 </r>
       <r>    7.1678   -0.0000 </r>
       <r>    7.2204   -0.0000 </r>
       <r>    7.3994   -0.0000 </r>
       <r>    7.4821   -0.0000 </r>
       <r>    7.5031   -0.0000 </r>
       <r>    7.5201   -0.0000 </r>
       <r>    7.5881   -0.0000 </r>
       <r>    7.6375   -0.0000 </r>
       <r>    8.0836   -0.0000 </r>
       <r>    8.1100   -0.0000 </r>
       <r>    8.2169   -0.0000 </r>
      </set>
      <set comment="kpoint 19">
       <r>   -3.4736    1.0000 </r>
       <r>   -3.2652    1.0000 </r>
       <r>   -2.2635    1.0000 </r>
       <r>   -2.0535    1.0000 </r>
       <r>   -1.9989    1.0000 </r>
       <r>   -1.4471    1.0000 </r>
       <r>   -1.4083    1.0000 </r>
       <r>   -1.1861    1.0000 </r>
       <r>   -0.8208    1.0000 </r>
       <r>   -0.2216    1.0000 </r>
       <r>   -0.1827    1.0000 </r>
       <r>   -0.0204    1.0000 </r>
       <r>    0.0408    1.0000 </r>
       <r>    0.6034    1.0000 </r>
       <r>    0.9679    1.0000 </r>
       <r>    1.0167    1.0000 </r>
       <r>    1.1546    1.0000 </r>
       <r>    1.2188    1.0000 </r>
       <r>    1.8014    1.0000 </r>
       <r>    1.9023    1.0000 </r>
       <r>    2.0008    1.0000 </r>
       <r>    2.0522    1.0000 </r>
       <r>    2.1592    1.0000 </r>
       <r>    2.2243    1.0000 </r>
       <r>    2.3523    1.0000 </r>
       <r>    2.3787    1.0000 </r>
       <r>    3.0858    1.0000 </r>
       <r>    3.1170    1.0000 </r>
       <r>    3.1616    1.0000 </r>
       <r>    3.1671    1.0000 </r>
       <r>    3.6392    1.0000 </r>
       <r>    3.8057    1.0000 </r>
       <r>    3.8766    1.0000 </r>
       <r>    4.0359    1.0000 </r>
       <r>    4.0707    1.0000 </r>
       <r>    4.2357    1.0000 </r>
       <r>    4.2607    1.0000 </r>
       <r>    5.1900    0.7953 </r>
       <r>    5.1973    0.7706 </r>
       <r>    5.3535    0.1643 </r>
       <r>    5.4085    0.0350 </r>
       <r>    5.5637   -0.0280 </r>
       <r>    5.5822   -0.0238 </r>
       <r>    5.7850   -0.0007 </r>
       <r>    6.2052   -0.0000 </r>
       <r>    6.2529   -0.0000 </r>
       <r>    6.2962   -0.0000 </r>
       <r>    6.3601   -0.0000 </r>
       <r>    6.5399   -0.0000 </r>
       <r>    6.7262   -0.0000 </r>
       <r>    6.7747   -0.0000 </r>
       <r>    6.9807   -0.0000 </r>
       <r>    7.0330   -0.0000 </r>
       <r>    7.1880   -0.0000 </r>
       <r>    7.2430   -0.0000 </r>
       <r>    7.4436   -0.0000 </r>
       <r>    7.4582   -0.0000 </r>
       <r>    7.4992   -0.0000 </r>
       <r>    7.5261   -0.0000 </r>
       <r>    7.5670   -0.0000 </r>
       <r>    7.6187   -0.0000 </r>
       <r>    8.0668   -0.0000 </r>
       <r>    8.1011   -0.0000 </r>
       <r>    8.2592   -0.0000 </r>
      </set>
      <set comment="kpoint 20">
       <r>   -3.4730    1.0000 </r>
       <r>   -3.2662    1.0000 </r>
       <r>   -2.2623    1.0000 </r>
       <r>   -2.0822    1.0000 </r>
       <r>   -1.9637    1.0000 </r>
       <r>   -1.4716    1.0000 </r>
       <r>   -1.3880    1.0000 </r>
       <r>   -1.1914    1.0000 </r>
       <r>   -0.8151    1.0000 </r>
       <r>   -0.2446    1.0000 </r>
       <r>   -0.1470    1.0000 </r>
       <r>   -0.0551    1.0000 </r>
       <r>    0.0553    1.0000 </r>
       <r>    0.6038    1.0000 </r>
       <r>    0.9559    1.0000 </r>
       <r>    1.0220    1.0000 </r>
       <r>    1.1644    1.0000 </r>
       <r>    1.2221    1.0000 </r>
       <r>    1.8091    1.0000 </r>
       <r>    1.9083    1.0000 </r>
       <r>    1.9552    1.0000 </r>
       <r>    2.0697    1.0000 </r>
       <r>    2.1511    1.0000 </r>
       <r>    2.2629    1.0000 </r>
       <r>    2.3336    1.0000 </r>
       <r>    2.3923    1.0000 </r>
       <r>    3.0793    1.0000 </r>
       <r>    3.1190    1.0000 </r>
       <r>    3.1478    1.0000 </r>
       <r>    3.1573    1.0000 </r>
       <r>    3.6502    1.0000 </r>
       <r>    3.8006    1.0000 </r>
       <r>    3.9243    1.0000 </r>
       <r>    3.9916    1.0000 </r>
       <r>    4.0880    1.0000 </r>
       <r>    4.2334    1.0000 </r>
       <r>    4.2468    1.0000 </r>
       <r>    5.1864    0.8073 </r>
       <r>    5.2028    0.7513 </r>
       <r>    5.3654    0.1299 </r>
       <r>    5.4139    0.0261 </r>
       <r>    5.5498   -0.0309 </r>
       <r>    5.5724   -0.0261 </r>
       <r>    5.7900   -0.0007 </r>
       <r>    6.1737   -0.0000 </r>
       <r>    6.2778   -0.0000 </r>
       <r>    6.2984   -0.0000 </r>
       <r>    6.3560   -0.0000 </r>
       <r>    6.5419   -0.0000 </r>
       <r>    6.6954   -0.0000 </r>
       <r>    6.8096   -0.0000 </r>
       <r>    7.0106   -0.0000 </r>
       <r>    7.0583   -0.0000 </r>
       <r>    7.1564   -0.0000 </r>
       <r>    7.2202   -0.0000 </r>
       <r>    7.4355   -0.0000 </r>
       <r>    7.4824   -0.0000 </r>
       <r>    7.5035   -0.0000 </r>
       <r>    7.5287   -0.0000 </r>
       <r>    7.5449   -0.0000 </r>
       <r>    7.6305   -0.0000 </r>
       <r>    8.0673   -0.0000 </r>
       <r>    8.0927   -0.0000 </r>
       <r>    8.2443   -0.0000 </r>
      </set>
      <set comment="kpoint 21">
       <r>   -3.4748    1.0000 </r>
       <r>   -3.2613    1.0000 </r>
       <r>   -2.2697    1.0000 </r>
       <r>   -2.1072    1.0000 </r>
       <r>   -1.9412    1.0000 </r>
       <r>   -1.4958    1.0000 </r>
       <r>   -1.3446    1.0000 </r>
       <r>   -1.1884    1.0000 </r>
       <r>   -0.8133    1.0000 </r>
       <r>   -0.2897    1.0000 </r>
       <r>   -0.1351    1.0000 </r>
       <r>   -0.0658    1.0000 </r>
       <r>    0.0927    1.0000 </r>
       <r>    0.6002    1.0000 </r>
       <r>    0.9237    1.0000 </r>
       <r>    1.0459    1.0000 </r>
       <r>    1.1697    1.0000 </r>
       <r>    1.2122    1.0000 </r>
       <r>    1.8125    1.0000 </r>
       <r>    1.8757    1.0000 </r>
       <r>    1.9659    1.0000 </r>
       <r>    2.0959    1.0000 </r>
       <r>    2.1341    1.0000 </r>
       <r>    2.2842    1.0000 </r>
       <r>    2.3049    1.0000 </r>
       <r>    2.4102    1.0000 </r>
       <r>    3.0675    1.0000 </r>
       <r>    3.1076    1.0000 </r>
       <r>    3.1581    1.0000 </r>
       <r>    3.1848    1.0000 </r>
       <r>    3.6401    1.0000 </r>
       <r>    3.7761    1.0000 </r>
       <r>    3.9299    1.0000 </r>
       <r>    3.9865    1.0000 </r>
       <r>    4.1301    1.0000 </r>
       <r>    4.2325    1.0000 </r>
       <r>    4.2501    1.0000 </r>
       <r>    5.1811    0.8240 </r>
       <r>    5.2079    0.7326 </r>
       <r>    5.3708    0.1156 </r>
       <r>    5.4078    0.0361 </r>
       <r>    5.5487   -0.0312 </r>
       <r>    5.5661   -0.0275 </r>
       <r>    5.7905   -0.0006 </r>
       <r>    6.1452   -0.0000 </r>
       <r>    6.2339   -0.0000 </r>
       <r>    6.2933   -0.0000 </r>
       <r>    6.4087   -0.0000 </r>
       <r>    6.5486   -0.0000 </r>
       <r>    6.6643   -0.0000 </r>
       <r>    6.8344   -0.0000 </r>
       <r>    7.0084   -0.0000 </r>
       <r>    7.0628   -0.0000 </r>
       <r>    7.1673   -0.0000 </r>
       <r>    7.2060   -0.0000 </r>
       <r>    7.4011   -0.0000 </r>
       <r>    7.4829   -0.0000 </r>
       <r>    7.5080   -0.0000 </r>
       <r>    7.5410   -0.0000 </r>
       <r>    7.5722   -0.0000 </r>
       <r>    7.6174   -0.0000 </r>
       <r>    8.0704   -0.0000 </r>
       <r>    8.0992   -0.0000 </r>
       <r>    8.2427   -0.0000 </r>
      </set>
      <set comment="kpoint 22">
       <r>   -3.4907    1.0000 </r>
       <r>   -3.2403    1.0000 </r>
       <r>   -2.2510    1.0000 </r>
       <r>   -2.0707    1.0000 </r>
       <r>   -2.0177    1.0000 </r>
       <r>   -1.4374    1.0000 </r>
       <r>   -1.3962    1.0000 </r>
       <r>   -1.1992    1.0000 </r>
       <r>   -0.8134    1.0000 </r>
       <r>   -0.2303    1.0000 </r>
       <r>   -0.1719    1.0000 </r>
       <r>   -0.0265    1.0000 </r>
       <r>    0.0320    1.0000 </r>
       <r>    0.6150    1.0000 </r>
       <r>    0.9847    1.0000 </r>
       <r>    1.0335    1.0000 </r>
       <r>    1.1317    1.0000 </r>
       <r>    1.2134    1.0000 </r>
       <r>    1.8197    1.0000 </r>
       <r>    1.9176    1.0000 </r>
       <r>    1.9804    1.0000 </r>
       <r>    2.0522    1.0000 </r>
       <r>    2.1460    1.0000 </r>
       <r>    2.1975    1.0000 </r>
       <r>    2.3555    1.0000 </r>
       <r>    2.4188    1.0000 </r>
       <r>    3.0359    1.0000 </r>
       <r>    3.0658    1.0000 </r>
       <r>    3.1907    1.0000 </r>
       <r>    3.2060    1.0000 </r>
       <r>    3.6384    1.0000 </r>
       <r>    3.7998    1.0000 </r>
       <r>    3.8985    1.0000 </r>
       <r>    4.0397    1.0000 </r>
       <r>    4.0753    1.0000 </r>
       <r>    4.2387    1.0000 </r>
       <r>    4.2520    1.0000 </r>
       <r>    5.1811    0.8239 </r>
       <r>    5.1926    0.7866 </r>
       <r>    5.3651    0.1308 </r>
       <r>    5.4062    0.0388 </r>
       <r>    5.5572   -0.0294 </r>
       <r>    5.5689   -0.0269 </r>
       <r>    5.7896   -0.0007 </r>
       <r>    6.2087   -0.0000 </r>
       <r>    6.2766   -0.0000 </r>
       <r>    6.2856   -0.0000 </r>
       <r>    6.3186   -0.0000 </r>
       <r>    6.5685   -0.0000 </r>
       <r>    6.7117   -0.0000 </r>
       <r>    6.7677   -0.0000 </r>
       <r>    7.0141   -0.0000 </r>
       <r>    7.0424   -0.0000 </r>
       <r>    7.1688   -0.0000 </r>
       <r>    7.2143   -0.0000 </r>
       <r>    7.4465   -0.0000 </r>
       <r>    7.4856   -0.0000 </r>
       <r>    7.5013   -0.0000 </r>
       <r>    7.5340   -0.0000 </r>
       <r>    7.5603   -0.0000 </r>
       <r>    7.6036   -0.0000 </r>
       <r>    8.1004   -0.0000 </r>
       <r>    8.1356   -0.0000 </r>
       <r>    8.2492   -0.0000 </r>
      </set>
      <set comment="kpoint 23">
       <r>   -3.4902    1.0000 </r>
       <r>   -3.2408    1.0000 </r>
       <r>   -2.2611    1.0000 </r>
       <r>   -2.0826    1.0000 </r>
       <r>   -1.9844    1.0000 </r>
       <r>   -1.4812    1.0000 </r>
       <r>   -1.3627    1.0000 </r>
       <r>   -1.1961    1.0000 </r>
       <r>   -0.8143    1.0000 </r>
       <r>   -0.2578    1.0000 </r>
       <r>   -0.1606    1.0000 </r>
       <r>   -0.0380    1.0000 </r>
       <r>    0.0609    1.0000 </r>
       <r>    0.6089    1.0000 </r>
       <r>    0.9540    1.0000 </r>
       <r>    1.0602    1.0000 </r>
       <r>    1.1382    1.0000 </r>
       <r>    1.2142    1.0000 </r>
       <r>    1.8212    1.0000 </r>
       <r>    1.9017    1.0000 </r>
       <r>    1.9856    1.0000 </r>
       <r>    2.0705    1.0000 </r>
       <r>    2.1225    1.0000 </r>
       <r>    2.2339    1.0000 </r>
       <r>    2.3415    1.0000 </r>
       <r>    2.4061    1.0000 </r>
       <r>    3.0373    1.0000 </r>
       <r>    3.0823    1.0000 </r>
       <r>    3.1943    1.0000 </r>
       <r>    3.2049    1.0000 </r>
       <r>    3.6430    1.0000 </r>
       <r>    3.7651    1.0000 </r>
       <r>    3.9059    1.0000 </r>
       <r>    4.0275    1.0000 </r>
       <r>    4.0980    1.0000 </r>
       <r>    4.2266    1.0000 </r>
       <r>    4.2489    1.0000 </r>
       <r>    5.1896    0.7969 </r>
       <r>    5.2045    0.7450 </r>
       <r>    5.3621    0.1392 </r>
       <r>    5.4076    0.0363 </r>
       <r>    5.5528   -0.0304 </r>
       <r>    5.5705   -0.0265 </r>
       <r>    5.7847   -0.0007 </r>
       <r>    6.1738   -0.0000 </r>
       <r>    6.2629   -0.0000 </r>
       <r>    6.3129   -0.0000 </r>
       <r>    6.3370   -0.0000 </r>
       <r>    6.5651   -0.0000 </r>
       <r>    6.7088   -0.0000 </r>
       <r>    6.7930   -0.0000 </r>
       <r>    6.9885   -0.0000 </r>
       <r>    7.0372   -0.0000 </r>
       <r>    7.1931   -0.0000 </r>
       <r>    7.2102   -0.0000 </r>
       <r>    7.4210   -0.0000 </r>
       <r>    7.4611   -0.0000 </r>
       <r>    7.5227   -0.0000 </r>
       <r>    7.5346   -0.0000 </r>
       <r>    7.5631   -0.0000 </r>
       <r>    7.6334   -0.0000 </r>
       <r>    8.0789   -0.0000 </r>
       <r>    8.1017   -0.0000 </r>
       <r>    8.2290   -0.0000 </r>
      </set>
      <set comment="kpoint 24">
       <r>   -3.4766    1.0000 </r>
       <r>   -3.2602    1.0000 </r>
       <r>   -2.2654    1.0000 </r>
       <r>   -2.0827    1.0000 </r>
       <r>   -1.9660    1.0000 </r>
       <r>   -1.4763    1.0000 </r>
       <r>   -1.3878    1.0000 </r>
       <r>   -1.1840    1.0000 </r>
       <r>   -0.8061    1.0000 </r>
       <r>   -0.2629    1.0000 </r>
       <r>   -0.1690    1.0000 </r>
       <r>   -0.0421    1.0000 </r>
       <r>    0.0823    1.0000 </r>
       <r>    0.6108    1.0000 </r>
       <r>    0.9500    1.0000 </r>
       <r>    1.0276    1.0000 </r>
       <r>    1.1447    1.0000 </r>
       <r>    1.2320    1.0000 </r>
       <r>    1.8005    1.0000 </r>
       <r>    1.8811    1.0000 </r>
       <r>    1.9678    1.0000 </r>
       <r>    2.0747    1.0000 </r>
       <r>    2.1571    1.0000 </r>
       <r>    2.2553    1.0000 </r>
       <r>    2.3374    1.0000 </r>
       <r>    2.3940    1.0000 </r>
       <r>    3.0706    1.0000 </r>
       <r>    3.1033    1.0000 </r>
       <r>    3.1588    1.0000 </r>
       <r>    3.1789    1.0000 </r>
       <r>    3.6486    1.0000 </r>
       <r>    3.8034    1.0000 </r>
       <r>    3.9123    1.0000 </r>
       <r>    4.0004    1.0000 </r>
       <r>    4.1048    1.0000 </r>
       <r>    4.2313    1.0000 </r>
       <r>    4.2455    1.0000 </r>
       <r>    5.1887    0.7998 </r>
       <r>    5.2014    0.7561 </r>
       <r>    5.3595    0.1468 </r>
       <r>    5.4081    0.0356 </r>
       <r>    5.5537   -0.0302 </r>
       <r>    5.5724   -0.0261 </r>
       <r>    5.7865   -0.0007 </r>
       <r>    6.1859   -0.0000 </r>
       <r>    6.2603   -0.0000 </r>
       <r>    6.2992   -0.0000 </r>
       <r>    6.3667   -0.0000 </r>
       <r>    6.5392   -0.0000 </r>
       <r>    6.6916   -0.0000 </r>
       <r>    6.8055   -0.0000 </r>
       <r>    7.0202   -0.0000 </r>
       <r>    7.0291   -0.0000 </r>
       <r>    7.1860   -0.0000 </r>
       <r>    7.2310   -0.0000 </r>
       <r>    7.4241   -0.0000 </r>
       <r>    7.4771   -0.0000 </r>
       <r>    7.4966   -0.0000 </r>
       <r>    7.5207   -0.0000 </r>
       <r>    7.5683   -0.0000 </r>
       <r>    7.6197   -0.0000 </r>
       <r>    8.0615   -0.0000 </r>
       <r>    8.0904   -0.0000 </r>
       <r>    8.2437   -0.0000 </r>
      </set>
      <set comment="kpoint 25">
       <r>   -3.4755    1.0000 </r>
       <r>   -3.2604    1.0000 </r>
       <r>   -2.2742    1.0000 </r>
       <r>   -2.0536    1.0000 </r>
       <r>   -2.0049    1.0000 </r>
       <r>   -1.4464    1.0000 </r>
       <r>   -1.3924    1.0000 </r>
       <r>   -1.1749    1.0000 </r>
       <r>   -0.8216    1.0000 </r>
       <r>   -0.2356    1.0000 </r>
       <r>   -0.1859    1.0000 </r>
       <r>   -0.0105    1.0000 </r>
       <r>    0.0323    1.0000 </r>
       <r>    0.6146    1.0000 </r>
       <r>    0.9595    1.0000 </r>
       <r>    1.0180    1.0000 </r>
       <r>    1.1300    1.0000 </r>
       <r>    1.2285    1.0000 </r>
       <r>    1.8156    1.0000 </r>
       <r>    1.8921    1.0000 </r>
       <r>    1.9979    1.0000 </r>
       <r>    2.0763    1.0000 </r>
       <r>    2.1532    1.0000 </r>
       <r>    2.2221    1.0000 </r>
       <r>    2.3519    1.0000 </r>
       <r>    2.3699    1.0000 </r>
       <r>    3.0758    1.0000 </r>
       <r>    3.1088    1.0000 </r>
       <r>    3.1628    1.0000 </r>
       <r>    3.1776    1.0000 </r>
       <r>    3.6382    1.0000 </r>
       <r>    3.8037    1.0000 </r>
       <r>    3.8990    1.0000 </r>
       <r>    4.0476    1.0000 </r>
       <r>    4.0755    1.0000 </r>
       <r>    4.2350    1.0000 </r>
       <r>    4.2586    1.0000 </r>
       <r>    5.1864    0.8074 </r>
       <r>    5.1949    0.7789 </r>
       <r>    5.3498    0.1758 </r>
       <r>    5.4067    0.0379 </r>
       <r>    5.5589   -0.0291 </r>
       <r>    5.5734   -0.0259 </r>
       <r>    5.7920   -0.0006 </r>
       <r>    6.2044   -0.0000 </r>
       <r>    6.2611   -0.0000 </r>
       <r>    6.2956   -0.0000 </r>
       <r>    6.3386   -0.0000 </r>
       <r>    6.5468   -0.0000 </r>
       <r>    6.7188   -0.0000 </r>
       <r>    6.7682   -0.0000 </r>
       <r>    6.9935   -0.0000 </r>
       <r>    7.0277   -0.0000 </r>
       <r>    7.1914   -0.0000 </r>
       <r>    7.2339   -0.0000 </r>
       <r>    7.4128   -0.0000 </r>
       <r>    7.4632   -0.0000 </r>
       <r>    7.5108   -0.0000 </r>
       <r>    7.5530   -0.0000 </r>
       <r>    7.5710   -0.0000 </r>
       <r>    7.6005   -0.0000 </r>
       <r>    8.0693   -0.0000 </r>
       <r>    8.0977   -0.0000 </r>
       <r>    8.2671   -0.0000 </r>
      </set>
      <set comment="kpoint 26">
       <r>   -3.4744    1.0000 </r>
       <r>   -3.2624    1.0000 </r>
       <r>   -2.2465    1.0000 </r>
       <r>   -2.1296    1.0000 </r>
       <r>   -1.9513    1.0000 </r>
       <r>   -1.4847    1.0000 </r>
       <r>   -1.3371    1.0000 </r>
       <r>   -1.1999    1.0000 </r>
       <r>   -0.8024    1.0000 </r>
       <r>   -0.2904    1.0000 </r>
       <r>   -0.1421    1.0000 </r>
       <r>   -0.0819    1.0000 </r>
       <r>    0.1036    1.0000 </r>
       <r>    0.6054    1.0000 </r>
       <r>    0.9285    1.0000 </r>
       <r>    1.0758    1.0000 </r>
       <r>    1.1231    1.0000 </r>
       <r>    1.2214    1.0000 </r>
       <r>    1.7970    1.0000 </r>
       <r>    1.9216    1.0000 </r>
       <r>    1.9564    1.0000 </r>
       <r>    2.0807    1.0000 </r>
       <r>    2.1298    1.0000 </r>
       <r>    2.2515    1.0000 </r>
       <r>    2.3151    1.0000 </r>
       <r>    2.4380    1.0000 </r>
       <r>    3.0725    1.0000 </r>
       <r>    3.1036    1.0000 </r>
       <r>    3.1524    1.0000 </r>
       <r>    3.1901    1.0000 </r>
       <r>    3.6437    1.0000 </r>
       <r>    3.7610    1.0000 </r>
       <r>    3.9051    1.0000 </r>
       <r>    4.0020    1.0000 </r>
       <r>    4.1491    1.0000 </r>
       <r>    4.2298    1.0000 </r>
       <r>    4.2479    1.0000 </r>
       <r>    5.1884    0.8006 </r>
       <r>    5.1938    0.7825 </r>
       <r>    5.3495    0.1767 </r>
       <r>    5.4171    0.0214 </r>
       <r>    5.5649   -0.0278 </r>
       <r>    5.5845   -0.0233 </r>
       <r>    5.7918   -0.0006 </r>
       <r>    6.1362   -0.0000 </r>
       <r>    6.2304   -0.0000 </r>
       <r>    6.3438   -0.0000 </r>
       <r>    6.3578   -0.0000 </r>
       <r>    6.5631   -0.0000 </r>
       <r>    6.6658   -0.0000 </r>
       <r>    6.8190   -0.0000 </r>
       <r>    6.9709   -0.0000 </r>
       <r>    7.0528   -0.0000 </r>
       <r>    7.2006   -0.0000 </r>
       <r>    7.2308   -0.0000 </r>
       <r>    7.4126   -0.0000 </r>
       <r>    7.4476   -0.0000 </r>
       <r>    7.5066   -0.0000 </r>
       <r>    7.5405   -0.0000 </r>
       <r>    7.5587   -0.0000 </r>
       <r>    7.6339   -0.0000 </r>
       <r>    8.0800   -0.0000 </r>
       <r>    8.1061   -0.0000 </r>
       <r>    8.2274   -0.0000 </r>
      </set>
      <set comment="kpoint 27">
       <r>   -3.4722    1.0000 </r>
       <r>   -3.2677    1.0000 </r>
       <r>   -2.2456    1.0000 </r>
       <r>   -2.0901    1.0000 </r>
       <r>   -1.9837    1.0000 </r>
       <r>   -1.4667    1.0000 </r>
       <r>   -1.3620    1.0000 </r>
       <r>   -1.2160    1.0000 </r>
       <r>   -0.7875    1.0000 </r>
       <r>   -0.2993    1.0000 </r>
       <r>   -0.1633    1.0000 </r>
       <r>   -0.0171    1.0000 </r>
       <r>    0.0650    1.0000 </r>
       <r>    0.6056    1.0000 </r>
       <r>    0.9503    1.0000 </r>
       <r>    1.0654    1.0000 </r>
       <r>    1.1140    1.0000 </r>
       <r>    1.2324    1.0000 </r>
       <r>    1.8045    1.0000 </r>
       <r>    1.9189    1.0000 </r>
       <r>    1.9696    1.0000 </r>
       <r>    2.0548    1.0000 </r>
       <r>    2.1437    1.0000 </r>
       <r>    2.2487    1.0000 </r>
       <r>    2.3433    1.0000 </r>
       <r>    2.4068    1.0000 </r>
       <r>    3.0759    1.0000 </r>
       <r>    3.1100    1.0000 </r>
       <r>    3.1462    1.0000 </r>
       <r>    3.1636    1.0000 </r>
       <r>    3.6460    1.0000 </r>
       <r>    3.7988    1.0000 </r>
       <r>    3.9184    1.0000 </r>
       <r>    3.9916    1.0000 </r>
       <r>    4.0922    1.0000 </r>
       <r>    4.2347    1.0000 </r>
       <r>    4.2563    1.0000 </r>
       <r>    5.1806    0.8257 </r>
       <r>    5.2001    0.7609 </r>
       <r>    5.3699    0.1178 </r>
       <r>    5.4068    0.0377 </r>
       <r>    5.5654   -0.0277 </r>
       <r>    5.5828   -0.0237 </r>
       <r>    5.7872   -0.0007 </r>
       <r>    6.1722   -0.0000 </r>
       <r>    6.2542   -0.0000 </r>
       <r>    6.2821   -0.0000 </r>
       <r>    6.3736   -0.0000 </r>
       <r>    6.5620   -0.0000 </r>
       <r>    6.6973   -0.0000 </r>
       <r>    6.7915   -0.0000 </r>
       <r>    7.0164   -0.0000 </r>
       <r>    7.0634   -0.0000 </r>
       <r>    7.1761   -0.0000 </r>
       <r>    7.2156   -0.0000 </r>
       <r>    7.4177   -0.0000 </r>
       <r>    7.4597   -0.0000 </r>
       <r>    7.4892   -0.0000 </r>
       <r>    7.5283   -0.0000 </r>
       <r>    7.5695   -0.0000 </r>
       <r>    7.6027   -0.0000 </r>
       <r>    8.0963   -0.0000 </r>
       <r>    8.1016   -0.0000 </r>
       <r>    8.2249   -0.0000 </r>
      </set>
      <set comment="kpoint 28">
       <r>   -3.4764    1.0000 </r>
       <r>   -3.2611    1.0000 </r>
       <r>   -2.2426    1.0000 </r>
       <r>   -2.0718    1.0000 </r>
       <r>   -2.0191    1.0000 </r>
       <r>   -1.4345    1.0000 </r>
       <r>   -1.3944    1.0000 </r>
       <r>   -1.2054    1.0000 </r>
       <r>   -0.7976    1.0000 </r>
       <r>   -0.2386    1.0000 </r>
       <r>   -0.1867    1.0000 </r>
       <r>   -0.0147    1.0000 </r>
       <r>    0.0354    1.0000 </r>
       <r>    0.6220    1.0000 </r>
       <r>    0.9724    1.0000 </r>
       <r>    1.0336    1.0000 </r>
       <r>    1.1133    1.0000 </r>
       <r>    1.2255    1.0000 </r>
       <r>    1.8118    1.0000 </r>
       <r>    1.9023    1.0000 </r>
       <r>    1.9877    1.0000 </r>
       <r>    2.0451    1.0000 </r>
       <r>    2.1366    1.0000 </r>
       <r>    2.2214    1.0000 </r>
       <r>    2.3538    1.0000 </r>
       <r>    2.4218    1.0000 </r>
       <r>    3.0686    1.0000 </r>
       <r>    3.1016    1.0000 </r>
       <r>    3.1586    1.0000 </r>
       <r>    3.1749    1.0000 </r>
       <r>    3.6461    1.0000 </r>
       <r>    3.7964    1.0000 </r>
       <r>    3.8985    1.0000 </r>
       <r>    4.0346    1.0000 </r>
       <r>    4.0919    1.0000 </r>
       <r>    4.2374    1.0000 </r>
       <r>    4.2504    1.0000 </r>
       <r>    5.1859    0.8087 </r>
       <r>    5.1914    0.7907 </r>
       <r>    5.3493    0.1774 </r>
       <r>    5.3957    0.0583 </r>
       <r>    5.5792   -0.0245 </r>
       <r>    5.5908   -0.0218 </r>
       <r>    5.7822   -0.0008 </r>
       <r>    6.2080   -0.0000 </r>
       <r>    6.2604   -0.0000 </r>
       <r>    6.2886   -0.0000 </r>
       <r>    6.3484   -0.0000 </r>
       <r>    6.5648   -0.0000 </r>
       <r>    6.7083   -0.0000 </r>
       <r>    6.7628   -0.0000 </r>
       <r>    6.9919   -0.0000 </r>
       <r>    7.0396   -0.0000 </r>
       <r>    7.1994   -0.0000 </r>
       <r>    7.2413   -0.0000 </r>
       <r>    7.4453   -0.0000 </r>
       <r>    7.4606   -0.0000 </r>
       <r>    7.4915   -0.0000 </r>
       <r>    7.5229   -0.0000 </r>
       <r>    7.5605   -0.0000 </r>
       <r>    7.5919   -0.0000 </r>
       <r>    8.0910   -0.0000 </r>
       <r>    8.1030   -0.0000 </r>
       <r>    8.2379   -0.0000 </r>
      </set>
      <set comment="kpoint 29">
       <r>   -3.8818    1.0000 </r>
       <r>   -2.4568    1.0000 </r>
       <r>   -2.1211    1.0000 </r>
       <r>   -1.9794    1.0000 </r>
       <r>   -1.8085    1.0000 </r>
       <r>   -1.6222    1.0000 </r>
       <r>   -1.2437    1.0000 </r>
       <r>   -1.0943    1.0000 </r>
       <r>   -0.9457    1.0000 </r>
       <r>   -0.8528    1.0000 </r>
       <r>   -0.7002    1.0000 </r>
       <r>   -0.4065    1.0000 </r>
       <r>   -0.2621    1.0000 </r>
       <r>   -0.0901    1.0000 </r>
       <r>    0.6221    1.0000 </r>
       <r>    0.9319    1.0000 </r>
       <r>    1.0889    1.0000 </r>
       <r>    1.7221    1.0000 </r>
       <r>    1.7888    1.0000 </r>
       <r>    1.8891    1.0000 </r>
       <r>    2.5306    1.0000 </r>
       <r>    2.5468    1.0000 </r>
       <r>    2.7406    1.0000 </r>
       <r>    3.1842    1.0000 </r>
       <r>    3.2637    1.0000 </r>
       <r>    3.3645    1.0000 </r>
       <r>    3.3918    1.0000 </r>
       <r>    3.4428    1.0000 </r>
       <r>    3.4761    1.0000 </r>
       <r>    3.6130    1.0000 </r>
       <r>    3.6633    1.0000 </r>
       <r>    3.8370    1.0000 </r>
       <r>    3.9944    1.0000 </r>
       <r>    4.0605    1.0000 </r>
       <r>    4.1198    1.0000 </r>
       <r>    4.2318    1.0000 </r>
       <r>    4.6076    1.0000 </r>
       <r>    4.6352    1.0000 </r>
       <r>    4.6917    1.0002 </r>
       <r>    4.8404    1.0052 </r>
       <r>    4.9687    1.0284 </r>
       <r>    5.0329    1.0348 </r>
       <r>    5.1481    0.9138 </r>
       <r>    5.1810    0.8245 </r>
       <r>    5.2567    0.5369 </r>
       <r>    5.3554    0.1588 </r>
       <r>    5.4749   -0.0294 </r>
       <r>    6.0797   -0.0000 </r>
       <r>    6.0992   -0.0000 </r>
       <r>    6.1863   -0.0000 </r>
       <r>    6.3973   -0.0000 </r>
       <r>    6.4553   -0.0000 </r>
       <r>    6.5523   -0.0000 </r>
       <r>    6.5915   -0.0000 </r>
       <r>    6.7316   -0.0000 </r>
       <r>    6.9037   -0.0000 </r>
       <r>    6.9539   -0.0000 </r>
       <r>    6.9905   -0.0000 </r>
       <r>    7.2455   -0.0000 </r>
       <r>    7.7375   -0.0000 </r>
       <r>    8.0663   -0.0000 </r>
       <r>    8.0830   -0.0000 </r>
       <r>    8.5534   -0.0000 </r>
       <r>    8.7457   -0.0000 </r>
      </set>
      <set comment="kpoint 30">
       <r>   -3.8823    1.0000 </r>
       <r>   -2.4486    1.0000 </r>
       <r>   -2.1245    1.0000 </r>
       <r>   -1.9697    1.0000 </r>
       <r>   -1.8408    1.0000 </r>
       <r>   -1.6073    1.0000 </r>
       <r>   -1.2230    1.0000 </r>
       <r>   -1.1274    1.0000 </r>
       <r>   -0.9246    1.0000 </r>
       <r>   -0.8465    1.0000 </r>
       <r>   -0.7234    1.0000 </r>
       <r>   -0.3883    1.0000 </r>
       <r>   -0.2634    1.0000 </r>
       <r>   -0.0969    1.0000 </r>
       <r>    0.6245    1.0000 </r>
       <r>    0.9347    1.0000 </r>
       <r>    1.0875    1.0000 </r>
       <r>    1.7146    1.0000 </r>
       <r>    1.7909    1.0000 </r>
       <r>    1.8932    1.0000 </r>
       <r>    2.5291    1.0000 </r>
       <r>    2.5499    1.0000 </r>
       <r>    2.7431    1.0000 </r>
       <r>    3.1725    1.0000 </r>
       <r>    3.2602    1.0000 </r>
       <r>    3.3667    1.0000 </r>
       <r>    3.3852    1.0000 </r>
       <r>    3.4442    1.0000 </r>
       <r>    3.4810    1.0000 </r>
       <r>    3.6250    1.0000 </r>
       <r>    3.6728    1.0000 </r>
       <r>    3.8396    1.0000 </r>
       <r>    3.9933    1.0000 </r>
       <r>    4.0608    1.0000 </r>
       <r>    4.1235    1.0000 </r>
       <r>    4.2276    1.0000 </r>
       <r>    4.5780    1.0000 </r>
       <r>    4.6226    1.0000 </r>
       <r>    4.7156    1.0004 </r>
       <r>    4.8333    1.0046 </r>
       <r>    4.9554    1.0254 </r>
       <r>    5.0345    1.0346 </r>
       <r>    5.1453    0.9204 </r>
       <r>    5.1798    0.8282 </r>
       <r>    5.2653    0.5004 </r>
       <r>    5.3866    0.0773 </r>
       <r>    5.4464   -0.0122 </r>
       <r>    6.0916   -0.0000 </r>
       <r>    6.1063   -0.0000 </r>
       <r>    6.1626   -0.0000 </r>
       <r>    6.4151   -0.0000 </r>
       <r>    6.4522   -0.0000 </r>
       <r>    6.5547   -0.0000 </r>
       <r>    6.5872   -0.0000 </r>
       <r>    6.7489   -0.0000 </r>
       <r>    6.8941   -0.0000 </r>
       <r>    6.9700   -0.0000 </r>
       <r>    6.9934   -0.0000 </r>
       <r>    7.2372   -0.0000 </r>
       <r>    7.7356   -0.0000 </r>
       <r>    8.0736   -0.0000 </r>
       <r>    8.0781   -0.0000 </r>
       <r>    8.5439   -0.0000 </r>
       <r>    8.7341   -0.0000 </r>
      </set>
      <set comment="kpoint 31">
       <r>   -3.8820    1.0000 </r>
       <r>   -2.4557    1.0000 </r>
       <r>   -2.0721    1.0000 </r>
       <r>   -2.0346    1.0000 </r>
       <r>   -1.8089    1.0000 </r>
       <r>   -1.6388    1.0000 </r>
       <r>   -1.2309    1.0000 </r>
       <r>   -1.0386    1.0000 </r>
       <r>   -0.9866    1.0000 </r>
       <r>   -0.8143    1.0000 </r>
       <r>   -0.7581    1.0000 </r>
       <r>   -0.4054    1.0000 </r>
       <r>   -0.1928    1.0000 </r>
       <r>   -0.1493    1.0000 </r>
       <r>    0.6302    1.0000 </r>
       <r>    0.9831    1.0000 </r>
       <r>    1.0287    1.0000 </r>
       <r>    1.7655    1.0000 </r>
       <r>    1.7949    1.0000 </r>
       <r>    1.8230    1.0000 </r>
       <r>    2.5367    1.0000 </r>
       <r>    2.5444    1.0000 </r>
       <r>    2.7414    1.0000 </r>
       <r>    3.2543    1.0000 </r>
       <r>    3.2825    1.0000 </r>
       <r>    3.3275    1.0000 </r>
       <r>    3.3536    1.0000 </r>
       <r>    3.4789    1.0000 </r>
       <r>    3.5048    1.0000 </r>
       <r>    3.5700    1.0000 </r>
       <r>    3.6442    1.0000 </r>
       <r>    3.8297    1.0000 </r>
       <r>    3.9975    1.0000 </r>
       <r>    4.0515    1.0000 </r>
       <r>    4.1626    1.0000 </r>
       <r>    4.1964    1.0000 </r>
       <r>    4.6125    1.0000 </r>
       <r>    4.6306    1.0000 </r>
       <r>    4.7515    1.0008 </r>
       <r>    4.7923    1.0021 </r>
       <r>    4.9730    1.0293 </r>
       <r>    4.9926    1.0330 </r>
       <r>    5.1602    0.8841 </r>
       <r>    5.1861    0.8082 </r>
       <r>    5.2915    0.3909 </r>
       <r>    5.3269    0.2531 </r>
       <r>    5.4697   -0.0272 </r>
       <r>    6.0833   -0.0000 </r>
       <r>    6.0955   -0.0000 </r>
       <r>    6.1854   -0.0000 </r>
       <r>    6.4313   -0.0000 </r>
       <r>    6.4688   -0.0000 </r>
       <r>    6.5131   -0.0000 </r>
       <r>    6.5852   -0.0000 </r>
       <r>    6.7917   -0.0000 </r>
       <r>    6.8518   -0.0000 </r>
       <r>    6.9573   -0.0000 </r>
       <r>    6.9894   -0.0000 </r>
       <r>    7.2517   -0.0000 </r>
       <r>    7.7352   -0.0000 </r>
       <r>    8.0688   -0.0000 </r>
       <r>    8.0836   -0.0000 </r>
       <r>    8.6111   -0.0000 </r>
       <r>    8.6784   -0.0000 </r>
      </set>
      <set comment="kpoint 32">
       <r>   -3.8818    1.0000 </r>
       <r>   -2.4613    1.0000 </r>
       <r>   -2.0898    1.0000 </r>
       <r>   -2.0104    1.0000 </r>
       <r>   -1.8095    1.0000 </r>
       <r>   -1.6222    1.0000 </r>
       <r>   -1.2402    1.0000 </r>
       <r>   -1.0668    1.0000 </r>
       <r>   -0.9501    1.0000 </r>
       <r>   -0.8500    1.0000 </r>
       <r>   -0.7475    1.0000 </r>
       <r>   -0.3967    1.0000 </r>
       <r>   -0.2293    1.0000 </r>
       <r>   -0.1083    1.0000 </r>
       <r>    0.6255    1.0000 </r>
       <r>    0.9513    1.0000 </r>
       <r>    1.0496    1.0000 </r>
       <r>    1.7530    1.0000 </r>
       <r>    1.7856    1.0000 </r>
       <r>    1.8772    1.0000 </r>
       <r>    2.5300    1.0000 </r>
       <r>    2.5427    1.0000 </r>
       <r>    2.7396    1.0000 </r>
       <r>    3.2178    1.0000 </r>
       <r>    3.2898    1.0000 </r>
       <r>    3.3334    1.0000 </r>
       <r>    3.3709    1.0000 </r>
       <r>    3.4762    1.0000 </r>
       <r>    3.4880    1.0000 </r>
       <r>    3.5664    1.0000 </r>
       <r>    3.6482    1.0000 </r>
       <r>    3.8610    1.0000 </r>
       <r>    3.9954    1.0000 </r>
       <r>    4.0401    1.0000 </r>
       <r>    4.1425    1.0000 </r>
       <r>    4.2157    1.0000 </r>
       <r>    4.6031    1.0000 </r>
       <r>    4.6252    1.0000 </r>
       <r>    4.7219    1.0004 </r>
       <r>    4.8204    1.0036 </r>
       <r>    4.9725    1.0292 </r>
       <r>    5.0052    1.0346 </r>
       <r>    5.1472    0.9160 </r>
       <r>    5.1843    0.8140 </r>
       <r>    5.2885    0.4033 </r>
       <r>    5.3443    0.1934 </r>
       <r>    5.4702   -0.0274 </r>
       <r>    6.0896   -0.0000 </r>
       <r>    6.0989   -0.0000 </r>
       <r>    6.1846   -0.0000 </r>
       <r>    6.4164   -0.0000 </r>
       <r>    6.4573   -0.0000 </r>
       <r>    6.5407   -0.0000 </r>
       <r>    6.5847   -0.0000 </r>
       <r>    6.7720   -0.0000 </r>
       <r>    6.8463   -0.0000 </r>
       <r>    6.9715   -0.0000 </r>
       <r>    7.0119   -0.0000 </r>
       <r>    7.2403   -0.0000 </r>
       <r>    7.7338   -0.0000 </r>
       <r>    8.0602   -0.0000 </r>
       <r>    8.0772   -0.0000 </r>
       <r>    8.5929   -0.0000 </r>
       <r>    8.7140   -0.0000 </r>
      </set>
      <set comment="kpoint 33">
       <r>   -3.8817    1.0000 </r>
       <r>   -2.4556    1.0000 </r>
       <r>   -2.1233    1.0000 </r>
       <r>   -1.9810    1.0000 </r>
       <r>   -1.8119    1.0000 </r>
       <r>   -1.6263    1.0000 </r>
       <r>   -1.2314    1.0000 </r>
       <r>   -1.0832    1.0000 </r>
       <r>   -0.9178    1.0000 </r>
       <r>   -0.8757    1.0000 </r>
       <r>   -0.7175    1.0000 </r>
       <r>   -0.4110    1.0000 </r>
       <r>   -0.2601    1.0000 </r>
       <r>   -0.0886    1.0000 </r>
       <r>    0.6238    1.0000 </r>
       <r>    0.9294    1.0000 </r>
       <r>    1.0782    1.0000 </r>
       <r>    1.7165    1.0000 </r>
       <r>    1.8089    1.0000 </r>
       <r>    1.8892    1.0000 </r>
       <r>    2.5306    1.0000 </r>
       <r>    2.5508    1.0000 </r>
       <r>    2.7300    1.0000 </r>
       <r>    3.1913    1.0000 </r>
       <r>    3.2615    1.0000 </r>
       <r>    3.3721    1.0000 </r>
       <r>    3.3997    1.0000 </r>
       <r>    3.4489    1.0000 </r>
       <r>    3.4696    1.0000 </r>
       <r>    3.6042    1.0000 </r>
       <r>    3.6589    1.0000 </r>
       <r>    3.8564    1.0000 </r>
       <r>    3.9844    1.0000 </r>
       <r>    4.0591    1.0000 </r>
       <r>    4.1185    1.0000 </r>
       <r>    4.2239    1.0000 </r>
       <r>    4.5920    1.0000 </r>
       <r>    4.6322    1.0000 </r>
       <r>    4.7056    1.0003 </r>
       <r>    4.8466    1.0058 </r>
       <r>    4.9553    1.0254 </r>
       <r>    5.0221    1.0354 </r>
       <r>    5.1431    0.9252 </r>
       <r>    5.1918    0.7894 </r>
       <r>    5.2591    0.5269 </r>
       <r>    5.3481    0.1810 </r>
       <r>    5.4937   -0.0343 </r>
       <r>    6.0816   -0.0000 </r>
       <r>    6.0982   -0.0000 </r>
       <r>    6.1898   -0.0000 </r>
       <r>    6.4085   -0.0000 </r>
       <r>    6.4355   -0.0000 </r>
       <r>    6.5495   -0.0000 </r>
       <r>    6.5852   -0.0000 </r>
       <r>    6.7374   -0.0000 </r>
       <r>    6.8973   -0.0000 </r>
       <r>    6.9739   -0.0000 </r>
       <r>    7.0124   -0.0000 </r>
       <r>    7.2302   -0.0000 </r>
       <r>    7.7375   -0.0000 </r>
       <r>    8.0652   -0.0000 </r>
       <r>    8.0760   -0.0000 </r>
       <r>    8.5417   -0.0000 </r>
       <r>    8.7344   -0.0000 </r>
      </set>
      <set comment="kpoint 34">
       <r>   -3.8824    1.0000 </r>
       <r>   -2.4470    1.0000 </r>
       <r>   -2.0716    1.0000 </r>
       <r>   -2.0255    1.0000 </r>
       <r>   -1.8567    1.0000 </r>
       <r>   -1.6156    1.0000 </r>
       <r>   -1.2164    1.0000 </r>
       <r>   -1.0552    1.0000 </r>
       <r>   -0.9776    1.0000 </r>
       <r>   -0.8198    1.0000 </r>
       <r>   -0.7517    1.0000 </r>
       <r>   -0.3877    1.0000 </r>
       <r>   -0.2085    1.0000 </r>
       <r>   -0.1555    1.0000 </r>
       <r>    0.6311    1.0000 </r>
       <r>    0.9786    1.0000 </r>
       <r>    1.0346    1.0000 </r>
       <r>    1.7673    1.0000 </r>
       <r>    1.7929    1.0000 </r>
       <r>    1.8338    1.0000 </r>
       <r>    2.5264    1.0000 </r>
       <r>    2.5388    1.0000 </r>
       <r>    2.7369    1.0000 </r>
       <r>    3.2424    1.0000 </r>
       <r>    3.2993    1.0000 </r>
       <r>    3.3284    1.0000 </r>
       <r>    3.3764    1.0000 </r>
       <r>    3.4800    1.0000 </r>
       <r>    3.5009    1.0000 </r>
       <r>    3.5649    1.0000 </r>
       <r>    3.6363    1.0000 </r>
       <r>    3.8512    1.0000 </r>
       <r>    3.9980    1.0000 </r>
       <r>    4.0456    1.0000 </r>
       <r>    4.1481    1.0000 </r>
       <r>    4.2000    1.0000 </r>
       <r>    4.5953    1.0000 </r>
       <r>    4.6194    1.0000 </r>
       <r>    4.7429    1.0007 </r>
       <r>    4.8080    1.0028 </r>
       <r>    4.9801    1.0308 </r>
       <r>    4.9943    1.0333 </r>
       <r>    5.1565    0.8936 </r>
       <r>    5.1745    0.8441 </r>
       <r>    5.3050    0.3363 </r>
       <r>    5.3471    0.1843 </r>
       <r>    5.4493   -0.0146 </r>
       <r>    6.0871   -0.0000 </r>
       <r>    6.0978   -0.0000 </r>
       <r>    6.1707   -0.0000 </r>
       <r>    6.4320   -0.0000 </r>
       <r>    6.4637   -0.0000 </r>
       <r>    6.5115   -0.0000 </r>
       <r>    6.5934   -0.0000 </r>
       <r>    6.8087   -0.0000 </r>
       <r>    6.8554   -0.0000 </r>
       <r>    6.9747   -0.0000 </r>
       <r>    6.9911   -0.0000 </r>
       <r>    7.2306   -0.0000 </r>
       <r>    7.7287   -0.0000 </r>
       <r>    8.0743   -0.0000 </r>
       <r>    8.0821   -0.0000 </r>
       <r>    8.6010   -0.0000 </r>
       <r>    8.6832   -0.0000 </r>
      </set>
      <set comment="kpoint 35">
       <r>   -3.8823    1.0000 </r>
       <r>   -2.4523    1.0000 </r>
       <r>   -2.0990    1.0000 </r>
       <r>   -1.9899    1.0000 </r>
       <r>   -1.8550    1.0000 </r>
       <r>   -1.5973    1.0000 </r>
       <r>   -1.2326    1.0000 </r>
       <r>   -1.0803    1.0000 </r>
       <r>   -0.9692    1.0000 </r>
       <r>   -0.8338    1.0000 </r>
       <r>   -0.7323    1.0000 </r>
       <r>   -0.3931    1.0000 </r>
       <r>   -0.2194    1.0000 </r>
       <r>   -0.1307    1.0000 </r>
       <r>    0.6226    1.0000 </r>
       <r>    0.9562    1.0000 </r>
       <r>    1.0543    1.0000 </r>
       <r>    1.7435    1.0000 </r>
       <r>    1.8076    1.0000 </r>
       <r>    1.8632    1.0000 </r>
       <r>    2.5298    1.0000 </r>
       <r>    2.5469    1.0000 </r>
       <r>    2.7291    1.0000 </r>
       <r>    3.2178    1.0000 </r>
       <r>    3.2902    1.0000 </r>
       <r>    3.3270    1.0000 </r>
       <r>    3.3793    1.0000 </r>
       <r>    3.4689    1.0000 </r>
       <r>    3.4837    1.0000 </r>
       <r>    3.5875    1.0000 </r>
       <r>    3.6642    1.0000 </r>
       <r>    3.8458    1.0000 </r>
       <r>    3.9910    1.0000 </r>
       <r>    4.0377    1.0000 </r>
       <r>    4.1369    1.0000 </r>
       <r>    4.2240    1.0000 </r>
       <r>    4.5953    1.0000 </r>
       <r>    4.6063    1.0000 </r>
       <r>    4.7197    1.0004 </r>
       <r>    4.8234    1.0038 </r>
       <r>    4.9752    1.0298 </r>
       <r>    5.0173    1.0354 </r>
       <r>    5.1501    0.9092 </r>
       <r>    5.1831    0.8177 </r>
       <r>    5.2915    0.3908 </r>
       <r>    5.3741    0.1069 </r>
       <r>    5.4512   -0.0161 </r>
       <r>    6.0804   -0.0000 </r>
       <r>    6.1066   -0.0000 </r>
       <r>    6.1694   -0.0000 </r>
       <r>    6.4140   -0.0000 </r>
       <r>    6.4590   -0.0000 </r>
       <r>    6.5282   -0.0000 </r>
       <r>    6.5924   -0.0000 </r>
       <r>    6.7741   -0.0000 </r>
       <r>    6.8629   -0.0000 </r>
       <r>    6.9718   -0.0000 </r>
       <r>    6.9951   -0.0000 </r>
       <r>    7.2470   -0.0000 </r>
       <r>    7.7287   -0.0000 </r>
       <r>    8.0662   -0.0000 </r>
       <r>    8.0822   -0.0000 </r>
       <r>    8.5827   -0.0000 </r>
       <r>    8.6962   -0.0000 </r>
      </set>
      <set comment="kpoint 36">
       <r>   -3.8819    1.0000 </r>
       <r>   -2.4569    1.0000 </r>
       <r>   -2.0930    1.0000 </r>
       <r>   -2.0112    1.0000 </r>
       <r>   -1.8133    1.0000 </r>
       <r>   -1.6251    1.0000 </r>
       <r>   -1.2486    1.0000 </r>
       <r>   -1.0503    1.0000 </r>
       <r>   -0.9511    1.0000 </r>
       <r>   -0.8488    1.0000 </r>
       <r>   -0.7336    1.0000 </r>
       <r>   -0.4035    1.0000 </r>
       <r>   -0.2341    1.0000 </r>
       <r>   -0.1179    1.0000 </r>
       <r>    0.6288    1.0000 </r>
       <r>    0.9517    1.0000 </r>
       <r>    1.0542    1.0000 </r>
       <r>    1.7451    1.0000 </r>
       <r>    1.8001    1.0000 </r>
       <r>    1.8724    1.0000 </r>
       <r>    2.5255    1.0000 </r>
       <r>    2.5444    1.0000 </r>
       <r>    2.7356    1.0000 </r>
       <r>    3.2199    1.0000 </r>
       <r>    3.2890    1.0000 </r>
       <r>    3.3264    1.0000 </r>
       <r>    3.3552    1.0000 </r>
       <r>    3.4467    1.0000 </r>
       <r>    3.4909    1.0000 </r>
       <r>    3.5826    1.0000 </r>
       <r>    3.6773    1.0000 </r>
       <r>    3.8616    1.0000 </r>
       <r>    3.9901    1.0000 </r>
       <r>    4.0436    1.0000 </r>
       <r>    4.1412    1.0000 </r>
       <r>    4.2277    1.0000 </r>
       <r>    4.6179    1.0000 </r>
       <r>    4.6214    1.0000 </r>
       <r>    4.7223    1.0004 </r>
       <r>    4.8178    1.0034 </r>
       <r>    4.9745    1.0296 </r>
       <r>    5.0269    1.0353 </r>
       <r>    5.1380    0.9361 </r>
       <r>    5.1769    0.8372 </r>
       <r>    5.2839    0.4223 </r>
       <r>    5.3316    0.2362 </r>
       <r>    5.4653   -0.0250 </r>
       <r>    6.0917   -0.0000 </r>
       <r>    6.1027   -0.0000 </r>
       <r>    6.1891   -0.0000 </r>
       <r>    6.4284   -0.0000 </r>
       <r>    6.4409   -0.0000 </r>
       <r>    6.5280   -0.0000 </r>
       <r>    6.5855   -0.0000 </r>
       <r>    6.7578   -0.0000 </r>
       <r>    6.8531   -0.0000 </r>
       <r>    6.9778   -0.0000 </r>
       <r>    7.0120   -0.0000 </r>
       <r>    7.2422   -0.0000 </r>
       <r>    7.7393   -0.0000 </r>
       <r>    8.0671   -0.0000 </r>
       <r>    8.0746   -0.0000 </r>
       <r>    8.5802   -0.0000 </r>
       <r>    8.7097   -0.0000 </r>
      </set>
      <set comment="kpoint 37">
       <r>   -3.8819    1.0000 </r>
       <r>   -2.4502    1.0000 </r>
       <r>   -2.0783    1.0000 </r>
       <r>   -2.0369    1.0000 </r>
       <r>   -1.8146    1.0000 </r>
       <r>   -1.6449    1.0000 </r>
       <r>   -1.2233    1.0000 </r>
       <r>   -1.0387    1.0000 </r>
       <r>   -0.9536    1.0000 </r>
       <r>   -0.8075    1.0000 </r>
       <r>   -0.7712    1.0000 </r>
       <r>   -0.4171    1.0000 </r>
       <r>   -0.1927    1.0000 </r>
       <r>   -0.1617    1.0000 </r>
       <r>    0.6304    1.0000 </r>
       <r>    0.9890    1.0000 </r>
       <r>    1.0197    1.0000 </r>
       <r>    1.7593    1.0000 </r>
       <r>    1.8074    1.0000 </r>
       <r>    1.8304    1.0000 </r>
       <r>    2.5363    1.0000 </r>
       <r>    2.5445    1.0000 </r>
       <r>    2.7343    1.0000 </r>
       <r>    3.2456    1.0000 </r>
       <r>    3.2889    1.0000 </r>
       <r>    3.3202    1.0000 </r>
       <r>    3.3648    1.0000 </r>
       <r>    3.4668    1.0000 </r>
       <r>    3.5101    1.0000 </r>
       <r>    3.5609    1.0000 </r>
       <r>    3.6444    1.0000 </r>
       <r>    3.8482    1.0000 </r>
       <r>    4.0015    1.0000 </r>
       <r>    4.0421    1.0000 </r>
       <r>    4.1589    1.0000 </r>
       <r>    4.2064    1.0000 </r>
       <r>    4.6140    1.0000 </r>
       <r>    4.6294    1.0000 </r>
       <r>    4.7567    1.0010 </r>
       <r>    4.8046    1.0027 </r>
       <r>    4.9725    1.0292 </r>
       <r>    4.9855    1.0318 </r>
       <r>    5.1516    0.9057 </r>
       <r>    5.1783    0.8328 </r>
       <r>    5.2822    0.4293 </r>
       <r>    5.3320    0.2349 </r>
       <r>    5.4736   -0.0288 </r>
       <r>    6.0871   -0.0000 </r>
       <r>    6.0998   -0.0000 </r>
       <r>    6.1850   -0.0000 </r>
       <r>    6.4174   -0.0000 </r>
       <r>    6.4684   -0.0000 </r>
       <r>    6.5054   -0.0000 </r>
       <r>    6.5931   -0.0000 </r>
       <r>    6.7851   -0.0000 </r>
       <r>    6.8465   -0.0000 </r>
       <r>    6.9650   -0.0000 </r>
       <r>    7.0135   -0.0000 </r>
       <r>    7.2468   -0.0000 </r>
       <r>    7.7380   -0.0000 </r>
       <r>    8.0683   -0.0000 </r>
       <r>    8.0826   -0.0000 </r>
       <r>    8.6074   -0.0000 </r>
       <r>    8.6547   -0.0000 </r>
      </set>
      <set comment="kpoint 38">
       <r>   -3.8816    1.0000 </r>
       <r>   -2.4568    1.0000 </r>
       <r>   -2.1278    1.0000 </r>
       <r>   -1.9607    1.0000 </r>
       <r>   -1.8328    1.0000 </r>
       <r>   -1.6289    1.0000 </r>
       <r>   -1.2004    1.0000 </r>
       <r>   -1.0832    1.0000 </r>
       <r>   -0.9542    1.0000 </r>
       <r>   -0.8741    1.0000 </r>
       <r>   -0.7083    1.0000 </r>
       <r>   -0.3957    1.0000 </r>
       <r>   -0.2616    1.0000 </r>
       <r>   -0.1020    1.0000 </r>
       <r>    0.6296    1.0000 </r>
       <r>    0.9222    1.0000 </r>
       <r>    1.0836    1.0000 </r>
       <r>    1.7262    1.0000 </r>
       <r>    1.7944    1.0000 </r>
       <r>    1.8940    1.0000 </r>
       <r>    2.5287    1.0000 </r>
       <r>    2.5470    1.0000 </r>
       <r>    2.7306    1.0000 </r>
       <r>    3.1882    1.0000 </r>
       <r>    3.2723    1.0000 </r>
       <r>    3.3462    1.0000 </r>
       <r>    3.3843    1.0000 </r>
       <r>    3.4608    1.0000 </r>
       <r>    3.4838    1.0000 </r>
       <r>    3.6218    1.0000 </r>
       <r>    3.6755    1.0000 </r>
       <r>    3.8406    1.0000 </r>
       <r>    3.9718    1.0000 </r>
       <r>    4.0525    1.0000 </r>
       <r>    4.1255    1.0000 </r>
       <r>    4.2269    1.0000 </r>
       <r>    4.6072    1.0000 </r>
       <r>    4.6305    1.0000 </r>
       <r>    4.6936    1.0002 </r>
       <r>    4.8491    1.0061 </r>
       <r>    4.9500    1.0241 </r>
       <r>    4.9997    1.0340 </r>
       <r>    5.1639    0.8743 </r>
       <r>    5.1952    0.7779 </r>
       <r>    5.2777    0.4480 </r>
       <r>    5.3808    0.0906 </r>
       <r>    5.4483   -0.0138 </r>
       <r>    6.0797   -0.0000 </r>
       <r>    6.1006   -0.0000 </r>
       <r>    6.1820   -0.0000 </r>
       <r>    6.4122   -0.0000 </r>
       <r>    6.4318   -0.0000 </r>
       <r>    6.5443   -0.0000 </r>
       <r>    6.5946   -0.0000 </r>
       <r>    6.7487   -0.0000 </r>
       <r>    6.8992   -0.0000 </r>
       <r>    6.9726   -0.0000 </r>
       <r>    6.9967   -0.0000 </r>
       <r>    7.2332   -0.0000 </r>
       <r>    7.7437   -0.0000 </r>
       <r>    8.0650   -0.0000 </r>
       <r>    8.0741   -0.0000 </r>
       <r>    8.5230   -0.0000 </r>
       <r>    8.7378   -0.0000 </r>
      </set>
      <set comment="kpoint 39">
       <r>   -3.8815    1.0000 </r>
       <r>   -2.4657    1.0000 </r>
       <r>   -2.0953    1.0000 </r>
       <r>   -1.9873    1.0000 </r>
       <r>   -1.8285    1.0000 </r>
       <r>   -1.6205    1.0000 </r>
       <r>   -1.2263    1.0000 </r>
       <r>   -1.0493    1.0000 </r>
       <r>   -0.9682    1.0000 </r>
       <r>   -0.8625    1.0000 </r>
       <r>   -0.7510    1.0000 </r>
       <r>   -0.3937    1.0000 </r>
       <r>   -0.2155    1.0000 </r>
       <r>   -0.1190    1.0000 </r>
       <r>    0.6239    1.0000 </r>
       <r>    0.9477    1.0000 </r>
       <r>    1.0539    1.0000 </r>
       <r>    1.7512    1.0000 </r>
       <r>    1.8035    1.0000 </r>
       <r>    1.8664    1.0000 </r>
       <r>    2.5326    1.0000 </r>
       <r>    2.5421    1.0000 </r>
       <r>    2.7391    1.0000 </r>
       <r>    3.1971    1.0000 </r>
       <r>    3.2628    1.0000 </r>
       <r>    3.3330    1.0000 </r>
       <r>    3.3721    1.0000 </r>
       <r>    3.4534    1.0000 </r>
       <r>    3.5008    1.0000 </r>
       <r>    3.5960    1.0000 </r>
       <r>    3.7024    1.0000 </r>
       <r>    3.8447    1.0000 </r>
       <r>    3.9862    1.0000 </r>
       <r>    4.0284    1.0000 </r>
       <r>    4.1435    1.0000 </r>
       <r>    4.2159    1.0000 </r>
       <r>    4.6130    1.0000 </r>
       <r>    4.6385    1.0000 </r>
       <r>    4.7146    1.0003 </r>
       <r>    4.8086    1.0029 </r>
       <r>    4.9569    1.0257 </r>
       <r>    5.0152    1.0354 </r>
       <r>    5.1546    0.8983 </r>
       <r>    5.1934    0.7839 </r>
       <r>    5.2856    0.4150 </r>
       <r>    5.3840    0.0833 </r>
       <r>    5.4330    0.0009 </r>
       <r>    6.0817   -0.0000 </r>
       <r>    6.0994   -0.0000 </r>
       <r>    6.1883   -0.0000 </r>
       <r>    6.4115   -0.0000 </r>
       <r>    6.4418   -0.0000 </r>
       <r>    6.5251   -0.0000 </r>
       <r>    6.5960   -0.0000 </r>
       <r>    6.7804   -0.0000 </r>
       <r>    6.8564   -0.0000 </r>
       <r>    6.9739   -0.0000 </r>
       <r>    7.0077   -0.0000 </r>
       <r>    7.2239   -0.0000 </r>
       <r>    7.7468   -0.0000 </r>
       <r>    8.0654   -0.0000 </r>
       <r>    8.0781   -0.0000 </r>
       <r>    8.5772   -0.0000 </r>
       <r>    8.7043   -0.0000 </r>
      </set>
      <set comment="kpoint 40">
       <r>   -3.8818    1.0000 </r>
       <r>   -2.4567    1.0000 </r>
       <r>   -2.0702    1.0000 </r>
       <r>   -2.0238    1.0000 </r>
       <r>   -1.8324    1.0000 </r>
       <r>   -1.6402    1.0000 </r>
       <r>   -1.2093    1.0000 </r>
       <r>   -1.0530    1.0000 </r>
       <r>   -0.9680    1.0000 </r>
       <r>   -0.8119    1.0000 </r>
       <r>   -0.7657    1.0000 </r>
       <r>   -0.3957    1.0000 </r>
       <r>   -0.2132    1.0000 </r>
       <r>   -0.1498    1.0000 </r>
       <r>    0.6291    1.0000 </r>
       <r>    0.9822    1.0000 </r>
       <r>    1.0308    1.0000 </r>
       <r>    1.7632    1.0000 </r>
       <r>    1.8104    1.0000 </r>
       <r>    1.8273    1.0000 </r>
       <r>    2.5240    1.0000 </r>
       <r>    2.5345    1.0000 </r>
       <r>    2.7386    1.0000 </r>
       <r>    3.2390    1.0000 </r>
       <r>    3.2890    1.0000 </r>
       <r>    3.3223    1.0000 </r>
       <r>    3.3614    1.0000 </r>
       <r>    3.4753    1.0000 </r>
       <r>    3.5090    1.0000 </r>
       <r>    3.5858    1.0000 </r>
       <r>    3.6411    1.0000 </r>
       <r>    3.8499    1.0000 </r>
       <r>    3.9887    1.0000 </r>
       <r>    4.0502    1.0000 </r>
       <r>    4.1528    1.0000 </r>
       <r>    4.1947    1.0000 </r>
       <r>    4.6168    1.0000 </r>
       <r>    4.6415    1.0000 </r>
       <r>    4.7450    1.0007 </r>
       <r>    4.7970    1.0023 </r>
       <r>    4.9521    1.0246 </r>
       <r>    5.0071    1.0348 </r>
       <r>    5.1698    0.8579 </r>
       <r>    5.1879    0.8024 </r>
       <r>    5.3093    0.3191 </r>
       <r>    5.3419    0.2012 </r>
       <r>    5.4349   -0.0012 </r>
       <r>    6.0783   -0.0000 </r>
       <r>    6.0958   -0.0000 </r>
       <r>    6.1835   -0.0000 </r>
       <r>    6.4254   -0.0000 </r>
       <r>    6.4555   -0.0000 </r>
       <r>    6.4973   -0.0000 </r>
       <r>    6.5988   -0.0000 </r>
       <r>    6.8078   -0.0000 </r>
       <r>    6.8535   -0.0000 </r>
       <r>    6.9617   -0.0000 </r>
       <r>    6.9876   -0.0000 </r>
       <r>    7.2412   -0.0000 </r>
       <r>    7.7431   -0.0000 </r>
       <r>    8.0723   -0.0000 </r>
       <r>    8.0812   -0.0000 </r>
       <r>    8.6012   -0.0000 </r>
       <r>    8.6798   -0.0000 </r>
      </set>
      <set comment="kpoint 41">
       <r>   -3.6776    1.0000 </r>
       <r>   -2.6531    1.0000 </r>
       <r>   -2.4683    1.0000 </r>
       <r>   -2.2512    1.0000 </r>
       <r>   -2.2026    1.0000 </r>
       <r>   -1.8361    1.0000 </r>
       <r>   -0.8405    1.0000 </r>
       <r>   -0.7932    1.0000 </r>
       <r>   -0.5811    1.0000 </r>
       <r>   -0.2398    1.0000 </r>
       <r>   -0.1872    1.0000 </r>
       <r>   -0.0098    1.0000 </r>
       <r>    0.0270    1.0000 </r>
       <r>    0.2153    1.0000 </r>
       <r>    0.3994    1.0000 </r>
       <r>    0.4341    1.0000 </r>
       <r>    1.1846    1.0000 </r>
       <r>    1.2321    1.0000 </r>
       <r>    1.6182    1.0000 </r>
       <r>    1.7923    1.0000 </r>
       <r>    1.9402    1.0000 </r>
       <r>    2.1306    1.0000 </r>
       <r>    2.1584    1.0000 </r>
       <r>    2.7174    1.0000 </r>
       <r>    2.8973    1.0000 </r>
       <r>    2.9223    1.0000 </r>
       <r>    3.2179    1.0000 </r>
       <r>    3.3492    1.0000 </r>
       <r>    3.4070    1.0000 </r>
       <r>    3.6297    1.0000 </r>
       <r>    3.7302    1.0000 </r>
       <r>    3.7435    1.0000 </r>
       <r>    4.0330    1.0000 </r>
       <r>    4.0491    1.0000 </r>
       <r>    4.3413    1.0000 </r>
       <r>    4.3899    1.0000 </r>
       <r>    4.5717    1.0000 </r>
       <r>    4.5988    1.0000 </r>
       <r>    4.8221    1.0037 </r>
       <r>    5.1194    0.9699 </r>
       <r>    5.1888    0.7992 </r>
       <r>    5.2468    0.5787 </r>
       <r>    5.2912    0.3920 </r>
       <r>    5.3394    0.2096 </r>
       <r>    5.3510    0.1722 </r>
       <r>    5.3848    0.0815 </r>
       <r>    5.7364   -0.0022 </r>
       <r>    5.7531   -0.0015 </r>
       <r>    6.6568   -0.0000 </r>
       <r>    6.6724   -0.0000 </r>
       <r>    7.0373   -0.0000 </r>
       <r>    7.0621   -0.0000 </r>
       <r>    7.1486   -0.0000 </r>
       <r>    7.5950   -0.0000 </r>
       <r>    7.6282   -0.0000 </r>
       <r>    7.7342   -0.0000 </r>
       <r>    7.8760   -0.0000 </r>
       <r>    7.8966   -0.0000 </r>
       <r>    7.9501   -0.0000 </r>
       <r>    7.9886   -0.0000 </r>
       <r>    8.0450   -0.0000 </r>
       <r>    8.1077   -0.0000 </r>
       <r>    8.1595   -0.0000 </r>
       <r>    8.1918   -0.0000 </r>
      </set>
      <set comment="kpoint 42">
       <r>   -3.6768    1.0000 </r>
       <r>   -2.6636    1.0000 </r>
       <r>   -2.4588    1.0000 </r>
       <r>   -2.3082    1.0000 </r>
       <r>   -2.1408    1.0000 </r>
       <r>   -1.8224    1.0000 </r>
       <r>   -0.8940    1.0000 </r>
       <r>   -0.7467    1.0000 </r>
       <r>   -0.5921    1.0000 </r>
       <r>   -0.3010    1.0000 </r>
       <r>   -0.1368    1.0000 </r>
       <r>   -0.0581    1.0000 </r>
       <r>    0.0758    1.0000 </r>
       <r>    0.2275    1.0000 </r>
       <r>    0.3417    1.0000 </r>
       <r>    0.4887    1.0000 </r>
       <r>    1.1343    1.0000 </r>
       <r>    1.2974    1.0000 </r>
       <r>    1.6211    1.0000 </r>
       <r>    1.7836    1.0000 </r>
       <r>    1.9406    1.0000 </r>
       <r>    2.0880    1.0000 </r>
       <r>    2.2005    1.0000 </r>
       <r>    2.7160    1.0000 </r>
       <r>    2.8881    1.0000 </r>
       <r>    2.9547    1.0000 </r>
       <r>    3.2129    1.0000 </r>
       <r>    3.2954    1.0000 </r>
       <r>    3.4638    1.0000 </r>
       <r>    3.6381    1.0000 </r>
       <r>    3.7190    1.0000 </r>
       <r>    3.7294    1.0000 </r>
       <r>    4.0309    1.0000 </r>
       <r>    4.0449    1.0000 </r>
       <r>    4.2806    1.0000 </r>
       <r>    4.4561    1.0000 </r>
       <r>    4.5730    1.0000 </r>
       <r>    4.5849    1.0000 </r>
       <r>    4.8326    1.0045 </r>
       <r>    5.0671    1.0242 </r>
       <r>    5.1913    0.7910 </r>
       <r>    5.2216    0.6808 </r>
       <r>    5.2538    0.5489 </r>
       <r>    5.3024    0.3464 </r>
       <r>    5.3927    0.0643 </r>
       <r>    5.4831   -0.0320 </r>
       <r>    5.7258   -0.0027 </r>
       <r>    5.7687   -0.0011 </r>
       <r>    6.6548   -0.0000 </r>
       <r>    6.6744   -0.0000 </r>
       <r>    6.9911   -0.0000 </r>
       <r>    7.1221   -0.0000 </r>
       <r>    7.1387   -0.0000 </r>
       <r>    7.5384   -0.0000 </r>
       <r>    7.6670   -0.0000 </r>
       <r>    7.7248   -0.0000 </r>
       <r>    7.8620   -0.0000 </r>
       <r>    7.8937   -0.0000 </r>
       <r>    7.9173   -0.0000 </r>
       <r>    8.0276   -0.0000 </r>
       <r>    8.0555   -0.0000 </r>
       <r>    8.1108   -0.0000 </r>
       <r>    8.1327   -0.0000 </r>
       <r>    8.2807   -0.0000 </r>
      </set>
      <set comment="kpoint 43">
       <r>   -3.6766    1.0000 </r>
       <r>   -2.6735    1.0000 </r>
       <r>   -2.4269    1.0000 </r>
       <r>   -2.3241    1.0000 </r>
       <r>   -2.1522    1.0000 </r>
       <r>   -1.8201    1.0000 </r>
       <r>   -0.8883    1.0000 </r>
       <r>   -0.7382    1.0000 </r>
       <r>   -0.5949    1.0000 </r>
       <r>   -0.3259    1.0000 </r>
       <r>   -0.1299    1.0000 </r>
       <r>   -0.0430    1.0000 </r>
       <r>    0.0961    1.0000 </r>
       <r>    0.1939    1.0000 </r>
       <r>    0.3423    1.0000 </r>
       <r>    0.4960    1.0000 </r>
       <r>    1.1362    1.0000 </r>
       <r>    1.3003    1.0000 </r>
       <r>    1.6167    1.0000 </r>
       <r>    1.7712    1.0000 </r>
       <r>    1.9573    1.0000 </r>
       <r>    2.0851    1.0000 </r>
       <r>    2.2001    1.0000 </r>
       <r>    2.7173    1.0000 </r>
       <r>    2.8757    1.0000 </r>
       <r>    2.9490    1.0000 </r>
       <r>    3.2378    1.0000 </r>
       <r>    3.2843    1.0000 </r>
       <r>    3.4549    1.0000 </r>
       <r>    3.6433    1.0000 </r>
       <r>    3.7092    1.0000 </r>
       <r>    3.7299    1.0000 </r>
       <r>    4.0409    1.0000 </r>
       <r>    4.0570    1.0000 </r>
       <r>    4.2785    1.0000 </r>
       <r>    4.4535    1.0000 </r>
       <r>    4.5750    1.0000 </r>
       <r>    4.5957    1.0000 </r>
       <r>    4.8297    1.0043 </r>
       <r>    5.0422    1.0334 </r>
       <r>    5.1719    0.8519 </r>
       <r>    5.2285    0.6534 </r>
       <r>    5.2680    0.4891 </r>
       <r>    5.2983    0.3628 </r>
       <r>    5.4321    0.0019 </r>
       <r>    5.4549   -0.0188 </r>
       <r>    5.7353   -0.0022 </r>
       <r>    5.7704   -0.0010 </r>
       <r>    6.6521   -0.0000 </r>
       <r>    6.6712   -0.0000 </r>
       <r>    6.9943   -0.0000 </r>
       <r>    7.1149   -0.0000 </r>
       <r>    7.1485   -0.0000 </r>
       <r>    7.5189   -0.0000 </r>
       <r>    7.6714   -0.0000 </r>
       <r>    7.7469   -0.0000 </r>
       <r>    7.8628   -0.0000 </r>
       <r>    7.9058   -0.0000 </r>
       <r>    7.9496   -0.0000 </r>
       <r>    7.9885   -0.0000 </r>
       <r>    8.0401   -0.0000 </r>
       <r>    8.1022   -0.0000 </r>
       <r>    8.1285   -0.0000 </r>
       <r>    8.2658   -0.0000 </r>
      </set>
      <set comment="kpoint 44">
       <r>   -3.6773    1.0000 </r>
       <r>   -2.6717    1.0000 </r>
       <r>   -2.4251    1.0000 </r>
       <r>   -2.2685    1.0000 </r>
       <r>   -2.2141    1.0000 </r>
       <r>   -1.8318    1.0000 </r>
       <r>   -0.8386    1.0000 </r>
       <r>   -0.7857    1.0000 </r>
       <r>   -0.5973    1.0000 </r>
       <r>   -0.2479    1.0000 </r>
       <r>   -0.1951    1.0000 </r>
       <r>   -0.0038    1.0000 </r>
       <r>    0.0650    1.0000 </r>
       <r>    0.1941    1.0000 </r>
       <r>    0.3972    1.0000 </r>
       <r>    0.4387    1.0000 </r>
       <r>    1.1767    1.0000 </r>
       <r>    1.2373    1.0000 </r>
       <r>    1.6187    1.0000 </r>
       <r>    1.7974    1.0000 </r>
       <r>    1.9448    1.0000 </r>
       <r>    2.1274    1.0000 </r>
       <r>    2.1493    1.0000 </r>
       <r>    2.7184    1.0000 </r>
       <r>    2.8928    1.0000 </r>
       <r>    2.9209    1.0000 </r>
       <r>    3.2348    1.0000 </r>
       <r>    3.3316    1.0000 </r>
       <r>    3.4054    1.0000 </r>
       <r>    3.6435    1.0000 </r>
       <r>    3.7154    1.0000 </r>
       <r>    3.7349    1.0000 </r>
       <r>    4.0406    1.0000 </r>
       <r>    4.0639    1.0000 </r>
       <r>    4.3276    1.0000 </r>
       <r>    4.4070    1.0000 </r>
       <r>    4.5796    1.0000 </r>
       <r>    4.5905    1.0000 </r>
       <r>    4.8244    1.0039 </r>
       <r>    5.1107    0.9830 </r>
       <r>    5.1905    0.7937 </r>
       <r>    5.2422    0.5975 </r>
       <r>    5.2839    0.4223 </r>
       <r>    5.3309    0.2388 </r>
       <r>    5.3502    0.1746 </r>
       <r>    5.3984    0.0530 </r>
       <r>    5.7384   -0.0021 </r>
       <r>    5.7666   -0.0011 </r>
       <r>    6.6524   -0.0000 </r>
       <r>    6.6661   -0.0000 </r>
       <r>    7.0284   -0.0000 </r>
       <r>    7.0682   -0.0000 </r>
       <r>    7.1412   -0.0000 </r>
       <r>    7.5908   -0.0000 </r>
       <r>    7.6321   -0.0000 </r>
       <r>    7.7590   -0.0000 </r>
       <r>    7.8762   -0.0000 </r>
       <r>    7.9112   -0.0000 </r>
       <r>    7.9535   -0.0000 </r>
       <r>    8.0049   -0.0000 </r>
       <r>    8.0426   -0.0000 </r>
       <r>    8.0597   -0.0000 </r>
       <r>    8.1556   -0.0000 </r>
       <r>    8.2072   -0.0000 </r>
      </set>
      <set comment="kpoint 45">
       <r>   -3.6773    1.0000 </r>
       <r>   -2.6596    1.0000 </r>
       <r>   -2.4665    1.0000 </r>
       <r>   -2.2828    1.0000 </r>
       <r>   -2.1659    1.0000 </r>
       <r>   -1.8205    1.0000 </r>
       <r>   -0.8663    1.0000 </r>
       <r>   -0.7915    1.0000 </r>
       <r>   -0.5919    1.0000 </r>
       <r>   -0.2604    1.0000 </r>
       <r>   -0.1538    1.0000 </r>
       <r>   -0.0339    1.0000 </r>
       <r>    0.0404    1.0000 </r>
       <r>    0.2209    1.0000 </r>
       <r>    0.3716    1.0000 </r>
       <r>    0.4720    1.0000 </r>
       <r>    1.1597    1.0000 </r>
       <r>    1.2749    1.0000 </r>
       <r>    1.6157    1.0000 </r>
       <r>    1.7908    1.0000 </r>
       <r>    1.9438    1.0000 </r>
       <r>    2.0989    1.0000 </r>
       <r>    2.1743    1.0000 </r>
       <r>    2.7268    1.0000 </r>
       <r>    2.8911    1.0000 </r>
       <r>    2.9343    1.0000 </r>
       <r>    3.2255    1.0000 </r>
       <r>    3.3106    1.0000 </r>
       <r>    3.4281    1.0000 </r>
       <r>    3.6431    1.0000 </r>
       <r>    3.7184    1.0000 </r>
       <r>    3.7384    1.0000 </r>
       <r>    4.0349    1.0000 </r>
       <r>    4.0466    1.0000 </r>
       <r>    4.3052    1.0000 </r>
       <r>    4.4180    1.0000 </r>
       <r>    4.5833    1.0000 </r>
       <r>    4.5976    1.0000 </r>
       <r>    4.8106    1.0030 </r>
       <r>    5.0939    1.0034 </r>
       <r>    5.2014    0.7563 </r>
       <r>    5.2147    0.7071 </r>
       <r>    5.2807    0.4357 </r>
       <r>    5.3206    0.2762 </r>
       <r>    5.3678    0.1236 </r>
       <r>    5.4485   -0.0140 </r>
       <r>    5.7228   -0.0028 </r>
       <r>    5.7643   -0.0012 </r>
       <r>    6.6650   -0.0000 </r>
       <r>    6.6751   -0.0000 </r>
       <r>    7.0127   -0.0000 </r>
       <r>    7.0949   -0.0000 </r>
       <r>    7.1416   -0.0000 </r>
       <r>    7.5715   -0.0000 </r>
       <r>    7.6449   -0.0000 </r>
       <r>    7.7429   -0.0000 </r>
       <r>    7.8705   -0.0000 </r>
       <r>    7.8961   -0.0000 </r>
       <r>    7.9383   -0.0000 </r>
       <r>    7.9982   -0.0000 </r>
       <r>    8.0387   -0.0000 </r>
       <r>    8.1018   -0.0000 </r>
       <r>    8.1186   -0.0000 </r>
       <r>    8.2426   -0.0000 </r>
      </set>
      <set comment="kpoint 46">
       <r>   -3.6771    1.0000 </r>
       <r>   -2.6617    1.0000 </r>
       <r>   -2.4620    1.0000 </r>
       <r>   -2.3074    1.0000 </r>
       <r>   -2.1380    1.0000 </r>
       <r>   -1.8212    1.0000 </r>
       <r>   -0.9038    1.0000 </r>
       <r>   -0.7551    1.0000 </r>
       <r>   -0.5962    1.0000 </r>
       <r>   -0.2772    1.0000 </r>
       <r>   -0.1275    1.0000 </r>
       <r>   -0.0717    1.0000 </r>
       <r>    0.0786    1.0000 </r>
       <r>    0.2113    1.0000 </r>
       <r>    0.3530    1.0000 </r>
       <r>    0.5024    1.0000 </r>
       <r>    1.1293    1.0000 </r>
       <r>    1.2877    1.0000 </r>
       <r>    1.6211    1.0000 </r>
       <r>    1.7861    1.0000 </r>
       <r>    1.9450    1.0000 </r>
       <r>    2.0860    1.0000 </r>
       <r>    2.1999    1.0000 </r>
       <r>    2.7090    1.0000 </r>
       <r>    2.8898    1.0000 </r>
       <r>    2.9544    1.0000 </r>
       <r>    3.2184    1.0000 </r>
       <r>    3.2879    1.0000 </r>
       <r>    3.4520    1.0000 </r>
       <r>    3.6439    1.0000 </r>
       <r>    3.7230    1.0000 </r>
       <r>    3.7415    1.0000 </r>
       <r>    4.0275    1.0000 </r>
       <r>    4.0457    1.0000 </r>
       <r>    4.2765    1.0000 </r>
       <r>    4.4572    1.0000 </r>
       <r>    4.5812    1.0000 </r>
       <r>    4.6013    1.0000 </r>
       <r>    4.7999    1.0024 </r>
       <r>    5.0563    1.0292 </r>
       <r>    5.1913    0.7912 </r>
       <r>    5.2349    0.6276 </r>
       <r>    5.2586    0.5287 </r>
       <r>    5.3155    0.2953 </r>
       <r>    5.3980    0.0538 </r>
       <r>    5.4684   -0.0266 </r>
       <r>    5.7274   -0.0026 </r>
       <r>    5.7674   -0.0011 </r>
       <r>    6.6535   -0.0000 </r>
       <r>    6.6732   -0.0000 </r>
       <r>    6.9863   -0.0000 </r>
       <r>    7.1222   -0.0000 </r>
       <r>    7.1417   -0.0000 </r>
       <r>    7.5554   -0.0000 </r>
       <r>    7.6774   -0.0000 </r>
       <r>    7.7577   -0.0000 </r>
       <r>    7.8505   -0.0000 </r>
       <r>    7.8716   -0.0000 </r>
       <r>    7.9144   -0.0000 </r>
       <r>    8.0106   -0.0000 </r>
       <r>    8.0397   -0.0000 </r>
       <r>    8.0850   -0.0000 </r>
       <r>    8.1363   -0.0000 </r>
       <r>    8.2507   -0.0000 </r>
      </set>
      <set comment="kpoint 47">
       <r>   -3.6777    1.0000 </r>
       <r>   -2.6589    1.0000 </r>
       <r>   -2.4615    1.0000 </r>
       <r>   -2.2523    1.0000 </r>
       <r>   -2.2002    1.0000 </r>
       <r>   -1.8333    1.0000 </r>
       <r>   -0.8468    1.0000 </r>
       <r>   -0.7989    1.0000 </r>
       <r>   -0.5926    1.0000 </r>
       <r>   -0.2453    1.0000 </r>
       <r>   -0.1755    1.0000 </r>
       <r>   -0.0063    1.0000 </r>
       <r>    0.0330    1.0000 </r>
       <r>    0.2253    1.0000 </r>
       <r>    0.3914    1.0000 </r>
       <r>    0.4456    1.0000 </r>
       <r>    1.1819    1.0000 </r>
       <r>    1.2218    1.0000 </r>
       <r>    1.6232    1.0000 </r>
       <r>    1.7957    1.0000 </r>
       <r>    1.9312    1.0000 </r>
       <r>    2.1369    1.0000 </r>
       <r>    2.1553    1.0000 </r>
       <r>    2.7101    1.0000 </r>
       <r>    2.9027    1.0000 </r>
       <r>    2.9217    1.0000 </r>
       <r>    3.2248    1.0000 </r>
       <r>    3.3500    1.0000 </r>
       <r>    3.3935    1.0000 </r>
       <r>    3.6401    1.0000 </r>
       <r>    3.7261    1.0000 </r>
       <r>    3.7471    1.0000 </r>
       <r>    4.0337    1.0000 </r>
       <r>    4.0507    1.0000 </r>
       <r>    4.3369    1.0000 </r>
       <r>    4.3935    1.0000 </r>
       <r>    4.5775    1.0000 </r>
       <r>    4.5973    1.0000 </r>
       <r>    4.8135    1.0032 </r>
       <r>    5.1200    0.9690 </r>
       <r>    5.1763    0.8387 </r>
       <r>    5.2439    0.5903 </r>
       <r>    5.2821    0.4298 </r>
       <r>    5.3430    0.1975 </r>
       <r>    5.3550    0.1599 </r>
       <r>    5.3885    0.0733 </r>
       <r>    5.7410   -0.0020 </r>
       <r>    5.7619   -0.0013 </r>
       <r>    6.6537   -0.0000 </r>
       <r>    6.6723   -0.0000 </r>
       <r>    7.0359   -0.0000 </r>
       <r>    7.0721   -0.0000 </r>
       <r>    7.1401   -0.0000 </r>
       <r>    7.5888   -0.0000 </r>
       <r>    7.6400   -0.0000 </r>
       <r>    7.7500   -0.0000 </r>
       <r>    7.8622   -0.0000 </r>
       <r>    7.8952   -0.0000 </r>
       <r>    7.9610   -0.0000 </r>
       <r>    8.0050   -0.0000 </r>
       <r>    8.0502   -0.0000 </r>
       <r>    8.0997   -0.0000 </r>
       <r>    8.1471   -0.0000 </r>
       <r>    8.1963   -0.0000 </r>
      </set>
      <set comment="kpoint 48">
       <r>   -3.6764    1.0000 </r>
       <r>   -2.6820    1.0000 </r>
       <r>   -2.4288    1.0000 </r>
       <r>   -2.2866    1.0000 </r>
       <r>   -2.1829    1.0000 </r>
       <r>   -1.8141    1.0000 </r>
       <r>   -0.8660    1.0000 </r>
       <r>   -0.7636    1.0000 </r>
       <r>   -0.6121    1.0000 </r>
       <r>   -0.3064    1.0000 </r>
       <r>   -0.1675    1.0000 </r>
       <r>   -0.0090    1.0000 </r>
       <r>    0.0899    1.0000 </r>
       <r>    0.2014    1.0000 </r>
       <r>    0.3740    1.0000 </r>
       <r>    0.4588    1.0000 </r>
       <r>    1.1712    1.0000 </r>
       <r>    1.2685    1.0000 </r>
       <r>    1.6230    1.0000 </r>
       <r>    1.7787    1.0000 </r>
       <r>    1.9450    1.0000 </r>
       <r>    2.1080    1.0000 </r>
       <r>    2.1768    1.0000 </r>
       <r>    2.7211    1.0000 </r>
       <r>    2.8953    1.0000 </r>
       <r>    2.9277    1.0000 </r>
       <r>    3.2327    1.0000 </r>
       <r>    3.3193    1.0000 </r>
       <r>    3.4076    1.0000 </r>
       <r>    3.6581    1.0000 </r>
       <r>    3.7123    1.0000 </r>
       <r>    3.7213    1.0000 </r>
       <r>    4.0394    1.0000 </r>
       <r>    4.0544    1.0000 </r>
       <r>    4.3077    1.0000 </r>
       <r>    4.4230    1.0000 </r>
       <r>    4.5731    1.0000 </r>
       <r>    4.6003    1.0000 </r>
       <r>    4.8284    1.0042 </r>
       <r>    5.0736    1.0204 </r>
       <r>    5.1986    0.7660 </r>
       <r>    5.2364    0.6214 </r>
       <r>    5.2722    0.4712 </r>
       <r>    5.3183    0.2849 </r>
       <r>    5.3722    0.1118 </r>
       <r>    5.4314    0.0027 </r>
       <r>    5.7324   -0.0023 </r>
       <r>    5.7668   -0.0011 </r>
       <r>    6.6529   -0.0000 </r>
       <r>    6.6734   -0.0000 </r>
       <r>    7.0158   -0.0000 </r>
       <r>    7.1012   -0.0000 </r>
       <r>    7.1400   -0.0000 </r>
       <r>    7.5575   -0.0000 </r>
       <r>    7.6431   -0.0000 </r>
       <r>    7.7341   -0.0000 </r>
       <r>    7.8626   -0.0000 </r>
       <r>    7.9089   -0.0000 </r>
       <r>    7.9426   -0.0000 </r>
       <r>    7.9942   -0.0000 </r>
       <r>    8.0483   -0.0000 </r>
       <r>    8.0820   -0.0000 </r>
       <r>    8.1529   -0.0000 </r>
       <r>    8.2767   -0.0000 </r>
      </set>
      <set comment="kpoint 49">
       <r>   -3.6770    1.0000 </r>
       <r>   -2.6673    1.0000 </r>
       <r>   -2.4565    1.0000 </r>
       <r>   -2.2846    1.0000 </r>
       <r>   -2.1661    1.0000 </r>
       <r>   -1.8184    1.0000 </r>
       <r>   -0.8753    1.0000 </r>
       <r>   -0.7862    1.0000 </r>
       <r>   -0.5939    1.0000 </r>
       <r>   -0.2631    1.0000 </r>
       <r>   -0.1614    1.0000 </r>
       <r>   -0.0238    1.0000 </r>
       <r>    0.0509    1.0000 </r>
       <r>    0.2345    1.0000 </r>
       <r>    0.3544    1.0000 </r>
       <r>    0.4615    1.0000 </r>
       <r>    1.1615    1.0000 </r>
       <r>    1.2821    1.0000 </r>
       <r>    1.6168    1.0000 </r>
       <r>    1.7925    1.0000 </r>
       <r>    1.9378    1.0000 </r>
       <r>    2.1028    1.0000 </r>
       <r>    2.1732    1.0000 </r>
       <r>    2.7203    1.0000 </r>
       <r>    2.8945    1.0000 </r>
       <r>    2.9383    1.0000 </r>
       <r>    3.2189    1.0000 </r>
       <r>    3.3181    1.0000 </r>
       <r>    3.4328    1.0000 </r>
       <r>    3.6442    1.0000 </r>
       <r>    3.7215    1.0000 </r>
       <r>    3.7306    1.0000 </r>
       <r>    4.0331    1.0000 </r>
       <r>    4.0468    1.0000 </r>
       <r>    4.2996    1.0000 </r>
       <r>    4.4205    1.0000 </r>
       <r>    4.5790    1.0000 </r>
       <r>    4.6041    1.0000 </r>
       <r>    4.8120    1.0031 </r>
       <r>    5.0742    1.0200 </r>
       <r>    5.1680    0.8630 </r>
       <r>    5.2385    0.6129 </r>
       <r>    5.2761    0.4550 </r>
       <r>    5.3337    0.2290 </r>
       <r>    5.3811    0.0899 </r>
       <r>    5.4411   -0.0074 </r>
       <r>    5.7326   -0.0023 </r>
       <r>    5.7672   -0.0011 </r>
       <r>    6.6628   -0.0000 </r>
       <r>    6.6716   -0.0000 </r>
       <r>    7.0132   -0.0000 </r>
       <r>    7.0999   -0.0000 </r>
       <r>    7.1436   -0.0000 </r>
       <r>    7.5667   -0.0000 </r>
       <r>    7.6436   -0.0000 </r>
       <r>    7.7454   -0.0000 </r>
       <r>    7.8757   -0.0000 </r>
       <r>    7.8946   -0.0000 </r>
       <r>    7.9225   -0.0000 </r>
       <r>    7.9976   -0.0000 </r>
       <r>    8.0550   -0.0000 </r>
       <r>    8.1066   -0.0000 </r>
       <r>    8.1372   -0.0000 </r>
       <r>    8.2247   -0.0000 </r>
      </set>
      <set comment="kpoint 50">
       <r>   -3.6787    1.0000 </r>
       <r>   -2.6500    1.0000 </r>
       <r>   -2.4509    1.0000 </r>
       <r>   -2.2677    1.0000 </r>
       <r>   -2.2136    1.0000 </r>
       <r>   -1.8254    1.0000 </r>
       <r>   -0.8414    1.0000 </r>
       <r>   -0.7896    1.0000 </r>
       <r>   -0.6039    1.0000 </r>
       <r>   -0.2489    1.0000 </r>
       <r>   -0.1745    1.0000 </r>
       <r>   -0.0056    1.0000 </r>
       <r>    0.0350    1.0000 </r>
       <r>    0.2185    1.0000 </r>
       <r>    0.3885    1.0000 </r>
       <r>    0.4561    1.0000 </r>
       <r>    1.1753    1.0000 </r>
       <r>    1.2237    1.0000 </r>
       <r>    1.6152    1.0000 </r>
       <r>    1.7991    1.0000 </r>
       <r>    1.9457    1.0000 </r>
       <r>    2.1377    1.0000 </r>
       <r>    2.1594    1.0000 </r>
       <r>    2.6960    1.0000 </r>
       <r>    2.8981    1.0000 </r>
       <r>    2.9208    1.0000 </r>
       <r>    3.2481    1.0000 </r>
       <r>    3.3324    1.0000 </r>
       <r>    3.4062    1.0000 </r>
       <r>    3.6438    1.0000 </r>
       <r>    3.7258    1.0000 </r>
       <r>    3.7410    1.0000 </r>
       <r>    4.0265    1.0000 </r>
       <r>    4.0429    1.0000 </r>
       <r>    4.3239    1.0000 </r>
       <r>    4.3998    1.0000 </r>
       <r>    4.5634    1.0000 </r>
       <r>    4.6037    1.0000 </r>
       <r>    4.8371    1.0049 </r>
       <r>    5.1255    0.9597 </r>
       <r>    5.1737    0.8466 </r>
       <r>    5.2415    0.6003 </r>
       <r>    5.2824    0.4286 </r>
       <r>    5.3329    0.2317 </r>
       <r>    5.3556    0.1581 </r>
       <r>    5.4027    0.0449 </r>
       <r>    5.7387   -0.0021 </r>
       <r>    5.7524   -0.0015 </r>
       <r>    6.6602   -0.0000 </r>
       <r>    6.6686   -0.0000 </r>
       <r>    7.0338   -0.0000 </r>
       <r>    7.0724   -0.0000 </r>
       <r>    7.1349   -0.0000 </r>
       <r>    7.5722   -0.0000 </r>
       <r>    7.6390   -0.0000 </r>
       <r>    7.7433   -0.0000 </r>
       <r>    7.8834   -0.0000 </r>
       <r>    7.9248   -0.0000 </r>
       <r>    7.9598   -0.0000 </r>
       <r>    8.0140   -0.0000 </r>
       <r>    8.0362   -0.0000 </r>
       <r>    8.0884   -0.0000 </r>
       <r>    8.1588   -0.0000 </r>
       <r>    8.1893   -0.0000 </r>
      </set>
      <set comment="kpoint 51">
       <r>   -3.6783    1.0000 </r>
       <r>   -2.6511    1.0000 </r>
       <r>   -2.4541    1.0000 </r>
       <r>   -2.3216    1.0000 </r>
       <r>   -2.1497    1.0000 </r>
       <r>   -1.8147    1.0000 </r>
       <r>   -0.9081    1.0000 </r>
       <r>   -0.7318    1.0000 </r>
       <r>   -0.6094    1.0000 </r>
       <r>   -0.2806    1.0000 </r>
       <r>   -0.1577    1.0000 </r>
       <r>   -0.0572    1.0000 </r>
       <r>    0.0891    1.0000 </r>
       <r>    0.2187    1.0000 </r>
       <r>    0.3467    1.0000 </r>
       <r>    0.5107    1.0000 </r>
       <r>    1.1209    1.0000 </r>
       <r>    1.2995    1.0000 </r>
       <r>    1.6092    1.0000 </r>
       <r>    1.7828    1.0000 </r>
       <r>    1.9528    1.0000 </r>
       <r>    2.0986    1.0000 </r>
       <r>    2.1962    1.0000 </r>
       <r>    2.7056    1.0000 </r>
       <r>    2.8825    1.0000 </r>
       <r>    2.9446    1.0000 </r>
       <r>    3.2431    1.0000 </r>
       <r>    3.2706    1.0000 </r>
       <r>    3.4477    1.0000 </r>
       <r>    3.6487    1.0000 </r>
       <r>    3.7291    1.0000 </r>
       <r>    3.7447    1.0000 </r>
       <r>    4.0270    1.0000 </r>
       <r>    4.0406    1.0000 </r>
       <r>    4.2647    1.0000 </r>
       <r>    4.4509    1.0000 </r>
       <r>    4.5790    1.0000 </r>
       <r>    4.6049    1.0000 </r>
       <r>    4.8224    1.0038 </r>
       <r>    5.0669    1.0244 </r>
       <r>    5.1928    0.7860 </r>
       <r>    5.2120    0.7174 </r>
       <r>    5.2682    0.4882 </r>
       <r>    5.3169    0.2902 </r>
       <r>    5.4075    0.0366 </r>
       <r>    5.4518   -0.0165 </r>
       <r>    5.7222   -0.0029 </r>
       <r>    5.7643   -0.0012 </r>
       <r>    6.6580   -0.0000 </r>
       <r>    6.6761   -0.0000 </r>
       <r>    6.9819   -0.0000 </r>
       <r>    7.1161   -0.0000 </r>
       <r>    7.1489   -0.0000 </r>
       <r>    7.5571   -0.0000 </r>
       <r>    7.6683   -0.0000 </r>
       <r>    7.7437   -0.0000 </r>
       <r>    7.8673   -0.0000 </r>
       <r>    7.8895   -0.0000 </r>
       <r>    7.9187   -0.0000 </r>
       <r>    8.0073   -0.0000 </r>
       <r>    8.0564   -0.0000 </r>
       <r>    8.0931   -0.0000 </r>
       <r>    8.1353   -0.0000 </r>
       <r>    8.2344   -0.0000 </r>
      </set>
      <set comment="kpoint 52">
       <r>   -3.6780    1.0000 </r>
       <r>   -2.6544    1.0000 </r>
       <r>   -2.4635    1.0000 </r>
       <r>   -2.2827    1.0000 </r>
       <r>   -2.1825    1.0000 </r>
       <r>   -1.8073    1.0000 </r>
       <r>   -0.8878    1.0000 </r>
       <r>   -0.7687    1.0000 </r>
       <r>   -0.6060    1.0000 </r>
       <r>   -0.2592    1.0000 </r>
       <r>   -0.1535    1.0000 </r>
       <r>   -0.0454    1.0000 </r>
       <r>    0.0664    1.0000 </r>
       <r>    0.2227    1.0000 </r>
       <r>    0.3726    1.0000 </r>
       <r>    0.4636    1.0000 </r>
       <r>    1.1592    1.0000 </r>
       <r>    1.2648    1.0000 </r>
       <r>    1.6133    1.0000 </r>
       <r>    1.7735    1.0000 </r>
       <r>    1.9674    1.0000 </r>
       <r>    2.1145    1.0000 </r>
       <r>    2.1796    1.0000 </r>
       <r>    2.7292    1.0000 </r>
       <r>    2.8892    1.0000 </r>
       <r>    2.9247    1.0000 </r>
       <r>    3.2246    1.0000 </r>
       <r>    3.3283    1.0000 </r>
       <r>    3.4112    1.0000 </r>
       <r>    3.6451    1.0000 </r>
       <r>    3.7321    1.0000 </r>
       <r>    3.7361    1.0000 </r>
       <r>    4.0154    1.0000 </r>
       <r>    4.0287    1.0000 </r>
       <r>    4.3055    1.0000 </r>
       <r>    4.4213    1.0000 </r>
       <r>    4.5909    1.0000 </r>
       <r>    4.6018    1.0000 </r>
       <r>    4.8029    1.0026 </r>
       <r>    5.0625    1.0266 </r>
       <r>    5.1807    0.8254 </r>
       <r>    5.2478    0.5741 </r>
       <r>    5.2928    0.3853 </r>
       <r>    5.3208    0.2754 </r>
       <r>    5.3897    0.0707 </r>
       <r>    5.4390   -0.0054 </r>
       <r>    5.7265   -0.0026 </r>
       <r>    5.7699   -0.0010 </r>
       <r>    6.6535   -0.0000 </r>
       <r>    6.6805   -0.0000 </r>
       <r>    7.0089   -0.0000 </r>
       <r>    7.1014   -0.0000 </r>
       <r>    7.1327   -0.0000 </r>
       <r>    7.5709   -0.0000 </r>
       <r>    7.6495   -0.0000 </r>
       <r>    7.7457   -0.0000 </r>
       <r>    7.8544   -0.0000 </r>
       <r>    7.8968   -0.0000 </r>
       <r>    7.9365   -0.0000 </r>
       <r>    7.9928   -0.0000 </r>
       <r>    8.0263   -0.0000 </r>
       <r>    8.0695   -0.0000 </r>
       <r>    8.1777   -0.0000 </r>
       <r>    8.2214   -0.0000 </r>
      </set>
      <set comment="kpoint 53">
       <r>   -3.2765    1.0000 </r>
       <r>   -3.0703    1.0000 </r>
       <r>   -2.8290    1.0000 </r>
       <r>   -2.6489    1.0000 </r>
       <r>   -1.8354    1.0000 </r>
       <r>   -1.4464    1.0000 </r>
       <r>   -1.1926    1.0000 </r>
       <r>   -0.8056    1.0000 </r>
       <r>   -0.4110    1.0000 </r>
       <r>   -0.1954    1.0000 </r>
       <r>   -0.0052    1.0000 </r>
       <r>    0.2015    1.0000 </r>
       <r>    0.4194    1.0000 </r>
       <r>    0.5948    1.0000 </r>
       <r>    0.8043    1.0000 </r>
       <r>    0.9681    1.0000 </r>
       <r>    0.9906    1.0000 </r>
       <r>    1.2462    1.0000 </r>
       <r>    1.3409    1.0000 </r>
       <r>    1.5373    1.0000 </r>
       <r>    1.6208    1.0000 </r>
       <r>    1.7324    1.0000 </r>
       <r>    2.1384    1.0000 </r>
       <r>    2.2192    1.0000 </r>
       <r>    2.3300    1.0000 </r>
       <r>    2.5212    1.0000 </r>
       <r>    2.6094    1.0000 </r>
       <r>    2.7897    1.0000 </r>
       <r>    2.8967    1.0000 </r>
       <r>    2.9909    1.0000 </r>
       <r>    4.0072    1.0000 </r>
       <r>    4.0672    1.0000 </r>
       <r>    4.1229    1.0000 </r>
       <r>    4.2754    1.0000 </r>
       <r>    4.4458    1.0000 </r>
       <r>    4.7180    1.0004 </r>
       <r>    4.8119    1.0031 </r>
       <r>    4.9982    1.0338 </r>
       <r>    5.2080    0.7321 </r>
       <r>    5.3912    0.0675 </r>
       <r>    5.4100    0.0325 </r>
       <r>    5.5040   -0.0353 </r>
       <r>    5.7289   -0.0025 </r>
       <r>    5.7501   -0.0016 </r>
       <r>    5.7871   -0.0007 </r>
       <r>    6.1516   -0.0000 </r>
       <r>    6.1734   -0.0000 </r>
       <r>    6.2691   -0.0000 </r>
       <r>    6.3713   -0.0000 </r>
       <r>    6.4810   -0.0000 </r>
       <r>    6.8775   -0.0000 </r>
       <r>    6.9583   -0.0000 </r>
       <r>    7.0099   -0.0000 </r>
       <r>    7.1132   -0.0000 </r>
       <r>    7.1304   -0.0000 </r>
       <r>    7.4742   -0.0000 </r>
       <r>    7.6539   -0.0000 </r>
       <r>    7.6858   -0.0000 </r>
       <r>    7.7323   -0.0000 </r>
       <r>    7.9282   -0.0000 </r>
       <r>    8.0648   -0.0000 </r>
       <r>    8.1685   -0.0000 </r>
       <r>    8.2929   -0.0000 </r>
       <r>    8.4054   -0.0000 </r>
      </set>
      <set comment="kpoint 54">
       <r>   -3.2862    1.0000 </r>
       <r>   -3.0385    1.0000 </r>
       <r>   -2.8620    1.0000 </r>
       <r>   -2.6420    1.0000 </r>
       <r>   -1.8290    1.0000 </r>
       <r>   -1.4167    1.0000 </r>
       <r>   -1.2160    1.0000 </r>
       <r>   -0.8179    1.0000 </r>
       <r>   -0.4139    1.0000 </r>
       <r>   -0.2058    1.0000 </r>
       <r>    0.0049    1.0000 </r>
       <r>    0.2024    1.0000 </r>
       <r>    0.4102    1.0000 </r>
       <r>    0.5781    1.0000 </r>
       <r>    0.7911    1.0000 </r>
       <r>    0.9874    1.0000 </r>
       <r>    1.0393    1.0000 </r>
       <r>    1.2199    1.0000 </r>
       <r>    1.3396    1.0000 </r>
       <r>    1.5320    1.0000 </r>
       <r>    1.6118    1.0000 </r>
       <r>    1.7766    1.0000 </r>
       <r>    2.1253    1.0000 </r>
       <r>    2.2082    1.0000 </r>
       <r>    2.3413    1.0000 </r>
       <r>    2.5136    1.0000 </r>
       <r>    2.6463    1.0000 </r>
       <r>    2.7941    1.0000 </r>
       <r>    2.8661    1.0000 </r>
       <r>    2.9856    1.0000 </r>
       <r>    3.9828    1.0000 </r>
       <r>    4.0738    1.0000 </r>
       <r>    4.1569    1.0000 </r>
       <r>    4.2755    1.0000 </r>
       <r>    4.4192    1.0000 </r>
       <r>    4.7039    1.0003 </r>
       <r>    4.8110    1.0030 </r>
       <r>    5.0041    1.0345 </r>
       <r>    5.2062    0.7389 </r>
       <r>    5.3749    0.1049 </r>
       <r>    5.4014    0.0473 </r>
       <r>    5.5081   -0.0354 </r>
       <r>    5.7364   -0.0022 </r>
       <r>    5.7611   -0.0013 </r>
       <r>    5.7786   -0.0009 </r>
       <r>    6.1542   -0.0000 </r>
       <r>    6.1670   -0.0000 </r>
       <r>    6.2372   -0.0000 </r>
       <r>    6.4001   -0.0000 </r>
       <r>    6.4803   -0.0000 </r>
       <r>    6.8723   -0.0000 </r>
       <r>    6.9415   -0.0000 </r>
       <r>    7.0078   -0.0000 </r>
       <r>    7.1269   -0.0000 </r>
       <r>    7.1739   -0.0000 </r>
       <r>    7.4666   -0.0000 </r>
       <r>    7.6707   -0.0000 </r>
       <r>    7.6758   -0.0000 </r>
       <r>    7.7288   -0.0000 </r>
       <r>    7.9441   -0.0000 </r>
       <r>    8.0692   -0.0000 </r>
       <r>    8.1929   -0.0000 </r>
       <r>    8.2429   -0.0000 </r>
       <r>    8.4027   -0.0000 </r>
      </set>
      <set comment="kpoint 55">
       <r>   -3.2699    1.0000 </r>
       <r>   -3.0704    1.0000 </r>
       <r>   -2.8611    1.0000 </r>
       <r>   -2.6237    1.0000 </r>
       <r>   -1.8279    1.0000 </r>
       <r>   -1.4303    1.0000 </r>
       <r>   -1.2137    1.0000 </r>
       <r>   -0.8092    1.0000 </r>
       <r>   -0.4242    1.0000 </r>
       <r>   -0.2132    1.0000 </r>
       <r>    0.0325    1.0000 </r>
       <r>    0.1993    1.0000 </r>
       <r>    0.4100    1.0000 </r>
       <r>    0.6072    1.0000 </r>
       <r>    0.7965    1.0000 </r>
       <r>    0.9645    1.0000 </r>
       <r>    1.0172    1.0000 </r>
       <r>    1.1971    1.0000 </r>
       <r>    1.3409    1.0000 </r>
       <r>    1.5355    1.0000 </r>
       <r>    1.6582    1.0000 </r>
       <r>    1.7426    1.0000 </r>
       <r>    2.1086    1.0000 </r>
       <r>    2.2408    1.0000 </r>
       <r>    2.3404    1.0000 </r>
       <r>    2.5229    1.0000 </r>
       <r>    2.6114    1.0000 </r>
       <r>    2.7763    1.0000 </r>
       <r>    2.8766    1.0000 </r>
       <r>    2.9906    1.0000 </r>
       <r>    4.0070    1.0000 </r>
       <r>    4.0907    1.0000 </r>
       <r>    4.1307    1.0000 </r>
       <r>    4.2748    1.0000 </r>
       <r>    4.4373    1.0000 </r>
       <r>    4.7264    1.0005 </r>
       <r>    4.8124    1.0031 </r>
       <r>    4.9944    1.0333 </r>
       <r>    5.1856    0.8098 </r>
       <r>    5.3879    0.0746 </r>
       <r>    5.4222    0.0142 </r>
       <r>    5.5049   -0.0353 </r>
       <r>    5.7178   -0.0031 </r>
       <r>    5.7392   -0.0020 </r>
       <r>    5.7764   -0.0009 </r>
       <r>    6.1235   -0.0000 </r>
       <r>    6.1815   -0.0000 </r>
       <r>    6.2863   -0.0000 </r>
       <r>    6.3841   -0.0000 </r>
       <r>    6.4855   -0.0000 </r>
       <r>    6.8867   -0.0000 </r>
       <r>    6.9517   -0.0000 </r>
       <r>    6.9999   -0.0000 </r>
       <r>    7.1148   -0.0000 </r>
       <r>    7.1490   -0.0000 </r>
       <r>    7.4788   -0.0000 </r>
       <r>    7.6530   -0.0000 </r>
       <r>    7.6839   -0.0000 </r>
       <r>    7.7270   -0.0000 </r>
       <r>    7.9596   -0.0000 </r>
       <r>    8.0433   -0.0000 </r>
       <r>    8.1664   -0.0000 </r>
       <r>    8.2744   -0.0000 </r>
       <r>    8.3987   -0.0000 </r>
      </set>
      <set comment="kpoint 56">
       <r>   -3.2732    1.0000 </r>
       <r>   -3.0648    1.0000 </r>
       <r>   -2.8612    1.0000 </r>
       <r>   -2.6239    1.0000 </r>
       <r>   -1.8331    1.0000 </r>
       <r>   -1.4388    1.0000 </r>
       <r>   -1.2105    1.0000 </r>
       <r>   -0.7971    1.0000 </r>
       <r>   -0.4276    1.0000 </r>
       <r>   -0.1946    1.0000 </r>
       <r>    0.0094    1.0000 </r>
       <r>    0.2059    1.0000 </r>
       <r>    0.4154    1.0000 </r>
       <r>    0.6066    1.0000 </r>
       <r>    0.7955    1.0000 </r>
       <r>    0.9655    1.0000 </r>
       <r>    1.0163    1.0000 </r>
       <r>    1.1954    1.0000 </r>
       <r>    1.3556    1.0000 </r>
       <r>    1.5365    1.0000 </r>
       <r>    1.6234    1.0000 </r>
       <r>    1.7396    1.0000 </r>
       <r>    2.1233    1.0000 </r>
       <r>    2.2328    1.0000 </r>
       <r>    2.3268    1.0000 </r>
       <r>    2.5266    1.0000 </r>
       <r>    2.6164    1.0000 </r>
       <r>    2.7886    1.0000 </r>
       <r>    2.8920    1.0000 </r>
       <r>    2.9777    1.0000 </r>
       <r>    4.0265    1.0000 </r>
       <r>    4.0563    1.0000 </r>
       <r>    4.1541    1.0000 </r>
       <r>    4.2720    1.0000 </r>
       <r>    4.4360    1.0000 </r>
       <r>    4.7279    1.0005 </r>
       <r>    4.8054    1.0027 </r>
       <r>    4.9924    1.0330 </r>
       <r>    5.1820    0.8213 </r>
       <r>    5.3865    0.0777 </r>
       <r>    5.4231    0.0130 </r>
       <r>    5.5029   -0.0352 </r>
       <r>    5.7111   -0.0036 </r>
       <r>    5.7441   -0.0018 </r>
       <r>    5.8004   -0.0005 </r>
       <r>    6.1443   -0.0000 </r>
       <r>    6.1704   -0.0000 </r>
       <r>    6.2825   -0.0000 </r>
       <r>    6.3797   -0.0000 </r>
       <r>    6.4944   -0.0000 </r>
       <r>    6.8799   -0.0000 </r>
       <r>    6.9623   -0.0000 </r>
       <r>    7.0035   -0.0000 </r>
       <r>    7.0895   -0.0000 </r>
       <r>    7.1448   -0.0000 </r>
       <r>    7.4798   -0.0000 </r>
       <r>    7.6548   -0.0000 </r>
       <r>    7.6712   -0.0000 </r>
       <r>    7.7236   -0.0000 </r>
       <r>    7.9407   -0.0000 </r>
       <r>    8.0801   -0.0000 </r>
       <r>    8.1811   -0.0000 </r>
       <r>    8.2616   -0.0000 </r>
       <r>    8.3871   -0.0000 </r>
      </set>
      <set comment="kpoint 57">
       <r>   -3.2726    1.0000 </r>
       <r>   -3.0737    1.0000 </r>
       <r>   -2.8305    1.0000 </r>
       <r>   -2.6548    1.0000 </r>
       <r>   -1.8232    1.0000 </r>
       <r>   -1.4212    1.0000 </r>
       <r>   -1.2149    1.0000 </r>
       <r>   -0.8216    1.0000 </r>
       <r>   -0.4046    1.0000 </r>
       <r>   -0.1871    1.0000 </r>
       <r>    0.0010    1.0000 </r>
       <r>    0.1705    1.0000 </r>
       <r>    0.4162    1.0000 </r>
       <r>    0.5898    1.0000 </r>
       <r>    0.8060    1.0000 </r>
       <r>    0.9685    1.0000 </r>
       <r>    1.0126    1.0000 </r>
       <r>    1.2377    1.0000 </r>
       <r>    1.3384    1.0000 </r>
       <r>    1.5341    1.0000 </r>
       <r>    1.6271    1.0000 </r>
       <r>    1.7689    1.0000 </r>
       <r>    2.1237    1.0000 </r>
       <r>    2.2059    1.0000 </r>
       <r>    2.3361    1.0000 </r>
       <r>    2.5181    1.0000 </r>
       <r>    2.6149    1.0000 </r>
       <r>    2.7916    1.0000 </r>
       <r>    2.8956    1.0000 </r>
       <r>    2.9961    1.0000 </r>
       <r>    4.0126    1.0000 </r>
       <r>    4.0577    1.0000 </r>
       <r>    4.1341    1.0000 </r>
       <r>    4.2721    1.0000 </r>
       <r>    4.4397    1.0000 </r>
       <r>    4.7072    1.0003 </r>
       <r>    4.8127    1.0031 </r>
       <r>    4.9921    1.0329 </r>
       <r>    5.2011    0.7572 </r>
       <r>    5.3698    0.1181 </r>
       <r>    5.4048    0.0412 </r>
       <r>    5.5200   -0.0351 </r>
       <r>    5.7356   -0.0022 </r>
       <r>    5.7576   -0.0014 </r>
       <r>    5.7770   -0.0009 </r>
       <r>    6.1495   -0.0000 </r>
       <r>    6.1733   -0.0000 </r>
       <r>    6.2421   -0.0000 </r>
       <r>    6.3777   -0.0000 </r>
       <r>    6.4934   -0.0000 </r>
       <r>    6.8709   -0.0000 </r>
       <r>    6.9537   -0.0000 </r>
       <r>    7.0109   -0.0000 </r>
       <r>    7.1207   -0.0000 </r>
       <r>    7.1688   -0.0000 </r>
       <r>    7.4756   -0.0000 </r>
       <r>    7.6555   -0.0000 </r>
       <r>    7.6833   -0.0000 </r>
       <r>    7.7290   -0.0000 </r>
       <r>    7.9239   -0.0000 </r>
       <r>    8.0866   -0.0000 </r>
       <r>    8.1991   -0.0000 </r>
       <r>    8.2392   -0.0000 </r>
       <r>    8.4017   -0.0000 </r>
      </set>
      <set comment="kpoint 58">
       <r>   -3.2870    1.0000 </r>
       <r>   -3.0390    1.0000 </r>
       <r>   -2.8597    1.0000 </r>
       <r>   -2.6412    1.0000 </r>
       <r>   -1.8318    1.0000 </r>
       <r>   -1.4150    1.0000 </r>
       <r>   -1.2254    1.0000 </r>
       <r>   -0.8117    1.0000 </r>
       <r>   -0.4094    1.0000 </r>
       <r>   -0.2029    1.0000 </r>
       <r>    0.0033    1.0000 </r>
       <r>    0.1955    1.0000 </r>
       <r>    0.4111    1.0000 </r>
       <r>    0.5995    1.0000 </r>
       <r>    0.7862    1.0000 </r>
       <r>    0.9797    1.0000 </r>
       <r>    1.0253    1.0000 </r>
       <r>    1.2226    1.0000 </r>
       <r>    1.3420    1.0000 </r>
       <r>    1.5519    1.0000 </r>
       <r>    1.6049    1.0000 </r>
       <r>    1.7753    1.0000 </r>
       <r>    2.1233    1.0000 </r>
       <r>    2.2171    1.0000 </r>
       <r>    2.3428    1.0000 </r>
       <r>    2.4785    1.0000 </r>
       <r>    2.6384    1.0000 </r>
       <r>    2.7925    1.0000 </r>
       <r>    2.8708    1.0000 </r>
       <r>    2.9952    1.0000 </r>
       <r>    3.9966    1.0000 </r>
       <r>    4.0714    1.0000 </r>
       <r>    4.1613    1.0000 </r>
       <r>    4.2727    1.0000 </r>
       <r>    4.4203    1.0000 </r>
       <r>    4.7148    1.0003 </r>
       <r>    4.8139    1.0032 </r>
       <r>    5.0003    1.0341 </r>
       <r>    5.2119    0.7176 </r>
       <r>    5.3695    0.1188 </r>
       <r>    5.4048    0.0413 </r>
       <r>    5.4893   -0.0335 </r>
       <r>    5.7254   -0.0027 </r>
       <r>    5.7595   -0.0013 </r>
       <r>    5.7942   -0.0006 </r>
       <r>    6.1483   -0.0000 </r>
       <r>    6.1749   -0.0000 </r>
       <r>    6.2504   -0.0000 </r>
       <r>    6.3984   -0.0000 </r>
       <r>    6.4921   -0.0000 </r>
       <r>    6.8843   -0.0000 </r>
       <r>    6.9245   -0.0000 </r>
       <r>    7.0173   -0.0000 </r>
       <r>    7.1106   -0.0000 </r>
       <r>    7.1654   -0.0000 </r>
       <r>    7.4655   -0.0000 </r>
       <r>    7.6538   -0.0000 </r>
       <r>    7.6769   -0.0000 </r>
       <r>    7.7413   -0.0000 </r>
       <r>    7.9433   -0.0000 </r>
       <r>    8.0452   -0.0000 </r>
       <r>    8.1933   -0.0000 </r>
       <r>    8.2488   -0.0000 </r>
       <r>    8.4411   -0.0000 </r>
      </set>
      <set comment="kpoint 59">
       <r>   -3.2899    1.0000 </r>
       <r>   -3.0369    1.0000 </r>
       <r>   -2.8513    1.0000 </r>
       <r>   -2.6467    1.0000 </r>
       <r>   -1.8351    1.0000 </r>
       <r>   -1.4391    1.0000 </r>
       <r>   -1.2070    1.0000 </r>
       <r>   -0.7975    1.0000 </r>
       <r>   -0.4106    1.0000 </r>
       <r>   -0.2029    1.0000 </r>
       <r>    0.0002    1.0000 </r>
       <r>    0.1977    1.0000 </r>
       <r>    0.4066    1.0000 </r>
       <r>    0.6020    1.0000 </r>
       <r>    0.7864    1.0000 </r>
       <r>    0.9976    1.0000 </r>
       <r>    1.0274    1.0000 </r>
       <r>    1.2182    1.0000 </r>
       <r>    1.3421    1.0000 </r>
       <r>    1.5322    1.0000 </r>
       <r>    1.5913    1.0000 </r>
       <r>    1.7715    1.0000 </r>
       <r>    2.1322    1.0000 </r>
       <r>    2.2133    1.0000 </r>
       <r>    2.3293    1.0000 </r>
       <r>    2.4864    1.0000 </r>
       <r>    2.6561    1.0000 </r>
       <r>    2.7930    1.0000 </r>
       <r>    2.8797    1.0000 </r>
       <r>    2.9846    1.0000 </r>
       <r>    3.9860    1.0000 </r>
       <r>    4.0787    1.0000 </r>
       <r>    4.1673    1.0000 </r>
       <r>    4.2694    1.0000 </r>
       <r>    4.4223    1.0000 </r>
       <r>    4.7160    1.0004 </r>
       <r>    4.8101    1.0030 </r>
       <r>    5.0119    1.0352 </r>
       <r>    5.2042    0.7460 </r>
       <r>    5.3676    0.1240 </r>
       <r>    5.4133    0.0272 </r>
       <r>    5.4896   -0.0336 </r>
       <r>    5.7253   -0.0027 </r>
       <r>    5.7643   -0.0012 </r>
       <r>    5.7926   -0.0006 </r>
       <r>    6.1538   -0.0000 </r>
       <r>    6.1741   -0.0000 </r>
       <r>    6.2513   -0.0000 </r>
       <r>    6.3817   -0.0000 </r>
       <r>    6.5111   -0.0000 </r>
       <r>    6.8683   -0.0000 </r>
       <r>    6.9406   -0.0000 </r>
       <r>    7.0199   -0.0000 </r>
       <r>    7.1047   -0.0000 </r>
       <r>    7.1444   -0.0000 </r>
       <r>    7.4702   -0.0000 </r>
       <r>    7.6600   -0.0000 </r>
       <r>    7.6719   -0.0000 </r>
       <r>    7.7354   -0.0000 </r>
       <r>    7.9356   -0.0000 </r>
       <r>    8.0728   -0.0000 </r>
       <r>    8.1838   -0.0000 </r>
       <r>    8.2644   -0.0000 </r>
       <r>    8.3975   -0.0000 </r>
      </set>
      <set comment="kpoint 60">
       <r>   -3.2724    1.0000 </r>
       <r>   -3.0609    1.0000 </r>
       <r>   -2.8670    1.0000 </r>
       <r>   -2.6300    1.0000 </r>
       <r>   -1.8174    1.0000 </r>
       <r>   -1.4247    1.0000 </r>
       <r>   -1.2167    1.0000 </r>
       <r>   -0.8244    1.0000 </r>
       <r>   -0.4292    1.0000 </r>
       <r>   -0.1864    1.0000 </r>
       <r>    0.0186    1.0000 </r>
       <r>    0.1990    1.0000 </r>
       <r>    0.4076    1.0000 </r>
       <r>    0.5998    1.0000 </r>
       <r>    0.7896    1.0000 </r>
       <r>    0.9628    1.0000 </r>
       <r>    1.0317    1.0000 </r>
       <r>    1.1962    1.0000 </r>
       <r>    1.3512    1.0000 </r>
       <r>    1.5516    1.0000 </r>
       <r>    1.6193    1.0000 </r>
       <r>    1.7648    1.0000 </r>
       <r>    2.1016    1.0000 </r>
       <r>    2.2204    1.0000 </r>
       <r>    2.3415    1.0000 </r>
       <r>    2.5290    1.0000 </r>
       <r>    2.6177    1.0000 </r>
       <r>    2.7916    1.0000 </r>
       <r>    2.8857    1.0000 </r>
       <r>    2.9925    1.0000 </r>
       <r>    4.0230    1.0000 </r>
       <r>    4.0829    1.0000 </r>
       <r>    4.1252    1.0000 </r>
       <r>    4.2709    1.0000 </r>
       <r>    4.4250    1.0000 </r>
       <r>    4.7078    1.0003 </r>
       <r>    4.8102    1.0030 </r>
       <r>    4.9949    1.0333 </r>
       <r>    5.1775    0.8352 </r>
       <r>    5.3861    0.0785 </r>
       <r>    5.4141    0.0259 </r>
       <r>    5.5129   -0.0354 </r>
       <r>    5.7097   -0.0037 </r>
       <r>    5.7583   -0.0014 </r>
       <r>    5.7853   -0.0007 </r>
       <r>    6.1402   -0.0000 </r>
       <r>    6.1743   -0.0000 </r>
       <r>    6.2735   -0.0000 </r>
       <r>    6.3788   -0.0000 </r>
       <r>    6.4874   -0.0000 </r>
       <r>    6.8924   -0.0000 </r>
       <r>    6.9485   -0.0000 </r>
       <r>    7.0041   -0.0000 </r>
       <r>    7.1224   -0.0000 </r>
       <r>    7.1561   -0.0000 </r>
       <r>    7.4756   -0.0000 </r>
       <r>    7.6601   -0.0000 </r>
       <r>    7.6654   -0.0000 </r>
       <r>    7.7225   -0.0000 </r>
       <r>    7.9412   -0.0000 </r>
       <r>    8.0703   -0.0000 </r>
       <r>    8.1972   -0.0000 </r>
       <r>    8.2552   -0.0000 </r>
       <r>    8.4079   -0.0000 </r>
      </set>
      <set comment="kpoint 61">
       <r>   -3.2717    1.0000 </r>
       <r>   -3.0769    1.0000 </r>
       <r>   -2.8309    1.0000 </r>
       <r>   -2.6485    1.0000 </r>
       <r>   -1.8300    1.0000 </r>
       <r>   -1.4256    1.0000 </r>
       <r>   -1.2139    1.0000 </r>
       <r>   -0.8123    1.0000 </r>
       <r>   -0.3984    1.0000 </r>
       <r>   -0.2028    1.0000 </r>
       <r>    0.0099    1.0000 </r>
       <r>    0.1701    1.0000 </r>
       <r>    0.4078    1.0000 </r>
       <r>    0.6020    1.0000 </r>
       <r>    0.8153    1.0000 </r>
       <r>    0.9732    1.0000 </r>
       <r>    1.0052    1.0000 </r>
       <r>    1.2287    1.0000 </r>
       <r>    1.3270    1.0000 </r>
       <r>    1.5420    1.0000 </r>
       <r>    1.6383    1.0000 </r>
       <r>    1.7610    1.0000 </r>
       <r>    2.1208    1.0000 </r>
       <r>    2.2110    1.0000 </r>
       <r>    2.3339    1.0000 </r>
       <r>    2.5292    1.0000 </r>
       <r>    2.5990    1.0000 </r>
       <r>    2.7763    1.0000 </r>
       <r>    2.8920    1.0000 </r>
       <r>    3.0025    1.0000 </r>
       <r>    4.0137    1.0000 </r>
       <r>    4.0775    1.0000 </r>
       <r>    4.1238    1.0000 </r>
       <r>    4.2703    1.0000 </r>
       <r>    4.4360    1.0000 </r>
       <r>    4.7228    1.0004 </r>
       <r>    4.8212    1.0037 </r>
       <r>    4.9849    1.0317 </r>
       <r>    5.2086    0.7301 </r>
       <r>    5.3784    0.0964 </r>
       <r>    5.4084    0.0351 </r>
       <r>    5.5294   -0.0342 </r>
       <r>    5.7212   -0.0029 </r>
       <r>    5.7396   -0.0020 </r>
       <r>    5.7695   -0.0011 </r>
       <r>    6.1568   -0.0000 </r>
       <r>    6.1793   -0.0000 </r>
       <r>    6.2515   -0.0000 </r>
       <r>    6.3820   -0.0000 </r>
       <r>    6.4758   -0.0000 </r>
       <r>    6.8900   -0.0000 </r>
       <r>    6.9396   -0.0000 </r>
       <r>    7.0007   -0.0000 </r>
       <r>    7.1140   -0.0000 </r>
       <r>    7.1803   -0.0000 </r>
       <r>    7.4712   -0.0000 </r>
       <r>    7.6591   -0.0000 </r>
       <r>    7.6698   -0.0000 </r>
       <r>    7.7262   -0.0000 </r>
       <r>    7.9543   -0.0000 </r>
       <r>    8.0419   -0.0000 </r>
       <r>    8.1767   -0.0000 </r>
       <r>    8.2612   -0.0000 </r>
       <r>    8.4140   -0.0000 </r>
      </set>
      <set comment="kpoint 62">
       <r>   -3.2780    1.0000 </r>
       <r>   -3.0574    1.0000 </r>
       <r>   -2.8548    1.0000 </r>
       <r>   -2.6348    1.0000 </r>
       <r>   -1.8323    1.0000 </r>
       <r>   -1.4491    1.0000 </r>
       <r>   -1.1940    1.0000 </r>
       <r>   -0.8082    1.0000 </r>
       <r>   -0.3992    1.0000 </r>
       <r>   -0.1904    1.0000 </r>
       <r>   -0.0111    1.0000 </r>
       <r>    0.2012    1.0000 </r>
       <r>    0.3784    1.0000 </r>
       <r>    0.6179    1.0000 </r>
       <r>    0.8025    1.0000 </r>
       <r>    0.9848    1.0000 </r>
       <r>    1.0300    1.0000 </r>
       <r>    1.2146    1.0000 </r>
       <r>    1.3303    1.0000 </r>
       <r>    1.5165    1.0000 </r>
       <r>    1.6254    1.0000 </r>
       <r>    1.7485    1.0000 </r>
       <r>    2.1227    1.0000 </r>
       <r>    2.2177    1.0000 </r>
       <r>    2.3397    1.0000 </r>
       <r>    2.5121    1.0000 </r>
       <r>    2.6367    1.0000 </r>
       <r>    2.7876    1.0000 </r>
       <r>    2.8870    1.0000 </r>
       <r>    2.9893    1.0000 </r>
       <r>    4.0173    1.0000 </r>
       <r>    4.0588    1.0000 </r>
       <r>    4.1348    1.0000 </r>
       <r>    4.2811    1.0000 </r>
       <r>    4.4459    1.0000 </r>
       <r>    4.7028    1.0003 </r>
       <r>    4.8109    1.0030 </r>
       <r>    4.9937    1.0332 </r>
       <r>    5.2004    0.7598 </r>
       <r>    5.3931    0.0635 </r>
       <r>    5.4116    0.0298 </r>
       <r>    5.5036   -0.0353 </r>
       <r>    5.7306   -0.0024 </r>
       <r>    5.7538   -0.0015 </r>
       <r>    5.7946   -0.0006 </r>
       <r>    6.1536   -0.0000 </r>
       <r>    6.1785   -0.0000 </r>
       <r>    6.2481   -0.0000 </r>
       <r>    6.3747   -0.0000 </r>
       <r>    6.4906   -0.0000 </r>
       <r>    6.8730   -0.0000 </r>
       <r>    6.9495   -0.0000 </r>
       <r>    7.0030   -0.0000 </r>
       <r>    7.1078   -0.0000 </r>
       <r>    7.1331   -0.0000 </r>
       <r>    7.4866   -0.0000 </r>
       <r>    7.6598   -0.0000 </r>
       <r>    7.6921   -0.0000 </r>
       <r>    7.7214   -0.0000 </r>
       <r>    7.9377   -0.0000 </r>
       <r>    8.0836   -0.0000 </r>
       <r>    8.1489   -0.0000 </r>
       <r>    8.2782   -0.0000 </r>
       <r>    8.3928   -0.0000 </r>
      </set>
      <set comment="kpoint 63">
       <r>   -3.2741    1.0000 </r>
       <r>   -3.0663    1.0000 </r>
       <r>   -2.8506    1.0000 </r>
       <r>   -2.6382    1.0000 </r>
       <r>   -1.8207    1.0000 </r>
       <r>   -1.4233    1.0000 </r>
       <r>   -1.2219    1.0000 </r>
       <r>   -0.8174    1.0000 </r>
       <r>   -0.4070    1.0000 </r>
       <r>   -0.1989    1.0000 </r>
       <r>    0.0004    1.0000 </r>
       <r>    0.1828    1.0000 </r>
       <r>    0.4055    1.0000 </r>
       <r>    0.6044    1.0000 </r>
       <r>    0.8125    1.0000 </r>
       <r>    0.9868    1.0000 </r>
       <r>    1.0096    1.0000 </r>
       <r>    1.2204    1.0000 </r>
       <r>    1.3547    1.0000 </r>
       <r>    1.5122    1.0000 </r>
       <r>    1.6450    1.0000 </r>
       <r>    1.7370    1.0000 </r>
       <r>    2.1269    1.0000 </r>
       <r>    2.2204    1.0000 </r>
       <r>    2.3370    1.0000 </r>
       <r>    2.5224    1.0000 </r>
       <r>    2.6095    1.0000 </r>
       <r>    2.7960    1.0000 </r>
       <r>    2.8847    1.0000 </r>
       <r>    2.9930    1.0000 </r>
       <r>    4.0220    1.0000 </r>
       <r>    4.0696    1.0000 </r>
       <r>    4.1209    1.0000 </r>
       <r>    4.2727    1.0000 </r>
       <r>    4.4397    1.0000 </r>
       <r>    4.7013    1.0002 </r>
       <r>    4.8140    1.0032 </r>
       <r>    4.9897    1.0325 </r>
       <r>    5.2004    0.7597 </r>
       <r>    5.3779    0.0976 </r>
       <r>    5.4092    0.0337 </r>
       <r>    5.5056   -0.0354 </r>
       <r>    5.7307   -0.0024 </r>
       <r>    5.7563   -0.0014 </r>
       <r>    5.7906   -0.0006 </r>
       <r>    6.1385   -0.0000 </r>
       <r>    6.1786   -0.0000 </r>
       <r>    6.2522   -0.0000 </r>
       <r>    6.3755   -0.0000 </r>
       <r>    6.4898   -0.0000 </r>
       <r>    6.8765   -0.0000 </r>
       <r>    6.9541   -0.0000 </r>
       <r>    7.0084   -0.0000 </r>
       <r>    7.1147   -0.0000 </r>
       <r>    7.1622   -0.0000 </r>
       <r>    7.4787   -0.0000 </r>
       <r>    7.6501   -0.0000 </r>
       <r>    7.6949   -0.0000 </r>
       <r>    7.7312   -0.0000 </r>
       <r>    7.9472   -0.0000 </r>
       <r>    8.0583   -0.0000 </r>
       <r>    8.2013   -0.0000 </r>
       <r>    8.2432   -0.0000 </r>
       <r>    8.4044   -0.0000 </r>
      </set>
      <set comment="kpoint 64">
       <r>   -3.2764    1.0000 </r>
       <r>   -3.0604    1.0000 </r>
       <r>   -2.8521    1.0000 </r>
       <r>   -2.6405    1.0000 </r>
       <r>   -1.8200    1.0000 </r>
       <r>   -1.4274    1.0000 </r>
       <r>   -1.2230    1.0000 </r>
       <r>   -0.8194    1.0000 </r>
       <r>   -0.3905    1.0000 </r>
       <r>   -0.2138    1.0000 </r>
       <r>    0.0097    1.0000 </r>
       <r>    0.2048    1.0000 </r>
       <r>    0.3928    1.0000 </r>
       <r>    0.6141    1.0000 </r>
       <r>    0.7847    1.0000 </r>
       <r>    0.9906    1.0000 </r>
       <r>    1.0045    1.0000 </r>
       <r>    1.2271    1.0000 </r>
       <r>    1.3293    1.0000 </r>
       <r>    1.5315    1.0000 </r>
       <r>    1.6421    1.0000 </r>
       <r>    1.7484    1.0000 </r>
       <r>    2.1257    1.0000 </r>
       <r>    2.2055    1.0000 </r>
       <r>    2.3492    1.0000 </r>
       <r>    2.5179    1.0000 </r>
       <r>    2.6132    1.0000 </r>
       <r>    2.7944    1.0000 </r>
       <r>    2.8770    1.0000 </r>
       <r>    2.9987    1.0000 </r>
       <r>    4.0157    1.0000 </r>
       <r>    4.0638    1.0000 </r>
       <r>    4.1354    1.0000 </r>
       <r>    4.2744    1.0000 </r>
       <r>    4.4417    1.0000 </r>
       <r>    4.7053    1.0003 </r>
       <r>    4.8209    1.0036 </r>
       <r>    4.9775    1.0302 </r>
       <r>    5.1967    0.7727 </r>
       <r>    5.3802    0.0920 </r>
       <r>    5.4223    0.0141 </r>
       <r>    5.5145   -0.0354 </r>
       <r>    5.7108   -0.0036 </r>
       <r>    5.7476   -0.0017 </r>
       <r>    5.7945   -0.0006 </r>
       <r>    6.1609   -0.0000 </r>
       <r>    6.1823   -0.0000 </r>
       <r>    6.2657   -0.0000 </r>
       <r>    6.3601   -0.0000 </r>
       <r>    6.4821   -0.0000 </r>
       <r>    6.8857   -0.0000 </r>
       <r>    6.9492   -0.0000 </r>
       <r>    7.0013   -0.0000 </r>
       <r>    7.1231   -0.0000 </r>
       <r>    7.1578   -0.0000 </r>
       <r>    7.4756   -0.0000 </r>
       <r>    7.6528   -0.0000 </r>
       <r>    7.6669   -0.0000 </r>
       <r>    7.7479   -0.0000 </r>
       <r>    7.9479   -0.0000 </r>
       <r>    8.0364   -0.0000 </r>
       <r>    8.1747   -0.0000 </r>
       <r>    8.2600   -0.0000 </r>
       <r>    8.4129   -0.0000 </r>
      </set>
      <set comment="kpoint 65">
       <r>   -3.2691    1.0000 </r>
       <r>   -3.0817    1.0000 </r>
       <r>   -2.8330    1.0000 </r>
       <r>   -2.6443    1.0000 </r>
       <r>   -1.8284    1.0000 </r>
       <r>   -1.4169    1.0000 </r>
       <r>   -1.2149    1.0000 </r>
       <r>   -0.8210    1.0000 </r>
       <r>   -0.4023    1.0000 </r>
       <r>   -0.2084    1.0000 </r>
       <r>   -0.0070    1.0000 </r>
       <r>    0.1754    1.0000 </r>
       <r>    0.4296    1.0000 </r>
       <r>    0.6055    1.0000 </r>
       <r>    0.8028    1.0000 </r>
       <r>    0.9805    1.0000 </r>
       <r>    1.0058    1.0000 </r>
       <r>    1.2293    1.0000 </r>
       <r>    1.3443    1.0000 </r>
       <r>    1.5309    1.0000 </r>
       <r>    1.6309    1.0000 </r>
       <r>    1.7528    1.0000 </r>
       <r>    2.1290    1.0000 </r>
       <r>    2.2196    1.0000 </r>
       <r>    2.3428    1.0000 </r>
       <r>    2.5168    1.0000 </r>
       <r>    2.5917    1.0000 </r>
       <r>    2.7936    1.0000 </r>
       <r>    2.9009    1.0000 </r>
       <r>    2.9870    1.0000 </r>
       <r>    4.0208    1.0000 </r>
       <r>    4.0708    1.0000 </r>
       <r>    4.1159    1.0000 </r>
       <r>    4.2723    1.0000 </r>
       <r>    4.4330    1.0000 </r>
       <r>    4.7128    1.0003 </r>
       <r>    4.8240    1.0039 </r>
       <r>    4.9953    1.0334 </r>
       <r>    5.1941    0.7816 </r>
       <r>    5.3815    0.0890 </r>
       <r>    5.3967    0.0563 </r>
       <r>    5.5156   -0.0354 </r>
       <r>    5.7323   -0.0023 </r>
       <r>    5.7509   -0.0016 </r>
       <r>    5.7750   -0.0009 </r>
       <r>    6.1487   -0.0000 </r>
       <r>    6.1855   -0.0000 </r>
       <r>    6.2428   -0.0000 </r>
       <r>    6.3822   -0.0000 </r>
       <r>    6.4817   -0.0000 </r>
       <r>    6.9023   -0.0000 </r>
       <r>    6.9504   -0.0000 </r>
       <r>    7.0008   -0.0000 </r>
       <r>    7.1180   -0.0000 </r>
       <r>    7.1474   -0.0000 </r>
       <r>    7.4664   -0.0000 </r>
       <r>    7.6521   -0.0000 </r>
       <r>    7.6899   -0.0000 </r>
       <r>    7.7329   -0.0000 </r>
       <r>    7.9257   -0.0000 </r>
       <r>    8.0894   -0.0000 </r>
       <r>    8.2047   -0.0000 </r>
       <r>    8.2397   -0.0000 </r>
       <r>    8.4198   -0.0000 </r>
      </set>
      <set comment="kpoint 66">
       <r>   -3.2883    1.0000 </r>
       <r>   -3.0395    1.0000 </r>
       <r>   -2.8506    1.0000 </r>
       <r>   -2.6492    1.0000 </r>
       <r>   -1.8308    1.0000 </r>
       <r>   -1.4277    1.0000 </r>
       <r>   -1.2088    1.0000 </r>
       <r>   -0.8192    1.0000 </r>
       <r>   -0.4021    1.0000 </r>
       <r>   -0.2062    1.0000 </r>
       <r>    0.0034    1.0000 </r>
       <r>    0.2018    1.0000 </r>
       <r>    0.3992    1.0000 </r>
       <r>    0.6136    1.0000 </r>
       <r>    0.7694    1.0000 </r>
       <r>    0.9731    1.0000 </r>
       <r>    1.0547    1.0000 </r>
       <r>    1.2178    1.0000 </r>
       <r>    1.3409    1.0000 </r>
       <r>    1.5385    1.0000 </r>
       <r>    1.5933    1.0000 </r>
       <r>    1.7875    1.0000 </r>
       <r>    2.1412    1.0000 </r>
       <r>    2.2046    1.0000 </r>
       <r>    2.3217    1.0000 </r>
       <r>    2.4927    1.0000 </r>
       <r>    2.6428    1.0000 </r>
       <r>    2.7822    1.0000 </r>
       <r>    2.8829    1.0000 </r>
       <r>    2.9955    1.0000 </r>
       <r>    3.9890    1.0000 </r>
       <r>    4.0617    1.0000 </r>
       <r>    4.1745    1.0000 </r>
       <r>    4.2686    1.0000 </r>
       <r>    4.4284    1.0000 </r>
       <r>    4.7123    1.0003 </r>
       <r>    4.8112    1.0030 </r>
       <r>    4.9913    1.0328 </r>
       <r>    5.2235    0.6732 </r>
       <r>    5.3763    0.1014 </r>
       <r>    5.4043    0.0421 </r>
       <r>    5.5125   -0.0354 </r>
       <r>    5.7229   -0.0028 </r>
       <r>    5.7513   -0.0016 </r>
       <r>    5.7811   -0.0008 </r>
       <r>    6.1588   -0.0000 </r>
       <r>    6.1797   -0.0000 </r>
       <r>    6.2568   -0.0000 </r>
       <r>    6.3769   -0.0000 </r>
       <r>    6.4778   -0.0000 </r>
       <r>    6.8833   -0.0000 </r>
       <r>    6.9441   -0.0000 </r>
       <r>    6.9957   -0.0000 </r>
       <r>    7.1240   -0.0000 </r>
       <r>    7.1589   -0.0000 </r>
       <r>    7.4688   -0.0000 </r>
       <r>    7.6562   -0.0000 </r>
       <r>    7.6758   -0.0000 </r>
       <r>    7.7425   -0.0000 </r>
       <r>    7.9311   -0.0000 </r>
       <r>    8.0498   -0.0000 </r>
       <r>    8.1742   -0.0000 </r>
       <r>    8.2742   -0.0000 </r>
       <r>    8.4135   -0.0000 </r>
      </set>
      <set comment="kpoint 67">
       <r>   -3.2748    1.0000 </r>
       <r>   -3.0573    1.0000 </r>
       <r>   -2.8675    1.0000 </r>
       <r>   -2.6253    1.0000 </r>
       <r>   -1.8352    1.0000 </r>
       <r>   -1.4329    1.0000 </r>
       <r>   -1.2064    1.0000 </r>
       <r>   -0.8073    1.0000 </r>
       <r>   -0.4197    1.0000 </r>
       <r>   -0.1847    1.0000 </r>
       <r>    0.0025    1.0000 </r>
       <r>    0.2063    1.0000 </r>
       <r>    0.4076    1.0000 </r>
       <r>    0.5863    1.0000 </r>
       <r>    0.8073    1.0000 </r>
       <r>    0.9626    1.0000 </r>
       <r>    1.0284    1.0000 </r>
       <r>    1.1869    1.0000 </r>
       <r>    1.3681    1.0000 </r>
       <r>    1.5354    1.0000 </r>
       <r>    1.6215    1.0000 </r>
       <r>    1.7490    1.0000 </r>
       <r>    2.0902    1.0000 </r>
       <r>    2.2446    1.0000 </r>
       <r>    2.3361    1.0000 </r>
       <r>    2.5193    1.0000 </r>
       <r>    2.6180    1.0000 </r>
       <r>    2.7977    1.0000 </r>
       <r>    2.8879    1.0000 </r>
       <r>    2.9857    1.0000 </r>
       <r>    4.0179    1.0000 </r>
       <r>    4.0685    1.0000 </r>
       <r>    4.1489    1.0000 </r>
       <r>    4.2660    1.0000 </r>
       <r>    4.4306    1.0000 </r>
       <r>    4.7299    1.0005 </r>
       <r>    4.7991    1.0024 </r>
       <r>    5.0004    1.0341 </r>
       <r>    5.2026    0.7519 </r>
       <r>    5.3751    0.1045 </r>
       <r>    5.4184    0.0195 </r>
       <r>    5.5128   -0.0354 </r>
       <r>    5.7083   -0.0038 </r>
       <r>    5.7603   -0.0013 </r>
       <r>    5.7886   -0.0007 </r>
       <r>    6.1444   -0.0000 </r>
       <r>    6.1657   -0.0000 </r>
       <r>    6.2688   -0.0000 </r>
       <r>    6.3718   -0.0000 </r>
       <r>    6.4999   -0.0000 </r>
       <r>    6.8767   -0.0000 </r>
       <r>    6.9529   -0.0000 </r>
       <r>    7.0054   -0.0000 </r>
       <r>    7.1016   -0.0000 </r>
       <r>    7.1485   -0.0000 </r>
       <r>    7.4763   -0.0000 </r>
       <r>    7.6555   -0.0000 </r>
       <r>    7.6662   -0.0000 </r>
       <r>    7.7270   -0.0000 </r>
       <r>    7.9518   -0.0000 </r>
       <r>    8.0655   -0.0000 </r>
       <r>    8.2121   -0.0000 </r>
       <r>    8.2410   -0.0000 </r>
       <r>    8.3990   -0.0000 </r>
      </set>
      <set comment="kpoint 68">
       <r>   -3.2702    1.0000 </r>
       <r>   -3.0661    1.0000 </r>
       <r>   -2.8640    1.0000 </r>
       <r>   -2.6282    1.0000 </r>
       <r>   -1.8249    1.0000 </r>
       <r>   -1.4288    1.0000 </r>
       <r>   -1.2035    1.0000 </r>
       <r>   -0.8306    1.0000 </r>
       <r>   -0.4182    1.0000 </r>
       <r>   -0.1813    1.0000 </r>
       <r>    0.0136    1.0000 </r>
       <r>    0.1947    1.0000 </r>
       <r>    0.3964    1.0000 </r>
       <r>    0.6035    1.0000 </r>
       <r>    0.7903    1.0000 </r>
       <r>    0.9685    1.0000 </r>
       <r>    1.0231    1.0000 </r>
       <r>    1.1928    1.0000 </r>
       <r>    1.3744    1.0000 </r>
       <r>    1.5415    1.0000 </r>
       <r>    1.6249    1.0000 </r>
       <r>    1.7557    1.0000 </r>
       <r>    2.0966    1.0000 </r>
       <r>    2.2318    1.0000 </r>
       <r>    2.3445    1.0000 </r>
       <r>    2.5235    1.0000 </r>
       <r>    2.6103    1.0000 </r>
       <r>    2.7828    1.0000 </r>
       <r>    2.8856    1.0000 </r>
       <r>    2.9924    1.0000 </r>
       <r>    4.0195    1.0000 </r>
       <r>    4.0737    1.0000 </r>
       <r>    4.1453    1.0000 </r>
       <r>    4.2709    1.0000 </r>
       <r>    4.4292    1.0000 </r>
       <r>    4.7238    1.0004 </r>
       <r>    4.8050    1.0027 </r>
       <r>    4.9936    1.0332 </r>
       <r>    5.1953    0.7776 </r>
       <r>    5.3773    0.0990 </r>
       <r>    5.4201    0.0171 </r>
       <r>    5.5113   -0.0355 </r>
       <r>    5.6975   -0.0046 </r>
       <r>    5.7488   -0.0017 </r>
       <r>    5.7944   -0.0006 </r>
       <r>    6.1412   -0.0000 </r>
       <r>    6.1725   -0.0000 </r>
       <r>    6.2754   -0.0000 </r>
       <r>    6.3692   -0.0000 </r>
       <r>    6.4962   -0.0000 </r>
       <r>    6.8715   -0.0000 </r>
       <r>    6.9504   -0.0000 </r>
       <r>    7.0070   -0.0000 </r>
       <r>    7.1160   -0.0000 </r>
       <r>    7.1608   -0.0000 </r>
       <r>    7.4709   -0.0000 </r>
       <r>    7.6570   -0.0000 </r>
       <r>    7.6653   -0.0000 </r>
       <r>    7.7406   -0.0000 </r>
       <r>    7.9582   -0.0000 </r>
       <r>    8.0483   -0.0000 </r>
       <r>    8.1776   -0.0000 </r>
       <r>    8.2672   -0.0000 </r>
       <r>    8.4168   -0.0000 </r>
      </set>
      <set comment="kpoint 69">
       <r>   -3.2765    1.0000 </r>
       <r>   -3.0711    1.0000 </r>
       <r>   -2.8303    1.0000 </r>
       <r>   -2.6451    1.0000 </r>
       <r>   -1.8399    1.0000 </r>
       <r>   -1.4354    1.0000 </r>
       <r>   -1.2074    1.0000 </r>
       <r>   -0.7988    1.0000 </r>
       <r>   -0.4068    1.0000 </r>
       <r>   -0.1992    1.0000 </r>
       <r>   -0.0037    1.0000 </r>
       <r>    0.1867    1.0000 </r>
       <r>    0.4153    1.0000 </r>
       <r>    0.6155    1.0000 </r>
       <r>    0.8091    1.0000 </r>
       <r>    0.9717    1.0000 </r>
       <r>    1.0014    1.0000 </r>
       <r>    1.2258    1.0000 </r>
       <r>    1.3291    1.0000 </r>
       <r>    1.5412    1.0000 </r>
       <r>    1.6213    1.0000 </r>
       <r>    1.7436    1.0000 </r>
       <r>    2.1319    1.0000 </r>
       <r>    2.2220    1.0000 </r>
       <r>    2.3313    1.0000 </r>
       <r>    2.5064    1.0000 </r>
       <r>    2.6148    1.0000 </r>
       <r>    2.7879    1.0000 </r>
       <r>    2.9025    1.0000 </r>
       <r>    2.9882    1.0000 </r>
       <r>    4.0053    1.0000 </r>
       <r>    4.0621    1.0000 </r>
       <r>    4.1440    1.0000 </r>
       <r>    4.2740    1.0000 </r>
       <r>    4.4316    1.0000 </r>
       <r>    4.7283    1.0005 </r>
       <r>    4.8170    1.0034 </r>
       <r>    4.9926    1.0330 </r>
       <r>    5.2057    0.7408 </r>
       <r>    5.3830    0.0854 </r>
       <r>    5.4138    0.0263 </r>
       <r>    5.5100   -0.0355 </r>
       <r>    5.7287   -0.0025 </r>
       <r>    5.7363   -0.0022 </r>
       <r>    5.7887   -0.0007 </r>
       <r>    6.1552   -0.0000 </r>
       <r>    6.1805   -0.0000 </r>
       <r>    6.2781   -0.0000 </r>
       <r>    6.3689   -0.0000 </r>
       <r>    6.4746   -0.0000 </r>
       <r>    6.8694   -0.0000 </r>
       <r>    6.9651   -0.0000 </r>
       <r>    7.0152   -0.0000 </r>
       <r>    7.0952   -0.0000 </r>
       <r>    7.1486   -0.0000 </r>
       <r>    7.4756   -0.0000 </r>
       <r>    7.6480   -0.0000 </r>
       <r>    7.6797   -0.0000 </r>
       <r>    7.7330   -0.0000 </r>
       <r>    7.9314   -0.0000 </r>
       <r>    8.0553   -0.0000 </r>
       <r>    8.1926   -0.0000 </r>
       <r>    8.2700   -0.0000 </r>
       <r>    8.3937   -0.0000 </r>
      </set>
      <set comment="kpoint 70">
       <r>   -3.2875    1.0000 </r>
       <r>   -3.0380    1.0000 </r>
       <r>   -2.8547    1.0000 </r>
       <r>   -2.6506    1.0000 </r>
       <r>   -1.8219    1.0000 </r>
       <r>   -1.4222    1.0000 </r>
       <r>   -1.2217    1.0000 </r>
       <r>   -0.8122    1.0000 </r>
       <r>   -0.4039    1.0000 </r>
       <r>   -0.2159    1.0000 </r>
       <r>    0.0068    1.0000 </r>
       <r>    0.2024    1.0000 </r>
       <r>    0.3905    1.0000 </r>
       <r>    0.6059    1.0000 </r>
       <r>    0.7744    1.0000 </r>
       <r>    1.0039    1.0000 </r>
       <r>    1.0384    1.0000 </r>
       <r>    1.2201    1.0000 </r>
       <r>    1.3412    1.0000 </r>
       <r>    1.5270    1.0000 </r>
       <r>    1.6053    1.0000 </r>
       <r>    1.7790    1.0000 </r>
       <r>    2.1326    1.0000 </r>
       <r>    2.2129    1.0000 </r>
       <r>    2.3261    1.0000 </r>
       <r>    2.4989    1.0000 </r>
       <r>    2.6478    1.0000 </r>
       <r>    2.7873    1.0000 </r>
       <r>    2.8776    1.0000 </r>
       <r>    2.9959    1.0000 </r>
       <r>    3.9810    1.0000 </r>
       <r>    4.0862    1.0000 </r>
       <r>    4.1521    1.0000 </r>
       <r>    4.2744    1.0000 </r>
       <r>    4.4251    1.0000 </r>
       <r>    4.6963    1.0002 </r>
       <r>    4.8131    1.0031 </r>
       <r>    5.0034    1.0345 </r>
       <r>    5.1957    0.7762 </r>
       <r>    5.3713    0.1143 </r>
       <r>    5.3984    0.0530 </r>
       <r>    5.5144   -0.0354 </r>
       <r>    5.7203   -0.0030 </r>
       <r>    5.7673   -0.0011 </r>
       <r>    5.7945   -0.0006 </r>
       <r>    6.1524   -0.0000 </r>
       <r>    6.1856   -0.0000 </r>
       <r>    6.2309   -0.0000 </r>
       <r>    6.3802   -0.0000 </r>
       <r>    6.5002   -0.0000 </r>
       <r>    6.8699   -0.0000 </r>
       <r>    6.9380   -0.0000 </r>
       <r>    7.0176   -0.0000 </r>
       <r>    7.1188   -0.0000 </r>
       <r>    7.1696   -0.0000 </r>
       <r>    7.4646   -0.0000 </r>
       <r>    7.6550   -0.0000 </r>
       <r>    7.6812   -0.0000 </r>
       <r>    7.7265   -0.0000 </r>
       <r>    7.9298   -0.0000 </r>
       <r>    8.0942   -0.0000 </r>
       <r>    8.2021   -0.0000 </r>
       <r>    8.2450   -0.0000 </r>
       <r>    8.4100   -0.0000 </r>
      </set>
      <set comment="kpoint 71">
       <r>   -3.2777    1.0000 </r>
       <r>   -3.0583    1.0000 </r>
       <r>   -2.8559    1.0000 </r>
       <r>   -2.6343    1.0000 </r>
       <r>   -1.8260    1.0000 </r>
       <r>   -1.4415    1.0000 </r>
       <r>   -1.1991    1.0000 </r>
       <r>   -0.8227    1.0000 </r>
       <r>   -0.4029    1.0000 </r>
       <r>   -0.2009    1.0000 </r>
       <r>   -0.0064    1.0000 </r>
       <r>    0.2063    1.0000 </r>
       <r>    0.3974    1.0000 </r>
       <r>    0.6234    1.0000 </r>
       <r>    0.7897    1.0000 </r>
       <r>    0.9902    1.0000 </r>
       <r>    1.0145    1.0000 </r>
       <r>    1.2094    1.0000 </r>
       <r>    1.3484    1.0000 </r>
       <r>    1.5251    1.0000 </r>
       <r>    1.6232    1.0000 </r>
       <r>    1.7412    1.0000 </r>
       <r>    2.1364    1.0000 </r>
       <r>    2.2189    1.0000 </r>
       <r>    2.3518    1.0000 </r>
       <r>    2.5057    1.0000 </r>
       <r>    2.6114    1.0000 </r>
       <r>    2.7902    1.0000 </r>
       <r>    2.8788    1.0000 </r>
       <r>    2.9948    1.0000 </r>
       <r>    4.0190    1.0000 </r>
       <r>    4.0606    1.0000 </r>
       <r>    4.1322    1.0000 </r>
       <r>    4.2766    1.0000 </r>
       <r>    4.4444    1.0000 </r>
       <r>    4.7053    1.0003 </r>
       <r>    4.8238    1.0039 </r>
       <r>    4.9894    1.0325 </r>
       <r>    5.2026    0.7519 </r>
       <r>    5.3870    0.0766 </r>
       <r>    5.4145    0.0253 </r>
       <r>    5.5050   -0.0353 </r>
       <r>    5.7344   -0.0023 </r>
       <r>    5.7406   -0.0020 </r>
       <r>    5.7785   -0.0009 </r>
       <r>    6.1525   -0.0000 </r>
       <r>    6.1775   -0.0000 </r>
       <r>    6.2710   -0.0000 </r>
       <r>    6.3781   -0.0000 </r>
       <r>    6.4746   -0.0000 </r>
       <r>    6.8893   -0.0000 </r>
       <r>    6.9452   -0.0000 </r>
       <r>    6.9977   -0.0000 </r>
       <r>    7.1095   -0.0000 </r>
       <r>    7.1387   -0.0000 </r>
       <r>    7.4874   -0.0000 </r>
       <r>    7.6678   -0.0000 </r>
       <r>    7.6839   -0.0000 </r>
       <r>    7.7308   -0.0000 </r>
       <r>    7.9460   -0.0000 </r>
       <r>    8.0472   -0.0000 </r>
       <r>    8.1473   -0.0000 </r>
       <r>    8.2922   -0.0000 </r>
       <r>    8.4014   -0.0000 </r>
      </set>
      <set comment="kpoint 72">
       <r>   -3.2764    1.0000 </r>
       <r>   -3.0632    1.0000 </r>
       <r>   -2.8495    1.0000 </r>
       <r>   -2.6359    1.0000 </r>
       <r>   -1.8321    1.0000 </r>
       <r>   -1.4353    1.0000 </r>
       <r>   -1.2113    1.0000 </r>
       <r>   -0.8053    1.0000 </r>
       <r>   -0.4019    1.0000 </r>
       <r>   -0.1996    1.0000 </r>
       <r>   -0.0107    1.0000 </r>
       <r>    0.2029    1.0000 </r>
       <r>    0.4018    1.0000 </r>
       <r>    0.5989    1.0000 </r>
       <r>    0.8167    1.0000 </r>
       <r>    0.9813    1.0000 </r>
       <r>    1.0185    1.0000 </r>
       <r>    1.2280    1.0000 </r>
       <r>    1.3384    1.0000 </r>
       <r>    1.5147    1.0000 </r>
       <r>    1.6153    1.0000 </r>
       <r>    1.7447    1.0000 </r>
       <r>    2.1341    1.0000 </r>
       <r>    2.2029    1.0000 </r>
       <r>    2.3413    1.0000 </r>
       <r>    2.5310    1.0000 </r>
       <r>    2.6078    1.0000 </r>
       <r>    2.7925    1.0000 </r>
       <r>    2.8943    1.0000 </r>
       <r>    2.9899    1.0000 </r>
       <r>    4.0252    1.0000 </r>
       <r>    4.0582    1.0000 </r>
       <r>    4.1383    1.0000 </r>
       <r>    4.2670    1.0000 </r>
       <r>    4.4401    1.0000 </r>
       <r>    4.7115    1.0003 </r>
       <r>    4.8186    1.0035 </r>
       <r>    4.9863    1.0319 </r>
       <r>    5.1961    0.7747 </r>
       <r>    5.3752    0.1043 </r>
       <r>    5.4293    0.0052 </r>
       <r>    5.5097   -0.0355 </r>
       <r>    5.7130   -0.0034 </r>
       <r>    5.7661   -0.0011 </r>
       <r>    5.7904   -0.0007 </r>
       <r>    6.1490   -0.0000 </r>
       <r>    6.1751   -0.0000 </r>
       <r>    6.2646   -0.0000 </r>
       <r>    6.3737   -0.0000 </r>
       <r>    6.4893   -0.0000 </r>
       <r>    6.8620   -0.0000 </r>
       <r>    6.9489   -0.0000 </r>
       <r>    7.0062   -0.0000 </r>
       <r>    7.1267   -0.0000 </r>
       <r>    7.1362   -0.0000 </r>
       <r>    7.4740   -0.0000 </r>
       <r>    7.6488   -0.0000 </r>
       <r>    7.6792   -0.0000 </r>
       <r>    7.7508   -0.0000 </r>
       <r>    7.9405   -0.0000 </r>
       <r>    8.0648   -0.0000 </r>
       <r>    8.1794   -0.0000 </r>
       <r>    8.2616   -0.0000 </r>
       <r>    8.4024   -0.0000 </r>
      </set>
      <set comment="kpoint 73">
       <r>   -3.2745    1.0000 </r>
       <r>   -3.0624    1.0000 </r>
       <r>   -2.8519    1.0000 </r>
       <r>   -2.6434    1.0000 </r>
       <r>   -1.8171    1.0000 </r>
       <r>   -1.4233    1.0000 </r>
       <r>   -1.2209    1.0000 </r>
       <r>   -0.8242    1.0000 </r>
       <r>   -0.3844    1.0000 </r>
       <r>   -0.2151    1.0000 </r>
       <r>    0.0093    1.0000 </r>
       <r>    0.1899    1.0000 </r>
       <r>    0.3934    1.0000 </r>
       <r>    0.5992    1.0000 </r>
       <r>    0.7988    1.0000 </r>
       <r>    0.9839    1.0000 </r>
       <r>    1.0223    1.0000 </r>
       <r>    1.2176    1.0000 </r>
       <r>    1.3306    1.0000 </r>
       <r>    1.5321    1.0000 </r>
       <r>    1.6381    1.0000 </r>
       <r>    1.7607    1.0000 </r>
       <r>    2.1300    1.0000 </r>
       <r>    2.2030    1.0000 </r>
       <r>    2.3330    1.0000 </r>
       <r>    2.5223    1.0000 </r>
       <r>    2.6302    1.0000 </r>
       <r>    2.7999    1.0000 </r>
       <r>    2.8791    1.0000 </r>
       <r>    2.9934    1.0000 </r>
       <r>    4.0187    1.0000 </r>
       <r>    4.0690    1.0000 </r>
       <r>    4.1216    1.0000 </r>
       <r>    4.2711    1.0000 </r>
       <r>    4.4391    1.0000 </r>
       <r>    4.6950    1.0002 </r>
       <r>    4.8153    1.0033 </r>
       <r>    4.9910    1.0327 </r>
       <r>    5.1952    0.7780 </r>
       <r>    5.3806    0.0912 </r>
       <r>    5.4142    0.0258 </r>
       <r>    5.5101   -0.0355 </r>
       <r>    5.7267   -0.0026 </r>
       <r>    5.7691   -0.0011 </r>
       <r>    5.7785   -0.0009 </r>
       <r>    6.1488   -0.0000 </r>
       <r>    6.1760   -0.0000 </r>
       <r>    6.2355   -0.0000 </r>
       <r>    6.3674   -0.0000 </r>
       <r>    6.4962   -0.0000 </r>
       <r>    6.8873   -0.0000 </r>
       <r>    6.9473   -0.0000 </r>
       <r>    7.0053   -0.0000 </r>
       <r>    7.1284   -0.0000 </r>
       <r>    7.1588   -0.0000 </r>
       <r>    7.4811   -0.0000 </r>
       <r>    7.6680   -0.0000 </r>
       <r>    7.6825   -0.0000 </r>
       <r>    7.7273   -0.0000 </r>
       <r>    7.9397   -0.0000 </r>
       <r>    8.0725   -0.0000 </r>
       <r>    8.1962   -0.0000 </r>
       <r>    8.2297   -0.0000 </r>
       <r>    8.4139   -0.0000 </r>
      </set>
      <set comment="kpoint 74">
       <r>   -3.2738    1.0000 </r>
       <r>   -3.0575    1.0000 </r>
       <r>   -2.8705    1.0000 </r>
       <r>   -2.6269    1.0000 </r>
       <r>   -1.8224    1.0000 </r>
       <r>   -1.4270    1.0000 </r>
       <r>   -1.2105    1.0000 </r>
       <r>   -0.8203    1.0000 </r>
       <r>   -0.4242    1.0000 </r>
       <r>   -0.2125    1.0000 </r>
       <r>    0.0267    1.0000 </r>
       <r>    0.2079    1.0000 </r>
       <r>    0.4104    1.0000 </r>
       <r>    0.5981    1.0000 </r>
       <r>    0.8008    1.0000 </r>
       <r>    0.9683    1.0000 </r>
       <r>    1.0149    1.0000 </r>
       <r>    1.2021    1.0000 </r>
       <r>    1.3432    1.0000 </r>
       <r>    1.5357    1.0000 </r>
       <r>    1.6340    1.0000 </r>
       <r>    1.7545    1.0000 </r>
       <r>    2.1077    1.0000 </r>
       <r>    2.2311    1.0000 </r>
       <r>    2.3524    1.0000 </r>
       <r>    2.5236    1.0000 </r>
       <r>    2.6062    1.0000 </r>
       <r>    2.7996    1.0000 </r>
       <r>    2.8814    1.0000 </r>
       <r>    2.9895    1.0000 </r>
       <r>    4.0054    1.0000 </r>
       <r>    4.0732    1.0000 </r>
       <r>    4.1391    1.0000 </r>
       <r>    4.2734    1.0000 </r>
       <r>    4.4311    1.0000 </r>
       <r>    4.7162    1.0004 </r>
       <r>    4.8074    1.0028 </r>
       <r>    4.9967    1.0336 </r>
       <r>    5.1908    0.7928 </r>
       <r>    5.3818    0.0882 </r>
       <r>    5.4110    0.0309 </r>
       <r>    5.5027   -0.0352 </r>
       <r>    5.7270   -0.0026 </r>
       <r>    5.7505   -0.0016 </r>
       <r>    5.7894   -0.0007 </r>
       <r>    6.1243   -0.0000 </r>
       <r>    6.1773   -0.0000 </r>
       <r>    6.2845   -0.0000 </r>
       <r>    6.3673   -0.0000 </r>
       <r>    6.4893   -0.0000 </r>
       <r>    6.8788   -0.0000 </r>
       <r>    6.9522   -0.0000 </r>
       <r>    7.0103   -0.0000 </r>
       <r>    7.1246   -0.0000 </r>
       <r>    7.1486   -0.0000 </r>
       <r>    7.4760   -0.0000 </r>
       <r>    7.6572   -0.0000 </r>
       <r>    7.6739   -0.0000 </r>
       <r>    7.7390   -0.0000 </r>
       <r>    7.9420   -0.0000 </r>
       <r>    8.0505   -0.0000 </r>
       <r>    8.2098   -0.0000 </r>
       <r>    8.2546   -0.0000 </r>
       <r>    8.4000   -0.0000 </r>
      </set>
      <set comment="kpoint 75">
       <r>   -3.2899    1.0000 </r>
       <r>   -3.0380    1.0000 </r>
       <r>   -2.8497    1.0000 </r>
       <r>   -2.6458    1.0000 </r>
       <r>   -1.8421    1.0000 </r>
       <r>   -1.4366    1.0000 </r>
       <r>   -1.1992    1.0000 </r>
       <r>   -0.8029    1.0000 </r>
       <r>   -0.4089    1.0000 </r>
       <r>   -0.2095    1.0000 </r>
       <r>    0.0088    1.0000 </r>
       <r>    0.1997    1.0000 </r>
       <r>    0.4115    1.0000 </r>
       <r>    0.5952    1.0000 </r>
       <r>    0.7903    1.0000 </r>
       <r>    0.9685    1.0000 </r>
       <r>    1.0473    1.0000 </r>
       <r>    1.2193    1.0000 </r>
       <r>    1.3353    1.0000 </r>
       <r>    1.5289    1.0000 </r>
       <r>    1.6030    1.0000 </r>
       <r>    1.7639    1.0000 </r>
       <r>    2.1426    1.0000 </r>
       <r>    2.2143    1.0000 </r>
       <r>    2.3134    1.0000 </r>
       <r>    2.5101    1.0000 </r>
       <r>    2.6487    1.0000 </r>
       <r>    2.7928    1.0000 </r>
       <r>    2.8790    1.0000 </r>
       <r>    2.9845    1.0000 </r>
       <r>    3.9772    1.0000 </r>
       <r>    4.0586    1.0000 </r>
       <r>    4.1804    1.0000 </r>
       <r>    4.2681    1.0000 </r>
       <r>    4.4301    1.0000 </r>
       <r>    4.7172    1.0004 </r>
       <r>    4.8124    1.0031 </r>
       <r>    5.0058    1.0347 </r>
       <r>    5.2127    0.7147 </r>
       <r>    5.3853    0.0804 </r>
       <r>    5.4110    0.0309 </r>
       <r>    5.4894   -0.0335 </r>
       <r>    5.7380   -0.0021 </r>
       <r>    5.7557   -0.0014 </r>
       <r>    5.7811   -0.0008 </r>
       <r>    6.1665   -0.0000 </r>
       <r>    6.1712   -0.0000 </r>
       <r>    6.2542   -0.0000 </r>
       <r>    6.3720   -0.0000 </r>
       <r>    6.4882   -0.0000 </r>
       <r>    6.8498   -0.0000 </r>
       <r>    6.9542   -0.0000 </r>
       <r>    7.0273   -0.0000 </r>
       <r>    7.1204   -0.0000 </r>
       <r>    7.1391   -0.0000 </r>
       <r>    7.4762   -0.0000 </r>
       <r>    7.6567   -0.0000 </r>
       <r>    7.6802   -0.0000 </r>
       <r>    7.7262   -0.0000 </r>
       <r>    7.9380   -0.0000 </r>
       <r>    8.0619   -0.0000 </r>
       <r>    8.1735   -0.0000 </r>
       <r>    8.2793   -0.0000 </r>
       <r>    8.3944   -0.0000 </r>
      </set>
      <set comment="kpoint 76">
       <r>   -3.2682    1.0000 </r>
       <r>   -3.0841    1.0000 </r>
       <r>   -2.8321    1.0000 </r>
       <r>   -2.6417    1.0000 </r>
       <r>   -1.8335    1.0000 </r>
       <r>   -1.4294    1.0000 </r>
       <r>   -1.1935    1.0000 </r>
       <r>   -0.8280    1.0000 </r>
       <r>   -0.4037    1.0000 </r>
       <r>   -0.2065    1.0000 </r>
       <r>   -0.0072    1.0000 </r>
       <r>    0.1913    1.0000 </r>
       <r>    0.4157    1.0000 </r>
       <r>    0.6059    1.0000 </r>
       <r>    0.8075    1.0000 </r>
       <r>    0.9685    1.0000 </r>
       <r>    1.0144    1.0000 </r>
       <r>    1.2343    1.0000 </r>
       <r>    1.3337    1.0000 </r>
       <r>    1.5336    1.0000 </r>
       <r>    1.6368    1.0000 </r>
       <r>    1.7456    1.0000 </r>
       <r>    2.1330    1.0000 </r>
       <r>    2.2225    1.0000 </r>
       <r>    2.3344    1.0000 </r>
       <r>    2.5192    1.0000 </r>
       <r>    2.5948    1.0000 </r>
       <r>    2.7836    1.0000 </r>
       <r>    2.8847    1.0000 </r>
       <r>    3.0028    1.0000 </r>
       <r>    4.0197    1.0000 </r>
       <r>    4.0669    1.0000 </r>
       <r>    4.1169    1.0000 </r>
       <r>    4.2732    1.0000 </r>
       <r>    4.4439    1.0000 </r>
       <r>    4.7248    1.0004 </r>
       <r>    4.8212    1.0037 </r>
       <r>    4.9897    1.0325 </r>
       <r>    5.2036    0.7484 </r>
       <r>    5.3774    0.0990 </r>
       <r>    5.4084    0.0351 </r>
       <r>    5.5064   -0.0354 </r>
       <r>    5.7179   -0.0031 </r>
       <r>    5.7546   -0.0015 </r>
       <r>    5.7936   -0.0006 </r>
       <r>    6.1403   -0.0000 </r>
       <r>    6.1784   -0.0000 </r>
       <r>    6.2520   -0.0000 </r>
       <r>    6.3805   -0.0000 </r>
       <r>    6.4905   -0.0000 </r>
       <r>    6.8835   -0.0000 </r>
       <r>    6.9353   -0.0000 </r>
       <r>    7.0064   -0.0000 </r>
       <r>    7.0981   -0.0000 </r>
       <r>    7.1654   -0.0000 </r>
       <r>    7.4662   -0.0000 </r>
       <r>    7.6552   -0.0000 </r>
       <r>    7.6931   -0.0000 </r>
       <r>    7.7430   -0.0000 </r>
       <r>    7.9450   -0.0000 </r>
       <r>    8.0509   -0.0000 </r>
       <r>    8.1666   -0.0000 </r>
       <r>    8.2821   -0.0000 </r>
       <r>    8.4265   -0.0000 </r>
      </set>
      <set comment="kpoint 77">
       <r>   -3.5787    1.0000 </r>
       <r>   -2.9517    1.0000 </r>
       <r>   -2.5498    1.0000 </r>
       <r>   -2.3459    1.0000 </r>
       <r>   -1.7348    1.0000 </r>
       <r>   -1.5249    1.0000 </r>
       <r>   -1.3116    1.0000 </r>
       <r>   -0.9183    1.0000 </r>
       <r>   -0.7032    1.0000 </r>
       <r>   -0.5051    1.0000 </r>
       <r>   -0.2962    1.0000 </r>
       <r>    0.1154    1.0000 </r>
       <r>    0.2954    1.0000 </r>
       <r>    0.4971    1.0000 </r>
       <r>    0.6946    1.0000 </r>
       <r>    0.9313    1.0000 </r>
       <r>    1.2658    1.0000 </r>
       <r>    1.3157    1.0000 </r>
       <r>    1.5110    1.0000 </r>
       <r>    1.7297    1.0000 </r>
       <r>    1.8937    1.0000 </r>
       <r>    2.0449    1.0000 </r>
       <r>    2.1266    1.0000 </r>
       <r>    2.3002    1.0000 </r>
       <r>    2.5685    1.0000 </r>
       <r>    2.6862    1.0000 </r>
       <r>    2.8212    1.0000 </r>
       <r>    3.0845    1.0000 </r>
       <r>    3.1619    1.0000 </r>
       <r>    3.3513    1.0000 </r>
       <r>    3.6362    1.0000 </r>
       <r>    3.7560    1.0000 </r>
       <r>    4.2836    1.0000 </r>
       <r>    4.3106    1.0000 </r>
       <r>    4.3619    1.0000 </r>
       <r>    4.5189    1.0000 </r>
       <r>    4.5323    1.0000 </r>
       <r>    4.6990    1.0002 </r>
       <r>    4.8991    1.0132 </r>
       <r>    5.0746    1.0197 </r>
       <r>    5.2241    0.6708 </r>
       <r>    5.3137    0.3021 </r>
       <r>    5.5937   -0.0212 </r>
       <r>    5.7234   -0.0028 </r>
       <r>    5.9874   -0.0000 </r>
       <r>    6.1063   -0.0000 </r>
       <r>    6.2126   -0.0000 </r>
       <r>    6.3497   -0.0000 </r>
       <r>    6.3621   -0.0000 </r>
       <r>    6.4734   -0.0000 </r>
       <r>    6.6212   -0.0000 </r>
       <r>    6.7997   -0.0000 </r>
       <r>    7.0520   -0.0000 </r>
       <r>    7.2233   -0.0000 </r>
       <r>    7.3577   -0.0000 </r>
       <r>    7.4465   -0.0000 </r>
       <r>    7.4779   -0.0000 </r>
       <r>    7.5381   -0.0000 </r>
       <r>    7.8361   -0.0000 </r>
       <r>    7.8771   -0.0000 </r>
       <r>    8.0808   -0.0000 </r>
       <r>    8.1347   -0.0000 </r>
       <r>    8.1478   -0.0000 </r>
       <r>    8.2784   -0.0000 </r>
      </set>
      <set comment="kpoint 78">
       <r>   -3.5759    1.0000 </r>
       <r>   -2.9618    1.0000 </r>
       <r>   -2.5462    1.0000 </r>
       <r>   -2.3446    1.0000 </r>
       <r>   -1.7207    1.0000 </r>
       <r>   -1.5247    1.0000 </r>
       <r>   -1.3234    1.0000 </r>
       <r>   -0.9123    1.0000 </r>
       <r>   -0.7127    1.0000 </r>
       <r>   -0.5066    1.0000 </r>
       <r>   -0.2839    1.0000 </r>
       <r>    0.0983    1.0000 </r>
       <r>    0.3100    1.0000 </r>
       <r>    0.4968    1.0000 </r>
       <r>    0.6908    1.0000 </r>
       <r>    0.9144    1.0000 </r>
       <r>    1.2714    1.0000 </r>
       <r>    1.3206    1.0000 </r>
       <r>    1.5364    1.0000 </r>
       <r>    1.7104    1.0000 </r>
       <r>    1.8790    1.0000 </r>
       <r>    2.0423    1.0000 </r>
       <r>    2.1175    1.0000 </r>
       <r>    2.3289    1.0000 </r>
       <r>    2.5589    1.0000 </r>
       <r>    2.7010    1.0000 </r>
       <r>    2.8064    1.0000 </r>
       <r>    3.0910    1.0000 </r>
       <r>    3.1787    1.0000 </r>
       <r>    3.3600    1.0000 </r>
       <r>    3.6295    1.0000 </r>
       <r>    3.7499    1.0000 </r>
       <r>    4.2724    1.0000 </r>
       <r>    4.3149    1.0000 </r>
       <r>    4.3576    1.0000 </r>
       <r>    4.4986    1.0000 </r>
       <r>    4.5267    1.0000 </r>
       <r>    4.7188    1.0004 </r>
       <r>    4.8954    1.0126 </r>
       <r>    5.0723    1.0212 </r>
       <r>    5.2271    0.6589 </r>
       <r>    5.3372    0.2170 </r>
       <r>    5.5874   -0.0226 </r>
       <r>    5.6936   -0.0049 </r>
       <r>    5.9865   -0.0000 </r>
       <r>    6.0768   -0.0000 </r>
       <r>    6.2582   -0.0000 </r>
       <r>    6.3415   -0.0000 </r>
       <r>    6.3846   -0.0000 </r>
       <r>    6.4671   -0.0000 </r>
       <r>    6.6274   -0.0000 </r>
       <r>    6.8326   -0.0000 </r>
       <r>    7.0353   -0.0000 </r>
       <r>    7.2166   -0.0000 </r>
       <r>    7.3232   -0.0000 </r>
       <r>    7.4250   -0.0000 </r>
       <r>    7.5037   -0.0000 </r>
       <r>    7.5497   -0.0000 </r>
       <r>    7.8472   -0.0000 </r>
       <r>    7.8716   -0.0000 </r>
       <r>    8.0531   -0.0000 </r>
       <r>    8.1290   -0.0000 </r>
       <r>    8.1816   -0.0000 </r>
       <r>    8.2586   -0.0000 </r>
      </set>
      <set comment="kpoint 79">
       <r>   -3.5752    1.0000 </r>
       <r>   -2.9625    1.0000 </r>
       <r>   -2.5517    1.0000 </r>
       <r>   -2.3321    1.0000 </r>
       <r>   -1.7449    1.0000 </r>
       <r>   -1.5159    1.0000 </r>
       <r>   -1.3273    1.0000 </r>
       <r>   -0.9049    1.0000 </r>
       <r>   -0.6960    1.0000 </r>
       <r>   -0.4989    1.0000 </r>
       <r>   -0.3020    1.0000 </r>
       <r>    0.1177    1.0000 </r>
       <r>    0.2962    1.0000 </r>
       <r>    0.4953    1.0000 </r>
       <r>    0.6887    1.0000 </r>
       <r>    0.9198    1.0000 </r>
       <r>    1.2891    1.0000 </r>
       <r>    1.3106    1.0000 </r>
       <r>    1.5083    1.0000 </r>
       <r>    1.7268    1.0000 </r>
       <r>    1.8631    1.0000 </r>
       <r>    2.0327    1.0000 </r>
       <r>    2.1220    1.0000 </r>
       <r>    2.3246    1.0000 </r>
       <r>    2.5643    1.0000 </r>
       <r>    2.7044    1.0000 </r>
       <r>    2.8108    1.0000 </r>
       <r>    3.0845    1.0000 </r>
       <r>    3.1613    1.0000 </r>
       <r>    3.3741    1.0000 </r>
       <r>    3.6465    1.0000 </r>
       <r>    3.7473    1.0000 </r>
       <r>    4.2680    1.0000 </r>
       <r>    4.3051    1.0000 </r>
       <r>    4.3398    1.0000 </r>
       <r>    4.5330    1.0000 </r>
       <r>    4.5408    1.0000 </r>
       <r>    4.7225    1.0004 </r>
       <r>    4.9176    1.0169 </r>
       <r>    5.0614    1.0271 </r>
       <r>    5.2392    0.6100 </r>
       <r>    5.3179    0.2861 </r>
       <r>    5.5863   -0.0229 </r>
       <r>    5.7078   -0.0038 </r>
       <r>    5.9693   -0.0000 </r>
       <r>    6.1011   -0.0000 </r>
       <r>    6.2426   -0.0000 </r>
       <r>    6.3287   -0.0000 </r>
       <r>    6.3586   -0.0000 </r>
       <r>    6.4756   -0.0000 </r>
       <r>    6.6249   -0.0000 </r>
       <r>    6.8193   -0.0000 </r>
       <r>    7.0286   -0.0000 </r>
       <r>    7.2360   -0.0000 </r>
       <r>    7.3517   -0.0000 </r>
       <r>    7.4114   -0.0000 </r>
       <r>    7.4854   -0.0000 </r>
       <r>    7.5559   -0.0000 </r>
       <r>    7.8482   -0.0000 </r>
       <r>    7.8790   -0.0000 </r>
       <r>    8.0871   -0.0000 </r>
       <r>    8.1199   -0.0000 </r>
       <r>    8.1471   -0.0000 </r>
       <r>    8.2651   -0.0000 </r>
      </set>
      <set comment="kpoint 80">
       <r>   -3.5740    1.0000 </r>
       <r>   -2.9648    1.0000 </r>
       <r>   -2.5551    1.0000 </r>
       <r>   -2.3325    1.0000 </r>
       <r>   -1.7362    1.0000 </r>
       <r>   -1.5231    1.0000 </r>
       <r>   -1.3145    1.0000 </r>
       <r>   -0.8993    1.0000 </r>
       <r>   -0.6865    1.0000 </r>
       <r>   -0.5233    1.0000 </r>
       <r>   -0.3055    1.0000 </r>
       <r>    0.0973    1.0000 </r>
       <r>    0.2928    1.0000 </r>
       <r>    0.5157    1.0000 </r>
       <r>    0.6893    1.0000 </r>
       <r>    0.9327    1.0000 </r>
       <r>    1.2591    1.0000 </r>
       <r>    1.3238    1.0000 </r>
       <r>    1.5146    1.0000 </r>
       <r>    1.7238    1.0000 </r>
       <r>    1.8693    1.0000 </r>
       <r>    2.0403    1.0000 </r>
       <r>    2.1399    1.0000 </r>
       <r>    2.3011    1.0000 </r>
       <r>    2.5708    1.0000 </r>
       <r>    2.6930    1.0000 </r>
       <r>    2.8174    1.0000 </r>
       <r>    3.0903    1.0000 </r>
       <r>    3.1602    1.0000 </r>
       <r>    3.3716    1.0000 </r>
       <r>    3.6414    1.0000 </r>
       <r>    3.7496    1.0000 </r>
       <r>    4.2616    1.0000 </r>
       <r>    4.3040    1.0000 </r>
       <r>    4.3335    1.0000 </r>
       <r>    4.5155    1.0000 </r>
       <r>    4.5639    1.0000 </r>
       <r>    4.7388    1.0006 </r>
       <r>    4.9240    1.0182 </r>
       <r>    5.0643    1.0257 </r>
       <r>    5.2238    0.6720 </r>
       <r>    5.3140    0.3012 </r>
       <r>    5.5818   -0.0239 </r>
       <r>    5.7046   -0.0040 </r>
       <r>    5.9412   -0.0000 </r>
       <r>    6.1167   -0.0000 </r>
       <r>    6.2440   -0.0000 </r>
       <r>    6.3441   -0.0000 </r>
       <r>    6.3663   -0.0000 </r>
       <r>    6.4827   -0.0000 </r>
       <r>    6.6016   -0.0000 </r>
       <r>    6.8126   -0.0000 </r>
       <r>    7.0424   -0.0000 </r>
       <r>    7.2356   -0.0000 </r>
       <r>    7.3533   -0.0000 </r>
       <r>    7.4376   -0.0000 </r>
       <r>    7.4870   -0.0000 </r>
       <r>    7.5317   -0.0000 </r>
       <r>    7.8415   -0.0000 </r>
       <r>    7.8634   -0.0000 </r>
       <r>    8.0827   -0.0000 </r>
       <r>    8.1212   -0.0000 </r>
       <r>    8.1657   -0.0000 </r>
       <r>    8.2749   -0.0000 </r>
      </set>
      <set comment="kpoint 81">
       <r>   -3.5785    1.0000 </r>
       <r>   -2.9507    1.0000 </r>
       <r>   -2.5525    1.0000 </r>
       <r>   -2.3473    1.0000 </r>
       <r>   -1.7332    1.0000 </r>
       <r>   -1.5232    1.0000 </r>
       <r>   -1.3089    1.0000 </r>
       <r>   -0.9117    1.0000 </r>
       <r>   -0.7186    1.0000 </r>
       <r>   -0.4924    1.0000 </r>
       <r>   -0.3025    1.0000 </r>
       <r>    0.1115    1.0000 </r>
       <r>    0.3018    1.0000 </r>
       <r>    0.5027    1.0000 </r>
       <r>    0.6915    1.0000 </r>
       <r>    0.9239    1.0000 </r>
       <r>    1.2523    1.0000 </r>
       <r>    1.2987    1.0000 </r>
       <r>    1.5315    1.0000 </r>
       <r>    1.7340    1.0000 </r>
       <r>    1.8926    1.0000 </r>
       <r>    2.0314    1.0000 </r>
       <r>    2.1275    1.0000 </r>
       <r>    2.3196    1.0000 </r>
       <r>    2.5588    1.0000 </r>
       <r>    2.7247    1.0000 </r>
       <r>    2.8281    1.0000 </r>
       <r>    3.0776    1.0000 </r>
       <r>    3.1674    1.0000 </r>
       <r>    3.3464    1.0000 </r>
       <r>    3.6165    1.0000 </r>
       <r>    3.7430    1.0000 </r>
       <r>    4.2666    1.0000 </r>
       <r>    4.3277    1.0000 </r>
       <r>    4.3637    1.0000 </r>
       <r>    4.5036    1.0000 </r>
       <r>    4.5182    1.0000 </r>
       <r>    4.7189    1.0004 </r>
       <r>    4.9104    1.0154 </r>
       <r>    5.0802    1.0157 </r>
       <r>    5.2321    0.6389 </r>
       <r>    5.3159    0.2939 </r>
       <r>    5.5752   -0.0254 </r>
       <r>    5.7120   -0.0035 </r>
       <r>    5.9749   -0.0000 </r>
       <r>    6.0809   -0.0000 </r>
       <r>    6.2528   -0.0000 </r>
       <r>    6.3475   -0.0000 </r>
       <r>    6.3881   -0.0000 </r>
       <r>    6.4706   -0.0000 </r>
       <r>    6.6205   -0.0000 </r>
       <r>    6.8059   -0.0000 </r>
       <r>    7.0533   -0.0000 </r>
       <r>    7.2181   -0.0000 </r>
       <r>    7.3290   -0.0000 </r>
       <r>    7.4420   -0.0000 </r>
       <r>    7.4860   -0.0000 </r>
       <r>    7.5488   -0.0000 </r>
       <r>    7.8325   -0.0000 </r>
       <r>    7.8687   -0.0000 </r>
       <r>    8.0565   -0.0000 </r>
       <r>    8.1197   -0.0000 </r>
       <r>    8.2029   -0.0000 </r>
       <r>    8.2872   -0.0000 </r>
      </set>
      <set comment="kpoint 82">
       <r>   -3.5764    1.0000 </r>
       <r>   -2.9600    1.0000 </r>
       <r>   -2.5460    1.0000 </r>
       <r>   -2.3426    1.0000 </r>
       <r>   -1.7361    1.0000 </r>
       <r>   -1.5203    1.0000 </r>
       <r>   -1.3236    1.0000 </r>
       <r>   -0.9021    1.0000 </r>
       <r>   -0.7180    1.0000 </r>
       <r>   -0.4982    1.0000 </r>
       <r>   -0.2842    1.0000 </r>
       <r>    0.0962    1.0000 </r>
       <r>    0.3069    1.0000 </r>
       <r>    0.5006    1.0000 </r>
       <r>    0.7039    1.0000 </r>
       <r>    0.9115    1.0000 </r>
       <r>    1.2702    1.0000 </r>
       <r>    1.3056    1.0000 </r>
       <r>    1.5325    1.0000 </r>
       <r>    1.7024    1.0000 </r>
       <r>    1.8754    1.0000 </r>
       <r>    2.0499    1.0000 </r>
       <r>    2.1215    1.0000 </r>
       <r>    2.3241    1.0000 </r>
       <r>    2.5545    1.0000 </r>
       <r>    2.7116    1.0000 </r>
       <r>    2.8214    1.0000 </r>
       <r>    3.0859    1.0000 </r>
       <r>    3.1533    1.0000 </r>
       <r>    3.3716    1.0000 </r>
       <r>    3.6395    1.0000 </r>
       <r>    3.7448    1.0000 </r>
       <r>    4.2678    1.0000 </r>
       <r>    4.3155    1.0000 </r>
       <r>    4.3367    1.0000 </r>
       <r>    4.5212    1.0000 </r>
       <r>    4.5379    1.0000 </r>
       <r>    4.7171    1.0004 </r>
       <r>    4.9118    1.0157 </r>
       <r>    5.0643    1.0257 </r>
       <r>    5.2344    0.6297 </r>
       <r>    5.3312    0.2377 </r>
       <r>    5.5854   -0.0231 </r>
       <r>    5.6983   -0.0045 </r>
       <r>    5.9852   -0.0000 </r>
       <r>    6.0702   -0.0000 </r>
       <r>    6.2603   -0.0000 </r>
       <r>    6.3326   -0.0000 </r>
       <r>    6.3753   -0.0000 </r>
       <r>    6.4651   -0.0000 </r>
       <r>    6.6407   -0.0000 </r>
       <r>    6.8239   -0.0000 </r>
       <r>    7.0310   -0.0000 </r>
       <r>    7.2120   -0.0000 </r>
       <r>    7.3298   -0.0000 </r>
       <r>    7.4453   -0.0000 </r>
       <r>    7.4922   -0.0000 </r>
       <r>    7.5572   -0.0000 </r>
       <r>    7.8450   -0.0000 </r>
       <r>    7.8727   -0.0000 </r>
       <r>    8.0299   -0.0000 </r>
       <r>    8.1427   -0.0000 </r>
       <r>    8.1780   -0.0000 </r>
       <r>    8.2608   -0.0000 </r>
      </set>
      <set comment="kpoint 83">
       <r>   -3.5764    1.0000 </r>
       <r>   -2.9603    1.0000 </r>
       <r>   -2.5428    1.0000 </r>
       <r>   -2.3496    1.0000 </r>
       <r>   -1.7150    1.0000 </r>
       <r>   -1.5451    1.0000 </r>
       <r>   -1.3107    1.0000 </r>
       <r>   -0.9121    1.0000 </r>
       <r>   -0.7069    1.0000 </r>
       <r>   -0.5064    1.0000 </r>
       <r>   -0.2855    1.0000 </r>
       <r>    0.0981    1.0000 </r>
       <r>    0.2925    1.0000 </r>
       <r>    0.5156    1.0000 </r>
       <r>    0.6976    1.0000 </r>
       <r>    0.9202    1.0000 </r>
       <r>    1.2826    1.0000 </r>
       <r>    1.3101    1.0000 </r>
       <r>    1.5082    1.0000 </r>
       <r>    1.7075    1.0000 </r>
       <r>    1.8687    1.0000 </r>
       <r>    2.0731    1.0000 </r>
       <r>    2.1289    1.0000 </r>
       <r>    2.3032    1.0000 </r>
       <r>    2.5514    1.0000 </r>
       <r>    2.6989    1.0000 </r>
       <r>    2.8264    1.0000 </r>
       <r>    3.0864    1.0000 </r>
       <r>    3.1759    1.0000 </r>
       <r>    3.3503    1.0000 </r>
       <r>    3.6440    1.0000 </r>
       <r>    3.7473    1.0000 </r>
       <r>    4.2454    1.0000 </r>
       <r>    4.3008    1.0000 </r>
       <r>    4.3438    1.0000 </r>
       <r>    4.5247    1.0000 </r>
       <r>    4.5732    1.0000 </r>
       <r>    4.7174    1.0004 </r>
       <r>    4.9185    1.0171 </r>
       <r>    5.0610    1.0273 </r>
       <r>    5.2315    0.6412 </r>
       <r>    5.3279    0.2495 </r>
       <r>    5.5942   -0.0211 </r>
       <r>    5.6818   -0.0061 </r>
       <r>    5.9472   -0.0000 </r>
       <r>    6.1537   -0.0000 </r>
       <r>    6.2174   -0.0000 </r>
       <r>    6.3485   -0.0000 </r>
       <r>    6.3627   -0.0000 </r>
       <r>    6.4597   -0.0000 </r>
       <r>    6.6197   -0.0000 </r>
       <r>    6.8349   -0.0000 </r>
       <r>    7.0420   -0.0000 </r>
       <r>    7.2175   -0.0000 </r>
       <r>    7.3534   -0.0000 </r>
       <r>    7.4247   -0.0000 </r>
       <r>    7.4900   -0.0000 </r>
       <r>    7.5481   -0.0000 </r>
       <r>    7.8340   -0.0000 </r>
       <r>    7.8716   -0.0000 </r>
       <r>    8.0909   -0.0000 </r>
       <r>    8.1087   -0.0000 </r>
       <r>    8.1478   -0.0000 </r>
       <r>    8.2807   -0.0000 </r>
      </set>
      <set comment="kpoint 84">
       <r>   -3.5745    1.0000 </r>
       <r>   -2.9616    1.0000 </r>
       <r>   -2.5558    1.0000 </r>
       <r>   -2.3400    1.0000 </r>
       <r>   -1.7285    1.0000 </r>
       <r>   -1.5105    1.0000 </r>
       <r>   -1.3303    1.0000 </r>
       <r>   -0.8941    1.0000 </r>
       <r>   -0.7123    1.0000 </r>
       <r>   -0.5010    1.0000 </r>
       <r>   -0.3028    1.0000 </r>
       <r>    0.1020    1.0000 </r>
       <r>    0.2987    1.0000 </r>
       <r>    0.5117    1.0000 </r>
       <r>    0.6829    1.0000 </r>
       <r>    0.9169    1.0000 </r>
       <r>    1.2783    1.0000 </r>
       <r>    1.3015    1.0000 </r>
       <r>    1.5198    1.0000 </r>
       <r>    1.7204    1.0000 </r>
       <r>    1.8812    1.0000 </r>
       <r>    2.0398    1.0000 </r>
       <r>    2.1254    1.0000 </r>
       <r>    2.3218    1.0000 </r>
       <r>    2.5535    1.0000 </r>
       <r>    2.7173    1.0000 </r>
       <r>    2.8210    1.0000 </r>
       <r>    3.0947    1.0000 </r>
       <r>    3.1652    1.0000 </r>
       <r>    3.3626    1.0000 </r>
       <r>    3.6330    1.0000 </r>
       <r>    3.7450    1.0000 </r>
       <r>    4.2665    1.0000 </r>
       <r>    4.3070    1.0000 </r>
       <r>    4.3556    1.0000 </r>
       <r>    4.4981    1.0000 </r>
       <r>    4.5314    1.0000 </r>
       <r>    4.7308    1.0005 </r>
       <r>    4.9211    1.0176 </r>
       <r>    5.0822    1.0141 </r>
       <r>    5.2125    0.7155 </r>
       <r>    5.3223    0.2699 </r>
       <r>    5.5864   -0.0228 </r>
       <r>    5.6962   -0.0047 </r>
       <r>    5.9881   -0.0000 </r>
       <r>    6.0833   -0.0000 </r>
       <r>    6.2424   -0.0000 </r>
       <r>    6.3447   -0.0000 </r>
       <r>    6.3922   -0.0000 </r>
       <r>    6.4688   -0.0000 </r>
       <r>    6.6176   -0.0000 </r>
       <r>    6.8027   -0.0000 </r>
       <r>    7.0447   -0.0000 </r>
       <r>    7.2239   -0.0000 </r>
       <r>    7.3333   -0.0000 </r>
       <r>    7.4229   -0.0000 </r>
       <r>    7.4984   -0.0000 </r>
       <r>    7.5371   -0.0000 </r>
       <r>    7.8419   -0.0000 </r>
       <r>    7.8628   -0.0000 </r>
       <r>    8.0777   -0.0000 </r>
       <r>    8.1314   -0.0000 </r>
       <r>    8.2193   -0.0000 </r>
       <r>    8.2479   -0.0000 </r>
      </set>
      <set comment="kpoint 85">
       <r>   -3.5791    1.0000 </r>
       <r>   -2.9498    1.0000 </r>
       <r>   -2.5466    1.0000 </r>
       <r>   -2.3487    1.0000 </r>
       <r>   -1.7568    1.0000 </r>
       <r>   -1.5109    1.0000 </r>
       <r>   -1.3129    1.0000 </r>
       <r>   -0.9036    1.0000 </r>
       <r>   -0.7060    1.0000 </r>
       <r>   -0.4948    1.0000 </r>
       <r>   -0.3062    1.0000 </r>
       <r>    0.1125    1.0000 </r>
       <r>    0.3064    1.0000 </r>
       <r>    0.4945    1.0000 </r>
       <r>    0.6966    1.0000 </r>
       <r>    0.9179    1.0000 </r>
       <r>    1.2556    1.0000 </r>
       <r>    1.3101    1.0000 </r>
       <r>    1.5116    1.0000 </r>
       <r>    1.7421    1.0000 </r>
       <r>    1.8919    1.0000 </r>
       <r>    2.0209    1.0000 </r>
       <r>    2.1181    1.0000 </r>
       <r>    2.3346    1.0000 </r>
       <r>    2.5708    1.0000 </r>
       <r>    2.7058    1.0000 </r>
       <r>    2.8260    1.0000 </r>
       <r>    3.0667    1.0000 </r>
       <r>    3.1558    1.0000 </r>
       <r>    3.3644    1.0000 </r>
       <r>    3.6295    1.0000 </r>
       <r>    3.7415    1.0000 </r>
       <r>    4.2774    1.0000 </r>
       <r>    4.3095    1.0000 </r>
       <r>    4.3785    1.0000 </r>
       <r>    4.4999    1.0000 </r>
       <r>    4.5359    1.0000 </r>
       <r>    4.7115    1.0003 </r>
       <r>    4.9038    1.0141 </r>
       <r>    5.0812    1.0149 </r>
       <r>    5.2373    0.6177 </r>
       <r>    5.3244    0.2621 </r>
       <r>    5.5770   -0.0250 </r>
       <r>    5.7062   -0.0039 </r>
       <r>    5.9852   -0.0000 </r>
       <r>    6.0798   -0.0000 </r>
       <r>    6.2328   -0.0000 </r>
       <r>    6.3367   -0.0000 </r>
       <r>    6.3723   -0.0000 </r>
       <r>    6.4827   -0.0000 </r>
       <r>    6.6246   -0.0000 </r>
       <r>    6.8144   -0.0000 </r>
       <r>    7.0400   -0.0000 </r>
       <r>    7.2282   -0.0000 </r>
       <r>    7.3250   -0.0000 </r>
       <r>    7.4247   -0.0000 </r>
       <r>    7.5059   -0.0000 </r>
       <r>    7.5517   -0.0000 </r>
       <r>    7.8493   -0.0000 </r>
       <r>    7.8705   -0.0000 </r>
       <r>    8.0579   -0.0000 </r>
       <r>    8.1292   -0.0000 </r>
       <r>    8.1909   -0.0000 </r>
       <r>    8.2687   -0.0000 </r>
      </set>
      <set comment="kpoint 86">
       <r>   -3.5740    1.0000 </r>
       <r>   -2.9659    1.0000 </r>
       <r>   -2.5601    1.0000 </r>
       <r>   -2.3218    1.0000 </r>
       <r>   -1.7344    1.0000 </r>
       <r>   -1.5245    1.0000 </r>
       <r>   -1.3115    1.0000 </r>
       <r>   -0.9345    1.0000 </r>
       <r>   -0.6886    1.0000 </r>
       <r>   -0.4941    1.0000 </r>
       <r>   -0.3017    1.0000 </r>
       <r>    0.1077    1.0000 </r>
       <r>    0.2886    1.0000 </r>
       <r>    0.5075    1.0000 </r>
       <r>    0.6776    1.0000 </r>
       <r>    0.9377    1.0000 </r>
       <r>    1.2730    1.0000 </r>
       <r>    1.3232    1.0000 </r>
       <r>    1.5117    1.0000 </r>
       <r>    1.7156    1.0000 </r>
       <r>    1.8707    1.0000 </r>
       <r>    2.0514    1.0000 </r>
       <r>    2.1377    1.0000 </r>
       <r>    2.2924    1.0000 </r>
       <r>    2.5730    1.0000 </r>
       <r>    2.6976    1.0000 </r>
       <r>    2.8239    1.0000 </r>
       <r>    3.0762    1.0000 </r>
       <r>    3.1636    1.0000 </r>
       <r>    3.3621    1.0000 </r>
       <r>    3.6402    1.0000 </r>
       <r>    3.7518    1.0000 </r>
       <r>    4.2613    1.0000 </r>
       <r>    4.3134    1.0000 </r>
       <r>    4.3723    1.0000 </r>
       <r>    4.5003    1.0000 </r>
       <r>    4.5543    1.0000 </r>
       <r>    4.7131    1.0003 </r>
       <r>    4.9111    1.0155 </r>
       <r>    5.0535    1.0303 </r>
       <r>    5.2449    0.5862 </r>
       <r>    5.3211    0.2742 </r>
       <r>    5.5659   -0.0275 </r>
       <r>    5.7243   -0.0028 </r>
       <r>    5.9454   -0.0000 </r>
       <r>    6.1382   -0.0000 </r>
       <r>    6.2158   -0.0000 </r>
       <r>    6.3471   -0.0000 </r>
       <r>    6.3569   -0.0000 </r>
       <r>    6.4820   -0.0000 </r>
       <r>    6.6141   -0.0000 </r>
       <r>    6.8246   -0.0000 </r>
       <r>    7.0259   -0.0000 </r>
       <r>    7.2272   -0.0000 </r>
       <r>    7.3562   -0.0000 </r>
       <r>    7.4455   -0.0000 </r>
       <r>    7.4840   -0.0000 </r>
       <r>    7.5603   -0.0000 </r>
       <r>    7.8420   -0.0000 </r>
       <r>    7.8607   -0.0000 </r>
       <r>    8.0733   -0.0000 </r>
       <r>    8.0965   -0.0000 </r>
       <r>    8.1894   -0.0000 </r>
       <r>    8.2875   -0.0000 </r>
      </set>
      <set comment="kpoint 87">
       <r>   -3.5749    1.0000 </r>
       <r>   -2.9599    1.0000 </r>
       <r>   -2.5690    1.0000 </r>
       <r>   -2.3229    1.0000 </r>
       <r>   -1.7188    1.0000 </r>
       <r>   -1.5246    1.0000 </r>
       <r>   -1.3191    1.0000 </r>
       <r>   -0.9378    1.0000 </r>
       <r>   -0.7072    1.0000 </r>
       <r>   -0.4870    1.0000 </r>
       <r>   -0.2926    1.0000 </r>
       <r>    0.1100    1.0000 </r>
       <r>    0.2932    1.0000 </r>
       <r>    0.5215    1.0000 </r>
       <r>    0.6718    1.0000 </r>
       <r>    0.9287    1.0000 </r>
       <r>    1.2682    1.0000 </r>
       <r>    1.3157    1.0000 </r>
       <r>    1.5183    1.0000 </r>
       <r>    1.7185    1.0000 </r>
       <r>    1.8766    1.0000 </r>
       <r>    2.0417    1.0000 </r>
       <r>    2.1213    1.0000 </r>
       <r>    2.3056    1.0000 </r>
       <r>    2.5467    1.0000 </r>
       <r>    2.7380    1.0000 </r>
       <r>    2.8169    1.0000 </r>
       <r>    3.0834    1.0000 </r>
       <r>    3.1708    1.0000 </r>
       <r>    3.3585    1.0000 </r>
       <r>    3.6277    1.0000 </r>
       <r>    3.7613    1.0000 </r>
       <r>    4.2714    1.0000 </r>
       <r>    4.3022    1.0000 </r>
       <r>    4.3778    1.0000 </r>
       <r>    4.4957    1.0000 </r>
       <r>    4.5353    1.0000 </r>
       <r>    4.7193    1.0004 </r>
       <r>    4.9172    1.0168 </r>
       <r>    5.0629    1.0264 </r>
       <r>    5.2301    0.6469 </r>
       <r>    5.3140    0.3012 </r>
       <r>    5.5520   -0.0305 </r>
       <r>    5.7246   -0.0027 </r>
       <r>    5.9802   -0.0000 </r>
       <r>    6.1130   -0.0000 </r>
       <r>    6.2432   -0.0000 </r>
       <r>    6.3412   -0.0000 </r>
       <r>    6.3641   -0.0000 </r>
       <r>    6.4688   -0.0000 </r>
       <r>    6.6271   -0.0000 </r>
       <r>    6.8174   -0.0000 </r>
       <r>    7.0232   -0.0000 </r>
       <r>    7.2361   -0.0000 </r>
       <r>    7.3551   -0.0000 </r>
       <r>    7.4164   -0.0000 </r>
       <r>    7.4762   -0.0000 </r>
       <r>    7.5593   -0.0000 </r>
       <r>    7.8322   -0.0000 </r>
       <r>    7.8532   -0.0000 </r>
       <r>    8.1165   -0.0000 </r>
       <r>    8.1393   -0.0000 </r>
       <r>    8.1677   -0.0000 </r>
       <r>    8.2599   -0.0000 </r>
      </set>
      <set comment="kpoint 88">
       <r>   -3.5751    1.0000 </r>
       <r>   -2.9571    1.0000 </r>
       <r>   -2.5680    1.0000 </r>
       <r>   -2.3248    1.0000 </r>
       <r>   -1.7498    1.0000 </r>
       <r>   -1.4915    1.0000 </r>
       <r>   -1.3399    1.0000 </r>
       <r>   -0.9188    1.0000 </r>
       <r>   -0.6814    1.0000 </r>
       <r>   -0.4896    1.0000 </r>
       <r>   -0.3021    1.0000 </r>
       <r>    0.0979    1.0000 </r>
       <r>    0.3063    1.0000 </r>
       <r>    0.5015    1.0000 </r>
       <r>    0.6701    1.0000 </r>
       <r>    0.9207    1.0000 </r>
       <r>    1.2651    1.0000 </r>
       <r>    1.3269    1.0000 </r>
       <r>    1.5060    1.0000 </r>
       <r>    1.7252    1.0000 </r>
       <r>    1.8843    1.0000 </r>
       <r>    2.0445    1.0000 </r>
       <r>    2.1159    1.0000 </r>
       <r>    2.3004    1.0000 </r>
       <r>    2.5880    1.0000 </r>
       <r>    2.7119    1.0000 </r>
       <r>    2.8192    1.0000 </r>
       <r>    3.0727    1.0000 </r>
       <r>    3.1474    1.0000 </r>
       <r>    3.3772    1.0000 </r>
       <r>    3.6402    1.0000 </r>
       <r>    3.7476    1.0000 </r>
       <r>    4.2931    1.0000 </r>
       <r>    4.3174    1.0000 </r>
       <r>    4.3558    1.0000 </r>
       <r>    4.4940    1.0000 </r>
       <r>    4.5403    1.0000 </r>
       <r>    4.7118    1.0003 </r>
       <r>    4.9157    1.0165 </r>
       <r>    5.0630    1.0264 </r>
       <r>    5.2410    0.6026 </r>
       <r>    5.3219    0.2714 </r>
       <r>    5.5521   -0.0305 </r>
       <r>    5.7282   -0.0026 </r>
       <r>    6.0005   -0.0000 </r>
       <r>    6.0894   -0.0000 </r>
       <r>    6.2200   -0.0000 </r>
       <r>    6.3272   -0.0000 </r>
       <r>    6.3689   -0.0000 </r>
       <r>    6.4820   -0.0000 </r>
       <r>    6.6286   -0.0000 </r>
       <r>    6.8164   -0.0000 </r>
       <r>    7.0239   -0.0000 </r>
       <r>    7.2264   -0.0000 </r>
       <r>    7.3323   -0.0000 </r>
       <r>    7.4430   -0.0000 </r>
       <r>    7.5032   -0.0000 </r>
       <r>    7.5516   -0.0000 </r>
       <r>    7.8406   -0.0000 </r>
       <r>    7.8624   -0.0000 </r>
       <r>    8.0618   -0.0000 </r>
       <r>    8.1215   -0.0000 </r>
       <r>    8.2115   -0.0000 </r>
       <r>    8.2291   -0.0000 </r>
      </set>
      <set comment="kpoint 89">
       <r>   -3.5789    1.0000 </r>
       <r>   -2.9486    1.0000 </r>
       <r>   -2.5609    1.0000 </r>
       <r>   -2.3396    1.0000 </r>
       <r>   -1.7229    1.0000 </r>
       <r>   -1.5325    1.0000 </r>
       <r>   -1.3141    1.0000 </r>
       <r>   -0.9139    1.0000 </r>
       <r>   -0.7019    1.0000 </r>
       <r>   -0.5163    1.0000 </r>
       <r>   -0.2892    1.0000 </r>
       <r>    0.0895    1.0000 </r>
       <r>    0.3048    1.0000 </r>
       <r>    0.5253    1.0000 </r>
       <r>    0.6874    1.0000 </r>
       <r>    0.9396    1.0000 </r>
       <r>    1.2683    1.0000 </r>
       <r>    1.2893    1.0000 </r>
       <r>    1.5201    1.0000 </r>
       <r>    1.7300    1.0000 </r>
       <r>    1.8928    1.0000 </r>
       <r>    2.0236    1.0000 </r>
       <r>    2.1301    1.0000 </r>
       <r>    2.3016    1.0000 </r>
       <r>    2.5616    1.0000 </r>
       <r>    2.7195    1.0000 </r>
       <r>    2.8374    1.0000 </r>
       <r>    3.0858    1.0000 </r>
       <r>    3.1580    1.0000 </r>
       <r>    3.3549    1.0000 </r>
       <r>    3.6198    1.0000 </r>
       <r>    3.7469    1.0000 </r>
       <r>    4.2586    1.0000 </r>
       <r>    4.3196    1.0000 </r>
       <r>    4.3641    1.0000 </r>
       <r>    4.5044    1.0000 </r>
       <r>    4.5405    1.0000 </r>
       <r>    4.7117    1.0003 </r>
       <r>    4.9073    1.0148 </r>
       <r>    5.0845    1.0122 </r>
       <r>    5.2278    0.6561 </r>
       <r>    5.3212    0.2741 </r>
       <r>    5.5669   -0.0273 </r>
       <r>    5.6950   -0.0048 </r>
       <r>    5.9737   -0.0000 </r>
       <r>    6.1365   -0.0000 </r>
       <r>    6.2333   -0.0000 </r>
       <r>    6.3453   -0.0000 </r>
       <r>    6.3706   -0.0000 </r>
       <r>    6.4635   -0.0000 </r>
       <r>    6.6191   -0.0000 </r>
       <r>    6.8163   -0.0000 </r>
       <r>    7.0289   -0.0000 </r>
       <r>    7.2158   -0.0000 </r>
       <r>    7.3108   -0.0000 </r>
       <r>    7.4559   -0.0000 </r>
       <r>    7.5089   -0.0000 </r>
       <r>    7.5723   -0.0000 </r>
       <r>    7.8368   -0.0000 </r>
       <r>    7.8648   -0.0000 </r>
       <r>    8.0381   -0.0000 </r>
       <r>    8.1412   -0.0000 </r>
       <r>    8.2296   -0.0000 </r>
       <r>    8.2599   -0.0000 </r>
      </set>
      <set comment="kpoint 90">
       <r>   -3.5764    1.0000 </r>
       <r>   -2.9574    1.0000 </r>
       <r>   -2.5449    1.0000 </r>
       <r>   -2.3500    1.0000 </r>
       <r>   -1.7364    1.0000 </r>
       <r>   -1.5356    1.0000 </r>
       <r>   -1.3039    1.0000 </r>
       <r>   -0.8975    1.0000 </r>
       <r>   -0.7115    1.0000 </r>
       <r>   -0.4899    1.0000 </r>
       <r>   -0.2883    1.0000 </r>
       <r>    0.0789    1.0000 </r>
       <r>    0.3167    1.0000 </r>
       <r>    0.4839    1.0000 </r>
       <r>    0.7022    1.0000 </r>
       <r>    0.9050    1.0000 </r>
       <r>    1.2891    1.0000 </r>
       <r>    1.3075    1.0000 </r>
       <r>    1.5048    1.0000 </r>
       <r>    1.7210    1.0000 </r>
       <r>    1.8936    1.0000 </r>
       <r>    2.0498    1.0000 </r>
       <r>    2.1173    1.0000 </r>
       <r>    2.3129    1.0000 </r>
       <r>    2.5438    1.0000 </r>
       <r>    2.7194    1.0000 </r>
       <r>    2.8300    1.0000 </r>
       <r>    3.0802    1.0000 </r>
       <r>    3.1544    1.0000 </r>
       <r>    3.3696    1.0000 </r>
       <r>    3.6435    1.0000 </r>
       <r>    3.7438    1.0000 </r>
       <r>    4.2780    1.0000 </r>
       <r>    4.3070    1.0000 </r>
       <r>    4.3654    1.0000 </r>
       <r>    4.5034    1.0000 </r>
       <r>    4.5236    1.0000 </r>
       <r>    4.7156    1.0004 </r>
       <r>    4.9061    1.0146 </r>
       <r>    5.0807    1.0153 </r>
       <r>    5.2384    0.6131 </r>
       <r>    5.3306    0.2398 </r>
       <r>    5.5828   -0.0237 </r>
       <r>    5.6906   -0.0052 </r>
       <r>    5.9979   -0.0000 </r>
       <r>    6.0918   -0.0000 </r>
       <r>    6.2247   -0.0000 </r>
       <r>    6.3309   -0.0000 </r>
       <r>    6.3692   -0.0000 </r>
       <r>    6.4753   -0.0000 </r>
       <r>    6.6390   -0.0000 </r>
       <r>    6.8296   -0.0000 </r>
       <r>    7.0296   -0.0000 </r>
       <r>    7.2013   -0.0000 </r>
       <r>    7.3019   -0.0000 </r>
       <r>    7.4599   -0.0000 </r>
       <r>    7.4896   -0.0000 </r>
       <r>    7.5633   -0.0000 </r>
       <r>    7.8441   -0.0000 </r>
       <r>    7.8709   -0.0000 </r>
       <r>    8.0454   -0.0000 </r>
       <r>    8.1083   -0.0000 </r>
       <r>    8.2188   -0.0000 </r>
       <r>    8.2811   -0.0000 </r>
      </set>
      <set comment="kpoint 91">
       <r>   -3.5736    1.0000 </r>
       <r>   -2.9693    1.0000 </r>
       <r>   -2.5482    1.0000 </r>
       <r>   -2.3314    1.0000 </r>
       <r>   -1.7420    1.0000 </r>
       <r>   -1.5279    1.0000 </r>
       <r>   -1.2953    1.0000 </r>
       <r>   -0.9095    1.0000 </r>
       <r>   -0.7004    1.0000 </r>
       <r>   -0.5358    1.0000 </r>
       <r>   -0.2808    1.0000 </r>
       <r>    0.1100    1.0000 </r>
       <r>    0.2726    1.0000 </r>
       <r>    0.5137    1.0000 </r>
       <r>    0.6972    1.0000 </r>
       <r>    0.9305    1.0000 </r>
       <r>    1.2733    1.0000 </r>
       <r>    1.3245    1.0000 </r>
       <r>    1.5057    1.0000 </r>
       <r>    1.7220    1.0000 </r>
       <r>    1.8742    1.0000 </r>
       <r>    2.0520    1.0000 </r>
       <r>    2.1279    1.0000 </r>
       <r>    2.3102    1.0000 </r>
       <r>    2.5626    1.0000 </r>
       <r>    2.6739    1.0000 </r>
       <r>    2.8239    1.0000 </r>
       <r>    3.0947    1.0000 </r>
       <r>    3.1660    1.0000 </r>
       <r>    3.3652    1.0000 </r>
       <r>    3.6472    1.0000 </r>
       <r>    3.7398    1.0000 </r>
       <r>    4.2635    1.0000 </r>
       <r>    4.3204    1.0000 </r>
       <r>    4.3488    1.0000 </r>
       <r>    4.4971    1.0000 </r>
       <r>    4.5458    1.0000 </r>
       <r>    4.7281    1.0005 </r>
       <r>    4.9257    1.0186 </r>
       <r>    5.0700    1.0226 </r>
       <r>    5.2285    0.6533 </r>
       <r>    5.3229    0.2674 </r>
       <r>    5.5901   -0.0220 </r>
       <r>    5.6962   -0.0047 </r>
       <r>    5.9558   -0.0000 </r>
       <r>    6.1243   -0.0000 </r>
       <r>    6.2216   -0.0000 </r>
       <r>    6.3351   -0.0000 </r>
       <r>    6.3667   -0.0000 </r>
       <r>    6.4760   -0.0000 </r>
       <r>    6.6186   -0.0000 </r>
       <r>    6.8316   -0.0000 </r>
       <r>    7.0208   -0.0000 </r>
       <r>    7.2156   -0.0000 </r>
       <r>    7.3499   -0.0000 </r>
       <r>    7.4345   -0.0000 </r>
       <r>    7.4910   -0.0000 </r>
       <r>    7.5436   -0.0000 </r>
       <r>    7.8440   -0.0000 </r>
       <r>    7.8650   -0.0000 </r>
       <r>    8.0863   -0.0000 </r>
       <r>    8.1233   -0.0000 </r>
       <r>    8.1949   -0.0000 </r>
       <r>    8.2590   -0.0000 </r>
      </set>
      <set comment="kpoint 92">
       <r>   -3.5752    1.0000 </r>
       <r>   -2.9616    1.0000 </r>
       <r>   -2.5499    1.0000 </r>
       <r>   -2.3378    1.0000 </r>
       <r>   -1.7393    1.0000 </r>
       <r>   -1.5313    1.0000 </r>
       <r>   -1.3136    1.0000 </r>
       <r>   -0.8945    1.0000 </r>
       <r>   -0.7133    1.0000 </r>
       <r>   -0.4828    1.0000 </r>
       <r>   -0.3045    1.0000 </r>
       <r>    0.1073    1.0000 </r>
       <r>    0.2986    1.0000 </r>
       <r>    0.4959    1.0000 </r>
       <r>    0.6932    1.0000 </r>
       <r>    0.9098    1.0000 </r>
       <r>    1.2865    1.0000 </r>
       <r>    1.3107    1.0000 </r>
       <r>    1.5012    1.0000 </r>
       <r>    1.7260    1.0000 </r>
       <r>    1.8782    1.0000 </r>
       <r>    2.0335    1.0000 </r>
       <r>    2.1187    1.0000 </r>
       <r>    2.3308    1.0000 </r>
       <r>    2.5452    1.0000 </r>
       <r>    2.7198    1.0000 </r>
       <r>    2.8254    1.0000 </r>
       <r>    3.0914    1.0000 </r>
       <r>    3.1650    1.0000 </r>
       <r>    3.3597    1.0000 </r>
       <r>    3.6445    1.0000 </r>
       <r>    3.7297    1.0000 </r>
       <r>    4.2729    1.0000 </r>
       <r>    4.3171    1.0000 </r>
       <r>    4.3476    1.0000 </r>
       <r>    4.5052    1.0000 </r>
       <r>    4.5335    1.0000 </r>
       <r>    4.7208    1.0004 </r>
       <r>    4.9313    1.0199 </r>
       <r>    5.0705    1.0223 </r>
       <r>    5.2433    0.5931 </r>
       <r>    5.3184    0.2843 </r>
       <r>    5.5871   -0.0227 </r>
       <r>    5.6963   -0.0047 </r>
       <r>    5.9779   -0.0000 </r>
       <r>    6.1046   -0.0000 </r>
       <r>    6.2471   -0.0000 </r>
       <r>    6.3235   -0.0000 </r>
       <r>    6.3626   -0.0000 </r>
       <r>    6.4699   -0.0000 </r>
       <r>    6.6300   -0.0000 </r>
       <r>    6.8245   -0.0000 </r>
       <r>    7.0198   -0.0000 </r>
       <r>    7.2142   -0.0000 </r>
       <r>    7.3371   -0.0000 </r>
       <r>    7.4147   -0.0000 </r>
       <r>    7.4985   -0.0000 </r>
       <r>    7.5708   -0.0000 </r>
       <r>    7.8270   -0.0000 </r>
       <r>    7.8702   -0.0000 </r>
       <r>    8.0891   -0.0000 </r>
       <r>    8.1199   -0.0000 </r>
       <r>    8.1890   -0.0000 </r>
       <r>    8.2680   -0.0000 </r>
      </set>
      <set comment="kpoint 93">
       <r>   -3.5789    1.0000 </r>
       <r>   -2.9510    1.0000 </r>
       <r>   -2.5496    1.0000 </r>
       <r>   -2.3453    1.0000 </r>
       <r>   -1.7428    1.0000 </r>
       <r>   -1.5258    1.0000 </r>
       <r>   -1.2988    1.0000 </r>
       <r>   -0.9171    1.0000 </r>
       <r>   -0.7052    1.0000 </r>
       <r>   -0.5191    1.0000 </r>
       <r>   -0.2875    1.0000 </r>
       <r>    0.1115    1.0000 </r>
       <r>    0.2861    1.0000 </r>
       <r>    0.5198    1.0000 </r>
       <r>    0.6923    1.0000 </r>
       <r>    0.9314    1.0000 </r>
       <r>    1.2687    1.0000 </r>
       <r>    1.3112    1.0000 </r>
       <r>    1.5133    1.0000 </r>
       <r>    1.7272    1.0000 </r>
       <r>    1.8896    1.0000 </r>
       <r>    2.0288    1.0000 </r>
       <r>    2.1348    1.0000 </r>
       <r>    2.2939    1.0000 </r>
       <r>    2.5716    1.0000 </r>
       <r>    2.7044    1.0000 </r>
       <r>    2.8229    1.0000 </r>
       <r>    3.0836    1.0000 </r>
       <r>    3.1444    1.0000 </r>
       <r>    3.3705    1.0000 </r>
       <r>    3.6192    1.0000 </r>
       <r>    3.7521    1.0000 </r>
       <r>    4.2874    1.0000 </r>
       <r>    4.3036    1.0000 </r>
       <r>    4.3683    1.0000 </r>
       <r>    4.5067    1.0000 </r>
       <r>    4.5376    1.0000 </r>
       <r>    4.7211    1.0004 </r>
       <r>    4.9133    1.0160 </r>
       <r>    5.0666    1.0245 </r>
       <r>    5.2321    0.6388 </r>
       <r>    5.3149    0.2975 </r>
       <r>    5.5829   -0.0237 </r>
       <r>    5.7097   -0.0037 </r>
       <r>    5.9743   -0.0000 </r>
       <r>    6.1257   -0.0000 </r>
       <r>    6.2028   -0.0000 </r>
       <r>    6.3327   -0.0000 </r>
       <r>    6.3691   -0.0000 </r>
       <r>    6.4845   -0.0000 </r>
       <r>    6.6216   -0.0000 </r>
       <r>    6.8065   -0.0000 </r>
       <r>    7.0382   -0.0000 </r>
       <r>    7.2382   -0.0000 </r>
       <r>    7.3504   -0.0000 </r>
       <r>    7.4273   -0.0000 </r>
       <r>    7.4852   -0.0000 </r>
       <r>    7.5399   -0.0000 </r>
       <r>    7.8492   -0.0000 </r>
       <r>    7.8579   -0.0000 </r>
       <r>    8.1075   -0.0000 </r>
       <r>    8.1251   -0.0000 </r>
       <r>    8.1396   -0.0000 </r>
       <r>    8.2905   -0.0000 </r>
      </set>
      <set comment="kpoint 94">
       <r>   -3.5758    1.0000 </r>
       <r>   -2.9591    1.0000 </r>
       <r>   -2.5457    1.0000 </r>
       <r>   -2.3542    1.0000 </r>
       <r>   -1.7190    1.0000 </r>
       <r>   -1.5202    1.0000 </r>
       <r>   -1.3265    1.0000 </r>
       <r>   -0.9066    1.0000 </r>
       <r>   -0.6963    1.0000 </r>
       <r>   -0.5119    1.0000 </r>
       <r>   -0.2856    1.0000 </r>
       <r>    0.0788    1.0000 </r>
       <r>    0.3110    1.0000 </r>
       <r>    0.5054    1.0000 </r>
       <r>    0.6933    1.0000 </r>
       <r>    0.9051    1.0000 </r>
       <r>    1.2816    1.0000 </r>
       <r>    1.3135    1.0000 </r>
       <r>    1.5135    1.0000 </r>
       <r>    1.7142    1.0000 </r>
       <r>    1.8775    1.0000 </r>
       <r>    2.0619    1.0000 </r>
       <r>    2.1250    1.0000 </r>
       <r>    2.3176    1.0000 </r>
       <r>    2.5615    1.0000 </r>
       <r>    2.7037    1.0000 </r>
       <r>    2.8261    1.0000 </r>
       <r>    3.0851    1.0000 </r>
       <r>    3.1764    1.0000 </r>
       <r>    3.3559    1.0000 </r>
       <r>    3.6305    1.0000 </r>
       <r>    3.7421    1.0000 </r>
       <r>    4.2566    1.0000 </r>
       <r>    4.2976    1.0000 </r>
       <r>    4.3687    1.0000 </r>
       <r>    4.5073    1.0000 </r>
       <r>    4.5468    1.0000 </r>
       <r>    4.7132    1.0003 </r>
       <r>    4.9117    1.0157 </r>
       <r>    5.0790    1.0165 </r>
       <r>    5.2220    0.6792 </r>
       <r>    5.3352    0.2237 </r>
       <r>    5.5804   -0.0242 </r>
       <r>    5.6899   -0.0053 </r>
       <r>    5.9470   -0.0000 </r>
       <r>    6.1127   -0.0000 </r>
       <r>    6.2503   -0.0000 </r>
       <r>    6.3514   -0.0000 </r>
       <r>    6.3713   -0.0000 </r>
       <r>    6.4763   -0.0000 </r>
       <r>    6.6236   -0.0000 </r>
       <r>    6.8288   -0.0000 </r>
       <r>    7.0412   -0.0000 </r>
       <r>    7.2160   -0.0000 </r>
       <r>    7.3026   -0.0000 </r>
       <r>    7.4479   -0.0000 </r>
       <r>    7.5047   -0.0000 </r>
       <r>    7.5498   -0.0000 </r>
       <r>    7.8349   -0.0000 </r>
       <r>    7.8489   -0.0000 </r>
       <r>    8.0582   -0.0000 </r>
       <r>    8.1018   -0.0000 </r>
       <r>    8.2363   -0.0000 </r>
       <r>    8.2820   -0.0000 </r>
      </set>
      <set comment="kpoint 95">
       <r>   -3.5750    1.0000 </r>
       <r>   -2.9618    1.0000 </r>
       <r>   -2.5631    1.0000 </r>
       <r>   -2.3206    1.0000 </r>
       <r>   -1.7390    1.0000 </r>
       <r>   -1.5176    1.0000 </r>
       <r>   -1.3244    1.0000 </r>
       <r>   -0.9242    1.0000 </r>
       <r>   -0.7120    1.0000 </r>
       <r>   -0.4700    1.0000 </r>
       <r>   -0.2962    1.0000 </r>
       <r>    0.1014    1.0000 </r>
       <r>    0.3020    1.0000 </r>
       <r>    0.5090    1.0000 </r>
       <r>    0.6794    1.0000 </r>
       <r>    0.9255    1.0000 </r>
       <r>    1.2760    1.0000 </r>
       <r>    1.3068    1.0000 </r>
       <r>    1.5010    1.0000 </r>
       <r>    1.7213    1.0000 </r>
       <r>    1.8925    1.0000 </r>
       <r>    2.0457    1.0000 </r>
       <r>    2.1221    1.0000 </r>
       <r>    2.2970    1.0000 </r>
       <r>    2.5531    1.0000 </r>
       <r>    2.7382    1.0000 </r>
       <r>    2.8226    1.0000 </r>
       <r>    3.0650    1.0000 </r>
       <r>    3.1561    1.0000 </r>
       <r>    3.3609    1.0000 </r>
       <r>    3.6457    1.0000 </r>
       <r>    3.7563    1.0000 </r>
       <r>    4.2703    1.0000 </r>
       <r>    4.3160    1.0000 </r>
       <r>    4.3697    1.0000 </r>
       <r>    4.5010    1.0000 </r>
       <r>    4.5367    1.0000 </r>
       <r>    4.7154    1.0004 </r>
       <r>    4.9168    1.0167 </r>
       <r>    5.0542    1.0300 </r>
       <r>    5.2428    0.5950 </r>
       <r>    5.3286    0.2470 </r>
       <r>    5.5500   -0.0309 </r>
       <r>    5.7230   -0.0028 </r>
       <r>    6.0018   -0.0000 </r>
       <r>    6.1063   -0.0000 </r>
       <r>    6.2085   -0.0000 </r>
       <r>    6.3289   -0.0000 </r>
       <r>    6.3635   -0.0000 </r>
       <r>    6.4773   -0.0000 </r>
       <r>    6.6377   -0.0000 </r>
       <r>    6.8177   -0.0000 </r>
       <r>    7.0222   -0.0000 </r>
       <r>    7.2229   -0.0000 </r>
       <r>    7.3333   -0.0000 </r>
       <r>    7.4391   -0.0000 </r>
       <r>    7.4892   -0.0000 </r>
       <r>    7.5774   -0.0000 </r>
       <r>    7.8477   -0.0000 </r>
       <r>    7.8714   -0.0000 </r>
       <r>    8.0574   -0.0000 </r>
       <r>    8.1157   -0.0000 </r>
       <r>    8.1830   -0.0000 </r>
       <r>    8.2632   -0.0000 </r>
      </set>
      <set comment="kpoint 96">
       <r>   -3.5740    1.0000 </r>
       <r>   -2.9622    1.0000 </r>
       <r>   -2.5675    1.0000 </r>
       <r>   -2.3217    1.0000 </r>
       <r>   -1.7405    1.0000 </r>
       <r>   -1.5117    1.0000 </r>
       <r>   -1.3087    1.0000 </r>
       <r>   -0.9335    1.0000 </r>
       <r>   -0.6782    1.0000 </r>
       <r>   -0.5179    1.0000 </r>
       <r>   -0.2939    1.0000 </r>
       <r>    0.0982    1.0000 </r>
       <r>    0.2943    1.0000 </r>
       <r>    0.5168    1.0000 </r>
       <r>    0.6652    1.0000 </r>
       <r>    0.9438    1.0000 </r>
       <r>    1.2729    1.0000 </r>
       <r>    1.3191    1.0000 </r>
       <r>    1.5089    1.0000 </r>
       <r>    1.7202    1.0000 </r>
       <r>    1.8899    1.0000 </r>
       <r>    2.0480    1.0000 </r>
       <r>    2.1238    1.0000 </r>
       <r>    2.2837    1.0000 </r>
       <r>    2.5766    1.0000 </r>
       <r>    2.6951    1.0000 </r>
       <r>    2.8233    1.0000 </r>
       <r>    3.0879    1.0000 </r>
       <r>    3.1475    1.0000 </r>
       <r>    3.3707    1.0000 </r>
       <r>    3.6421    1.0000 </r>
       <r>    3.7610    1.0000 </r>
       <r>    4.2863    1.0000 </r>
       <r>    4.3098    1.0000 </r>
       <r>    4.3714    1.0000 </r>
       <r>    4.4873    1.0000 </r>
       <r>    4.5382    1.0000 </r>
       <r>    4.7193    1.0004 </r>
       <r>    4.9137    1.0161 </r>
       <r>    5.0664    1.0246 </r>
       <r>    5.2264    0.6619 </r>
       <r>    5.3218    0.2718 </r>
       <r>    5.5528   -0.0304 </r>
       <r>    5.7320   -0.0024 </r>
       <r>    5.9687   -0.0000 </r>
       <r>    6.1173   -0.0000 </r>
       <r>    6.2079   -0.0000 </r>
       <r>    6.3366   -0.0000 </r>
       <r>    6.3713   -0.0000 </r>
       <r>    6.4832   -0.0000 </r>
       <r>    6.6139   -0.0000 </r>
       <r>    6.8218   -0.0000 </r>
       <r>    7.0290   -0.0000 </r>
       <r>    7.2285   -0.0000 </r>
       <r>    7.3550   -0.0000 </r>
       <r>    7.4325   -0.0000 </r>
       <r>    7.4849   -0.0000 </r>
       <r>    7.5502   -0.0000 </r>
       <r>    7.8447   -0.0000 </r>
       <r>    7.8642   -0.0000 </r>
       <r>    8.0965   -0.0000 </r>
       <r>    8.1180   -0.0000 </r>
       <r>    8.1729   -0.0000 </r>
       <r>    8.2663   -0.0000 </r>
      </set>
      <set comment="kpoint 97">
       <r>   -3.5750    1.0000 </r>
       <r>   -2.9590    1.0000 </r>
       <r>   -2.5668    1.0000 </r>
       <r>   -2.3266    1.0000 </r>
       <r>   -1.7266    1.0000 </r>
       <r>   -1.5182    1.0000 </r>
       <r>   -1.3225    1.0000 </r>
       <r>   -0.9370    1.0000 </r>
       <r>   -0.6834    1.0000 </r>
       <r>   -0.4926    1.0000 </r>
       <r>   -0.3010    1.0000 </r>
       <r>    0.1040    1.0000 </r>
       <r>    0.2965    1.0000 </r>
       <r>    0.5132    1.0000 </r>
       <r>    0.6759    1.0000 </r>
       <r>    0.9266    1.0000 </r>
       <r>    1.2709    1.0000 </r>
       <r>    1.3190    1.0000 </r>
       <r>    1.5096    1.0000 </r>
       <r>    1.7170    1.0000 </r>
       <r>    1.8666    1.0000 </r>
       <r>    2.0483    1.0000 </r>
       <r>    2.1243    1.0000 </r>
       <r>    2.3045    1.0000 </r>
       <r>    2.5900    1.0000 </r>
       <r>    2.7082    1.0000 </r>
       <r>    2.8228    1.0000 </r>
       <r>    3.0819    1.0000 </r>
       <r>    3.1734    1.0000 </r>
       <r>    3.3536    1.0000 </r>
       <r>    3.6312    1.0000 </r>
       <r>    3.7490    1.0000 </r>
       <r>    4.2525    1.0000 </r>
       <r>    4.3281    1.0000 </r>
       <r>    4.3598    1.0000 </r>
       <r>    4.4965    1.0000 </r>
       <r>    4.5489    1.0000 </r>
       <r>    4.7053    1.0003 </r>
       <r>    4.9143    1.0162 </r>
       <r>    5.0707    1.0222 </r>
       <r>    5.2428    0.5949 </r>
       <r>    5.3196    0.2798 </r>
       <r>    5.5567   -0.0295 </r>
       <r>    5.7197   -0.0030 </r>
       <r>    5.9603   -0.0000 </r>
       <r>    6.1282   -0.0000 </r>
       <r>    6.2454   -0.0000 </r>
       <r>    6.3331   -0.0000 </r>
       <r>    6.3693   -0.0000 </r>
       <r>    6.4736   -0.0000 </r>
       <r>    6.6161   -0.0000 </r>
       <r>    6.8322   -0.0000 </r>
       <r>    7.0089   -0.0000 </r>
       <r>    7.2273   -0.0000 </r>
       <r>    7.3460   -0.0000 </r>
       <r>    7.4284   -0.0000 </r>
       <r>    7.4988   -0.0000 </r>
       <r>    7.5605   -0.0000 </r>
       <r>    7.8431   -0.0000 </r>
       <r>    7.8596   -0.0000 </r>
       <r>    8.0830   -0.0000 </r>
       <r>    8.1110   -0.0000 </r>
       <r>    8.1980   -0.0000 </r>
       <r>    8.2470   -0.0000 </r>
      </set>
      <set comment="kpoint 98">
       <r>   -3.5741    1.0000 </r>
       <r>   -2.9670    1.0000 </r>
       <r>   -2.5512    1.0000 </r>
       <r>   -2.3334    1.0000 </r>
       <r>   -1.7307    1.0000 </r>
       <r>   -1.5147    1.0000 </r>
       <r>   -1.3236    1.0000 </r>
       <r>   -0.9118    1.0000 </r>
       <r>   -0.7013    1.0000 </r>
       <r>   -0.5268    1.0000 </r>
       <r>   -0.2805    1.0000 </r>
       <r>    0.1049    1.0000 </r>
       <r>    0.2898    1.0000 </r>
       <r>    0.5178    1.0000 </r>
       <r>    0.6850    1.0000 </r>
       <r>    0.9200    1.0000 </r>
       <r>    1.2853    1.0000 </r>
       <r>    1.3166    1.0000 </r>
       <r>    1.5074    1.0000 </r>
       <r>    1.7205    1.0000 </r>
       <r>    1.8788    1.0000 </r>
       <r>    2.0476    1.0000 </r>
       <r>    2.1222    1.0000 </r>
       <r>    2.3089    1.0000 </r>
       <r>    2.5750    1.0000 </r>
       <r>    2.7077    1.0000 </r>
       <r>    2.7985    1.0000 </r>
       <r>    3.0853    1.0000 </r>
       <r>    3.1657    1.0000 </r>
       <r>    3.3693    1.0000 </r>
       <r>    3.6348    1.0000 </r>
       <r>    3.7490    1.0000 </r>
       <r>    4.2697    1.0000 </r>
       <r>    4.3138    1.0000 </r>
       <r>    4.3547    1.0000 </r>
       <r>    4.5157    1.0000 </r>
       <r>    4.5242    1.0000 </r>
       <r>    4.7319    1.0005 </r>
       <r>    4.9158    1.0165 </r>
       <r>    5.0587    1.0283 </r>
       <r>    5.2309    0.6437 </r>
       <r>    5.3184    0.2845 </r>
       <r>    5.5741   -0.0257 </r>
       <r>    5.7046   -0.0040 </r>
       <r>    5.9774   -0.0000 </r>
       <r>    6.1194   -0.0000 </r>
       <r>    6.2392   -0.0000 </r>
       <r>    6.3415   -0.0000 </r>
       <r>    6.3604   -0.0000 </r>
       <r>    6.4690   -0.0000 </r>
       <r>    6.6204   -0.0000 </r>
       <r>    6.8222   -0.0000 </r>
       <r>    7.0273   -0.0000 </r>
       <r>    7.2304   -0.0000 </r>
       <r>    7.3313   -0.0000 </r>
       <r>    7.4393   -0.0000 </r>
       <r>    7.4962   -0.0000 </r>
       <r>    7.5360   -0.0000 </r>
       <r>    7.8529   -0.0000 </r>
       <r>    7.8629   -0.0000 </r>
       <r>    8.0530   -0.0000 </r>
       <r>    8.1128   -0.0000 </r>
       <r>    8.2047   -0.0000 </r>
       <r>    8.2827   -0.0000 </r>
      </set>
      <set comment="kpoint 99">
       <r>   -3.5765    1.0000 </r>
       <r>   -2.9603    1.0000 </r>
       <r>   -2.5421    1.0000 </r>
       <r>   -2.3469    1.0000 </r>
       <r>   -1.7272    1.0000 </r>
       <r>   -1.5494    1.0000 </r>
       <r>   -1.2904    1.0000 </r>
       <r>   -0.9168    1.0000 </r>
       <r>   -0.7088    1.0000 </r>
       <r>   -0.5090    1.0000 </r>
       <r>   -0.2813    1.0000 </r>
       <r>    0.0986    1.0000 </r>
       <r>    0.2911    1.0000 </r>
       <r>    0.5125    1.0000 </r>
       <r>    0.6951    1.0000 </r>
       <r>    0.9129    1.0000 </r>
       <r>    1.2916    1.0000 </r>
       <r>    1.3283    1.0000 </r>
       <r>    1.5002    1.0000 </r>
       <r>    1.7100    1.0000 </r>
       <r>    1.8825    1.0000 </r>
       <r>    2.0601    1.0000 </r>
       <r>    2.1118    1.0000 </r>
       <r>    2.3049    1.0000 </r>
       <r>    2.5620    1.0000 </r>
       <r>    2.6950    1.0000 </r>
       <r>    2.8141    1.0000 </r>
       <r>    3.0866    1.0000 </r>
       <r>    3.1689    1.0000 </r>
       <r>    3.3624    1.0000 </r>
       <r>    3.6393    1.0000 </r>
       <r>    3.7492    1.0000 </r>
       <r>    4.2911    1.0000 </r>
       <r>    4.3090    1.0000 </r>
       <r>    4.3590    1.0000 </r>
       <r>    4.4965    1.0000 </r>
       <r>    4.5296    1.0000 </r>
       <r>    4.7142    1.0003 </r>
       <r>    4.9184    1.0170 </r>
       <r>    5.0645    1.0256 </r>
       <r>    5.2415    0.6005 </r>
       <r>    5.3232    0.2665 </r>
       <r>    5.5898   -0.0221 </r>
       <r>    5.6994   -0.0044 </r>
       <r>    5.9778   -0.0000 </r>
       <r>    6.1235   -0.0000 </r>
       <r>    6.2114   -0.0000 </r>
       <r>    6.3284   -0.0000 </r>
       <r>    6.3673   -0.0000 </r>
       <r>    6.4757   -0.0000 </r>
       <r>    6.6210   -0.0000 </r>
       <r>    6.8378   -0.0000 </r>
       <r>    7.0296   -0.0000 </r>
       <r>    7.2128   -0.0000 </r>
       <r>    7.3594   -0.0000 </r>
       <r>    7.4132   -0.0000 </r>
       <r>    7.4864   -0.0000 </r>
       <r>    7.5567   -0.0000 </r>
       <r>    7.8529   -0.0000 </r>
       <r>    7.8647   -0.0000 </r>
       <r>    8.0710   -0.0000 </r>
       <r>    8.1173   -0.0000 </r>
       <r>    8.1508   -0.0000 </r>
       <r>    8.2898   -0.0000 </r>
      </set>
      <set comment="kpoint 100">
       <r>   -3.5792    1.0000 </r>
       <r>   -2.9483    1.0000 </r>
       <r>   -2.5555    1.0000 </r>
       <r>   -2.3411    1.0000 </r>
       <r>   -1.7407    1.0000 </r>
       <r>   -1.5245    1.0000 </r>
       <r>   -1.3167    1.0000 </r>
       <r>   -0.9125    1.0000 </r>
       <r>   -0.6996    1.0000 </r>
       <r>   -0.4927    1.0000 </r>
       <r>   -0.3015    1.0000 </r>
       <r>    0.0912    1.0000 </r>
       <r>    0.3230    1.0000 </r>
       <r>    0.4925    1.0000 </r>
       <r>    0.6925    1.0000 </r>
       <r>    0.9315    1.0000 </r>
       <r>    1.2762    1.0000 </r>
       <r>    1.3069    1.0000 </r>
       <r>    1.5046    1.0000 </r>
       <r>    1.7278    1.0000 </r>
       <r>    1.8955    1.0000 </r>
       <r>    2.0202    1.0000 </r>
       <r>    2.1191    1.0000 </r>
       <r>    2.3124    1.0000 </r>
       <r>    2.5788    1.0000 </r>
       <r>    2.7015    1.0000 </r>
       <r>    2.8297    1.0000 </r>
       <r>    3.0775    1.0000 </r>
       <r>    3.1529    1.0000 </r>
       <r>    3.3611    1.0000 </r>
       <r>    3.6314    1.0000 </r>
       <r>    3.7512    1.0000 </r>
       <r>    4.2750    1.0000 </r>
       <r>    4.3427    1.0000 </r>
       <r>    4.3713    1.0000 </r>
       <r>    4.4899    1.0000 </r>
       <r>    4.5217    1.0000 </r>
       <r>    4.7023    1.0003 </r>
       <r>    4.9059    1.0145 </r>
       <r>    5.0718    1.0215 </r>
       <r>    5.2342    0.6305 </r>
       <r>    5.3171    0.2894 </r>
       <r>    5.5816   -0.0239 </r>
       <r>    5.7141   -0.0034 </r>
       <r>    5.9952   -0.0000 </r>
       <r>    6.1030   -0.0000 </r>
       <r>    6.2327   -0.0000 </r>
       <r>    6.3232   -0.0000 </r>
       <r>    6.3675   -0.0000 </r>
       <r>    6.4703   -0.0000 </r>
       <r>    6.6287   -0.0000 </r>
       <r>    6.8112   -0.0000 </r>
       <r>    7.0294   -0.0000 </r>
       <r>    7.1971   -0.0000 </r>
       <r>    7.3324   -0.0000 </r>
       <r>    7.4625   -0.0000 </r>
       <r>    7.5135   -0.0000 </r>
       <r>    7.5752   -0.0000 </r>
       <r>    7.8409   -0.0000 </r>
       <r>    7.8777   -0.0000 </r>
       <r>    8.0229   -0.0000 </r>
       <r>    8.1403   -0.0000 </r>
       <r>    8.2184   -0.0000 </r>
       <r>    8.2607   -0.0000 </r>
      </set>
      <set comment="kpoint 101">
       <r>   -3.3749    1.0000 </r>
       <r>   -2.9611    1.0000 </r>
       <r>   -2.7499    1.0000 </r>
       <r>   -2.3565    1.0000 </r>
       <r>   -2.3116    1.0000 </r>
       <r>   -1.9330    1.0000 </r>
       <r>   -0.5408    1.0000 </r>
       <r>   -0.4979    1.0000 </r>
       <r>   -0.1160    1.0000 </r>
       <r>   -0.0762    1.0000 </r>
       <r>    0.0836    1.0000 </r>
       <r>    0.2553    1.0000 </r>
       <r>    0.3306    1.0000 </r>
       <r>    0.4984    1.0000 </r>
       <r>    0.5327    1.0000 </r>
       <r>    0.6914    1.0000 </r>
       <r>    0.7289    1.0000 </r>
       <r>    0.9062    1.0000 </r>
       <r>    0.9344    1.0000 </r>
       <r>    1.2887    1.0000 </r>
       <r>    1.3177    1.0000 </r>
       <r>    1.6456    1.0000 </r>
       <r>    2.4133    1.0000 </r>
       <r>    2.6761    1.0000 </r>
       <r>    2.7647    1.0000 </r>
       <r>    3.1327    1.0000 </r>
       <r>    3.1646    1.0000 </r>
       <r>    3.2560    1.0000 </r>
       <r>    3.2980    1.0000 </r>
       <r>    3.5298    1.0000 </r>
       <r>    3.5604    1.0000 </r>
       <r>    3.6624    1.0000 </r>
       <r>    3.6871    1.0000 </r>
       <r>    3.9261    1.0000 </r>
       <r>    4.0087    1.0000 </r>
       <r>    4.3114    1.0000 </r>
       <r>    4.5582    1.0000 </r>
       <r>    4.5752    1.0000 </r>
       <r>    4.8723    1.0089 </r>
       <r>    4.9137    1.0161 </r>
       <r>    5.4711   -0.0278 </r>
       <r>    5.5381   -0.0330 </r>
       <r>    5.9976   -0.0000 </r>
       <r>    6.0352   -0.0000 </r>
       <r>    6.2024   -0.0000 </r>
       <r>    6.2611   -0.0000 </r>
       <r>    6.4166   -0.0000 </r>
       <r>    6.4458   -0.0000 </r>
       <r>    6.7157   -0.0000 </r>
       <r>    6.8044   -0.0000 </r>
       <r>    6.8612   -0.0000 </r>
       <r>    6.8775   -0.0000 </r>
       <r>    7.1620   -0.0000 </r>
       <r>    7.1848   -0.0000 </r>
       <r>    7.3184   -0.0000 </r>
       <r>    7.3368   -0.0000 </r>
       <r>    7.5501   -0.0000 </r>
       <r>    7.6062   -0.0000 </r>
       <r>    7.7100   -0.0000 </r>
       <r>    7.7393   -0.0000 </r>
       <r>    7.9963   -0.0000 </r>
       <r>    8.0140   -0.0000 </r>
       <r>    8.1436   -0.0000 </r>
       <r>    8.4601   -0.0000 </r>
      </set>
      <set comment="kpoint 102">
       <r>   -3.3717    1.0000 </r>
       <r>   -2.9666    1.0000 </r>
       <r>   -2.7514    1.0000 </r>
       <r>   -2.4151    1.0000 </r>
       <r>   -2.2460    1.0000 </r>
       <r>   -1.9215    1.0000 </r>
       <r>   -0.6001    1.0000 </r>
       <r>   -0.4405    1.0000 </r>
       <r>   -0.2051    1.0000 </r>
       <r>   -0.0245    1.0000 </r>
       <r>    0.1075    1.0000 </r>
       <r>    0.2298    1.0000 </r>
       <r>    0.3765    1.0000 </r>
       <r>    0.4221    1.0000 </r>
       <r>    0.5908    1.0000 </r>
       <r>    0.6192    1.0000 </r>
       <r>    0.7887    1.0000 </r>
       <r>    0.9140    1.0000 </r>
       <r>    0.9369    1.0000 </r>
       <r>    1.2328    1.0000 </r>
       <r>    1.3788    1.0000 </r>
       <r>    1.6581    1.0000 </r>
       <r>    2.4158    1.0000 </r>
       <r>    2.6764    1.0000 </r>
       <r>    2.7600    1.0000 </r>
       <r>    3.1318    1.0000 </r>
       <r>    3.1674    1.0000 </r>
       <r>    3.2135    1.0000 </r>
       <r>    3.3526    1.0000 </r>
       <r>    3.5307    1.0000 </r>
       <r>    3.5516    1.0000 </r>
       <r>    3.6626    1.0000 </r>
       <r>    3.6789    1.0000 </r>
       <r>    3.9295    1.0000 </r>
       <r>    3.9931    1.0000 </r>
       <r>    4.3240    1.0000 </r>
       <r>    4.5449    1.0000 </r>
       <r>    4.5719    1.0000 </r>
       <r>    4.8241    1.0039 </r>
       <r>    4.9625    1.0270 </r>
       <r>    5.4044    0.0419 </r>
       <r>    5.5986   -0.0201 </r>
       <r>    5.9385   -0.0000 </r>
       <r>    6.0772   -0.0000 </r>
       <r>    6.1623   -0.0000 </r>
       <r>    6.3468   -0.0000 </r>
       <r>    6.4002   -0.0000 </r>
       <r>    6.4401   -0.0000 </r>
       <r>    6.7053   -0.0000 </r>
       <r>    6.7574   -0.0000 </r>
       <r>    6.8525   -0.0000 </r>
       <r>    6.9392   -0.0000 </r>
       <r>    7.1583   -0.0000 </r>
       <r>    7.2053   -0.0000 </r>
       <r>    7.3056   -0.0000 </r>
       <r>    7.3351   -0.0000 </r>
       <r>    7.4888   -0.0000 </r>
       <r>    7.6472   -0.0000 </r>
       <r>    7.6839   -0.0000 </r>
       <r>    7.7938   -0.0000 </r>
       <r>    7.9751   -0.0000 </r>
       <r>    8.0282   -0.0000 </r>
       <r>    8.1480   -0.0000 </r>
       <r>    8.3941   -0.0000 </r>
      </set>
      <set comment="kpoint 103">
       <r>   -3.3754    1.0000 </r>
       <r>   -2.9598    1.0000 </r>
       <r>   -2.7436    1.0000 </r>
       <r>   -2.4252    1.0000 </r>
       <r>   -2.2530    1.0000 </r>
       <r>   -1.9171    1.0000 </r>
       <r>   -0.6041    1.0000 </r>
       <r>   -0.4249    1.0000 </r>
       <r>   -0.1917    1.0000 </r>
       <r>   -0.0459    1.0000 </r>
       <r>    0.0848    1.0000 </r>
       <r>    0.2337    1.0000 </r>
       <r>    0.3558    1.0000 </r>
       <r>    0.4560    1.0000 </r>
       <r>    0.5802    1.0000 </r>
       <r>    0.6324    1.0000 </r>
       <r>    0.8119    1.0000 </r>
       <r>    0.9035    1.0000 </r>
       <r>    0.9270    1.0000 </r>
       <r>    1.2439    1.0000 </r>
       <r>    1.3832    1.0000 </r>
       <r>    1.6403    1.0000 </r>
       <r>    2.4117    1.0000 </r>
       <r>    2.6869    1.0000 </r>
       <r>    2.7719    1.0000 </r>
       <r>    3.1273    1.0000 </r>
       <r>    3.1583    1.0000 </r>
       <r>    3.1857    1.0000 </r>
       <r>    3.3538    1.0000 </r>
       <r>    3.5452    1.0000 </r>
       <r>    3.5472    1.0000 </r>
       <r>    3.6592    1.0000 </r>
       <r>    3.6863    1.0000 </r>
       <r>    3.9332    1.0000 </r>
       <r>    3.9904    1.0000 </r>
       <r>    4.3256    1.0000 </r>
       <r>    4.5501    1.0000 </r>
       <r>    4.5854    1.0000 </r>
       <r>    4.8192    1.0035 </r>
       <r>    4.9572    1.0258 </r>
       <r>    5.3959    0.0579 </r>
       <r>    5.6056   -0.0185 </r>
       <r>    5.9497   -0.0000 </r>
       <r>    6.0939   -0.0000 </r>
       <r>    6.1515   -0.0000 </r>
       <r>    6.3239   -0.0000 </r>
       <r>    6.3962   -0.0000 </r>
       <r>    6.4471   -0.0000 </r>
       <r>    6.6970   -0.0000 </r>
       <r>    6.7408   -0.0000 </r>
       <r>    6.8474   -0.0000 </r>
       <r>    6.9709   -0.0000 </r>
       <r>    7.1590   -0.0000 </r>
       <r>    7.1985   -0.0000 </r>
       <r>    7.3107   -0.0000 </r>
       <r>    7.3405   -0.0000 </r>
       <r>    7.4961   -0.0000 </r>
       <r>    7.6602   -0.0000 </r>
       <r>    7.6717   -0.0000 </r>
       <r>    7.7935   -0.0000 </r>
       <r>    7.9754   -0.0000 </r>
       <r>    8.0259   -0.0000 </r>
       <r>    8.1350   -0.0000 </r>
       <r>    8.3965   -0.0000 </r>
      </set>
      <set comment="kpoint 104">
       <r>   -3.3776    1.0000 </r>
       <r>   -2.9579    1.0000 </r>
       <r>   -2.7404    1.0000 </r>
       <r>   -2.3693    1.0000 </r>
       <r>   -2.3152    1.0000 </r>
       <r>   -1.9276    1.0000 </r>
       <r>   -0.5400    1.0000 </r>
       <r>   -0.4858    1.0000 </r>
       <r>   -0.1299    1.0000 </r>
       <r>   -0.0915    1.0000 </r>
       <r>    0.0936    1.0000 </r>
       <r>    0.2528    1.0000 </r>
       <r>    0.3500    1.0000 </r>
       <r>    0.4979    1.0000 </r>
       <r>    0.5289    1.0000 </r>
       <r>    0.6843    1.0000 </r>
       <r>    0.7231    1.0000 </r>
       <r>    0.9097    1.0000 </r>
       <r>    0.9356    1.0000 </r>
       <r>    1.2810    1.0000 </r>
       <r>    1.3327    1.0000 </r>
       <r>    1.6410    1.0000 </r>
       <r>    2.4126    1.0000 </r>
       <r>    2.6901    1.0000 </r>
       <r>    2.7789    1.0000 </r>
       <r>    3.1181    1.0000 </r>
       <r>    3.1396    1.0000 </r>
       <r>    3.2481    1.0000 </r>
       <r>    3.3115    1.0000 </r>
       <r>    3.5341    1.0000 </r>
       <r>    3.5635    1.0000 </r>
       <r>    3.6561    1.0000 </r>
       <r>    3.6826    1.0000 </r>
       <r>    3.9371    1.0000 </r>
       <r>    3.9964    1.0000 </r>
       <r>    4.3183    1.0000 </r>
       <r>    4.5575    1.0000 </r>
       <r>    4.5812    1.0000 </r>
       <r>    4.8707    1.0087 </r>
       <r>    4.9144    1.0162 </r>
       <r>    5.4690   -0.0269 </r>
       <r>    5.5404   -0.0327 </r>
       <r>    5.9949   -0.0000 </r>
       <r>    6.0560   -0.0000 </r>
       <r>    6.1871   -0.0000 </r>
       <r>    6.2631   -0.0000 </r>
       <r>    6.4213   -0.0000 </r>
       <r>    6.4369   -0.0000 </r>
       <r>    6.6943   -0.0000 </r>
       <r>    6.7824   -0.0000 </r>
       <r>    6.8695   -0.0000 </r>
       <r>    6.9090   -0.0000 </r>
       <r>    7.1664   -0.0000 </r>
       <r>    7.1950   -0.0000 </r>
       <r>    7.3237   -0.0000 </r>
       <r>    7.3262   -0.0000 </r>
       <r>    7.5420   -0.0000 </r>
       <r>    7.6108   -0.0000 </r>
       <r>    7.7060   -0.0000 </r>
       <r>    7.7495   -0.0000 </r>
       <r>    7.9927   -0.0000 </r>
       <r>    8.0102   -0.0000 </r>
       <r>    8.1366   -0.0000 </r>
       <r>    8.4660   -0.0000 </r>
      </set>
      <set comment="kpoint 105">
       <r>   -3.3723    1.0000 </r>
       <r>   -2.9652    1.0000 </r>
       <r>   -2.7548    1.0000 </r>
       <r>   -2.3878    1.0000 </r>
       <r>   -2.2755    1.0000 </r>
       <r>   -1.9186    1.0000 </r>
       <r>   -0.5716    1.0000 </r>
       <r>   -0.4791    1.0000 </r>
       <r>   -0.1527    1.0000 </r>
       <r>   -0.0850    1.0000 </r>
       <r>    0.1177    1.0000 </r>
       <r>    0.2529    1.0000 </r>
       <r>    0.3451    1.0000 </r>
       <r>    0.4576    1.0000 </r>
       <r>    0.5313    1.0000 </r>
       <r>    0.6629    1.0000 </r>
       <r>    0.7727    1.0000 </r>
       <r>    0.9178    1.0000 </r>
       <r>    0.9639    1.0000 </r>
       <r>    1.2506    1.0000 </r>
       <r>    1.3449    1.0000 </r>
       <r>    1.6536    1.0000 </r>
       <r>    2.4243    1.0000 </r>
       <r>    2.6730    1.0000 </r>
       <r>    2.7632    1.0000 </r>
       <r>    3.1282    1.0000 </r>
       <r>    3.1602    1.0000 </r>
       <r>    3.2301    1.0000 </r>
       <r>    3.3285    1.0000 </r>
       <r>    3.5330    1.0000 </r>
       <r>    3.5582    1.0000 </r>
       <r>    3.6579    1.0000 </r>
       <r>    3.6695    1.0000 </r>
       <r>    3.9289    1.0000 </r>
       <r>    4.0106    1.0000 </r>
       <r>    4.3220    1.0000 </r>
       <r>    4.5522    1.0000 </r>
       <r>    4.5720    1.0000 </r>
       <r>    4.8472    1.0059 </r>
       <r>    4.9388    1.0215 </r>
       <r>    5.4368   -0.0032 </r>
       <r>    5.5579   -0.0293 </r>
       <r>    5.9607   -0.0000 </r>
       <r>    6.0608   -0.0000 </r>
       <r>    6.1840   -0.0000 </r>
       <r>    6.2974   -0.0000 </r>
       <r>    6.4159   -0.0000 </r>
       <r>    6.4531   -0.0000 </r>
       <r>    6.7056   -0.0000 </r>
       <r>    6.7732   -0.0000 </r>
       <r>    6.8475   -0.0000 </r>
       <r>    6.9035   -0.0000 </r>
       <r>    7.1685   -0.0000 </r>
       <r>    7.2034   -0.0000 </r>
       <r>    7.3157   -0.0000 </r>
       <r>    7.3267   -0.0000 </r>
       <r>    7.5317   -0.0000 </r>
       <r>    7.6319   -0.0000 </r>
       <r>    7.6852   -0.0000 </r>
       <r>    7.7704   -0.0000 </r>
       <r>    7.9972   -0.0000 </r>
       <r>    8.0253   -0.0000 </r>
       <r>    8.1524   -0.0000 </r>
       <r>    8.4199   -0.0000 </r>
      </set>
      <set comment="kpoint 106">
       <r>   -3.3711    1.0000 </r>
       <r>   -2.9687    1.0000 </r>
       <r>   -2.7495    1.0000 </r>
       <r>   -2.4154    1.0000 </r>
       <r>   -2.2467    1.0000 </r>
       <r>   -1.9219    1.0000 </r>
       <r>   -0.5928    1.0000 </r>
       <r>   -0.4370    1.0000 </r>
       <r>   -0.2096    1.0000 </r>
       <r>   -0.0252    1.0000 </r>
       <r>    0.1092    1.0000 </r>
       <r>    0.2123    1.0000 </r>
       <r>    0.3676    1.0000 </r>
       <r>    0.4441    1.0000 </r>
       <r>    0.5706    1.0000 </r>
       <r>    0.6192    1.0000 </r>
       <r>    0.8079    1.0000 </r>
       <r>    0.9188    1.0000 </r>
       <r>    0.9355    1.0000 </r>
       <r>    1.2298    1.0000 </r>
       <r>    1.3805    1.0000 </r>
       <r>    1.6514    1.0000 </r>
       <r>    2.4230    1.0000 </r>
       <r>    2.6780    1.0000 </r>
       <r>    2.7594    1.0000 </r>
       <r>    3.1293    1.0000 </r>
       <r>    3.1710    1.0000 </r>
       <r>    3.2048    1.0000 </r>
       <r>    3.3614    1.0000 </r>
       <r>    3.5334    1.0000 </r>
       <r>    3.5484    1.0000 </r>
       <r>    3.6563    1.0000 </r>
       <r>    3.6755    1.0000 </r>
       <r>    3.9316    1.0000 </r>
       <r>    3.9991    1.0000 </r>
       <r>    4.3088    1.0000 </r>
       <r>    4.5451    1.0000 </r>
       <r>    4.5823    1.0000 </r>
       <r>    4.8245    1.0039 </r>
       <r>    4.9616    1.0268 </r>
       <r>    5.4141    0.0259 </r>
       <r>    5.6049   -0.0187 </r>
       <r>    5.9283   -0.0000 </r>
       <r>    6.0813   -0.0000 </r>
       <r>    6.1640   -0.0000 </r>
       <r>    6.3252   -0.0000 </r>
       <r>    6.4033   -0.0000 </r>
       <r>    6.4501   -0.0000 </r>
       <r>    6.6577   -0.0000 </r>
       <r>    6.7879   -0.0000 </r>
       <r>    6.8377   -0.0000 </r>
       <r>    6.9605   -0.0000 </r>
       <r>    7.1624   -0.0000 </r>
       <r>    7.2023   -0.0000 </r>
       <r>    7.3086   -0.0000 </r>
       <r>    7.3402   -0.0000 </r>
       <r>    7.4912   -0.0000 </r>
       <r>    7.6487   -0.0000 </r>
       <r>    7.6780   -0.0000 </r>
       <r>    7.7992   -0.0000 </r>
       <r>    7.9731   -0.0000 </r>
       <r>    8.0316   -0.0000 </r>
       <r>    8.1538   -0.0000 </r>
       <r>    8.3900   -0.0000 </r>
      </set>
      <set comment="kpoint 107">
       <r>   -3.3750    1.0000 </r>
       <r>   -2.9595    1.0000 </r>
       <r>   -2.7514    1.0000 </r>
       <r>   -2.3563    1.0000 </r>
       <r>   -2.3122    1.0000 </r>
       <r>   -1.9338    1.0000 </r>
       <r>   -0.5359    1.0000 </r>
       <r>   -0.4924    1.0000 </r>
       <r>   -0.1194    1.0000 </r>
       <r>   -0.0823    1.0000 </r>
       <r>    0.0921    1.0000 </r>
       <r>    0.2580    1.0000 </r>
       <r>    0.3166    1.0000 </r>
       <r>    0.4980    1.0000 </r>
       <r>    0.5224    1.0000 </r>
       <r>    0.6953    1.0000 </r>
       <r>    0.7422    1.0000 </r>
       <r>    0.8901    1.0000 </r>
       <r>    0.9435    1.0000 </r>
       <r>    1.2917    1.0000 </r>
       <r>    1.3205    1.0000 </r>
       <r>    1.6411    1.0000 </r>
       <r>    2.4195    1.0000 </r>
       <r>    2.6758    1.0000 </r>
       <r>    2.7609    1.0000 </r>
       <r>    3.1365    1.0000 </r>
       <r>    3.1622    1.0000 </r>
       <r>    3.2548    1.0000 </r>
       <r>    3.3000    1.0000 </r>
       <r>    3.5411    1.0000 </r>
       <r>    3.5624    1.0000 </r>
       <r>    3.6583    1.0000 </r>
       <r>    3.6792    1.0000 </r>
       <r>    3.9190    1.0000 </r>
       <r>    4.0059    1.0000 </r>
       <r>    4.3120    1.0000 </r>
       <r>    4.5605    1.0000 </r>
       <r>    4.5781    1.0000 </r>
       <r>    4.8734    1.0091 </r>
       <r>    4.9132    1.0160 </r>
       <r>    5.4736   -0.0289 </r>
       <r>    5.5410   -0.0326 </r>
       <r>    6.0037   -0.0000 </r>
       <r>    6.0438   -0.0000 </r>
       <r>    6.2020   -0.0000 </r>
       <r>    6.2610   -0.0000 </r>
       <r>    6.4100   -0.0000 </r>
       <r>    6.4326   -0.0000 </r>
       <r>    6.7212   -0.0000 </r>
       <r>    6.7786   -0.0000 </r>
       <r>    6.8570   -0.0000 </r>
       <r>    6.8900   -0.0000 </r>
       <r>    7.1560   -0.0000 </r>
       <r>    7.1985   -0.0000 </r>
       <r>    7.3204   -0.0000 </r>
       <r>    7.3324   -0.0000 </r>
       <r>    7.5535   -0.0000 </r>
       <r>    7.6141   -0.0000 </r>
       <r>    7.7099   -0.0000 </r>
       <r>    7.7357   -0.0000 </r>
       <r>    7.9957   -0.0000 </r>
       <r>    8.0190   -0.0000 </r>
       <r>    8.1353   -0.0000 </r>
       <r>    8.4418   -0.0000 </r>
      </set>
      <set comment="kpoint 108">
       <r>   -3.3740    1.0000 </r>
       <r>   -2.9622    1.0000 </r>
       <r>   -2.7515    1.0000 </r>
       <r>   -2.3906    1.0000 </r>
       <r>   -2.2840    1.0000 </r>
       <r>   -1.9106    1.0000 </r>
       <r>   -0.5800    1.0000 </r>
       <r>   -0.4656    1.0000 </r>
       <r>   -0.1808    1.0000 </r>
       <r>   -0.0596    1.0000 </r>
       <r>    0.1000    1.0000 </r>
       <r>    0.2664    1.0000 </r>
       <r>    0.3578    1.0000 </r>
       <r>    0.4415    1.0000 </r>
       <r>    0.5536    1.0000 </r>
       <r>    0.6526    1.0000 </r>
       <r>    0.7640    1.0000 </r>
       <r>    0.9103    1.0000 </r>
       <r>    0.9465    1.0000 </r>
       <r>    1.2678    1.0000 </r>
       <r>    1.3571    1.0000 </r>
       <r>    1.6510    1.0000 </r>
       <r>    2.4236    1.0000 </r>
       <r>    2.6931    1.0000 </r>
       <r>    2.7642    1.0000 </r>
       <r>    3.1229    1.0000 </r>
       <r>    3.1508    1.0000 </r>
       <r>    3.2322    1.0000 </r>
       <r>    3.3255    1.0000 </r>
       <r>    3.5334    1.0000 </r>
       <r>    3.5474    1.0000 </r>
       <r>    3.6598    1.0000 </r>
       <r>    3.6757    1.0000 </r>
       <r>    3.9306    1.0000 </r>
       <r>    3.9869    1.0000 </r>
       <r>    4.3383    1.0000 </r>
       <r>    4.5564    1.0000 </r>
       <r>    4.5711    1.0000 </r>
       <r>    4.8451    1.0057 </r>
       <r>    4.9369    1.0211 </r>
       <r>    5.4262    0.0090 </r>
       <r>    5.5535   -0.0302 </r>
       <r>    5.9800   -0.0000 </r>
       <r>    6.0638   -0.0000 </r>
       <r>    6.1833   -0.0000 </r>
       <r>    6.3106   -0.0000 </r>
       <r>    6.4006   -0.0000 </r>
       <r>    6.4511   -0.0000 </r>
       <r>    6.7156   -0.0000 </r>
       <r>    6.7712   -0.0000 </r>
       <r>    6.8350   -0.0000 </r>
       <r>    6.9051   -0.0000 </r>
       <r>    7.1699   -0.0000 </r>
       <r>    7.1990   -0.0000 </r>
       <r>    7.3159   -0.0000 </r>
       <r>    7.3506   -0.0000 </r>
       <r>    7.5200   -0.0000 </r>
       <r>    7.6325   -0.0000 </r>
       <r>    7.6886   -0.0000 </r>
       <r>    7.7679   -0.0000 </r>
       <r>    7.9800   -0.0000 </r>
       <r>    8.0243   -0.0000 </r>
       <r>    8.1373   -0.0000 </r>
       <r>    8.4123   -0.0000 </r>
      </set>
      <set comment="kpoint 109">
       <r>   -3.3731    1.0000 </r>
       <r>   -2.9612    1.0000 </r>
       <r>   -2.7585    1.0000 </r>
       <r>   -2.3875    1.0000 </r>
       <r>   -2.2755    1.0000 </r>
       <r>   -1.9192    1.0000 </r>
       <r>   -0.5625    1.0000 </r>
       <r>   -0.4798    1.0000 </r>
       <r>   -0.1650    1.0000 </r>
       <r>   -0.0976    1.0000 </r>
       <r>    0.1122    1.0000 </r>
       <r>    0.2756    1.0000 </r>
       <r>    0.3510    1.0000 </r>
       <r>    0.4612    1.0000 </r>
       <r>    0.5595    1.0000 </r>
       <r>    0.6646    1.0000 </r>
       <r>    0.7325    1.0000 </r>
       <r>    0.9173    1.0000 </r>
       <r>    0.9576    1.0000 </r>
       <r>    1.2498    1.0000 </r>
       <r>    1.3487    1.0000 </r>
       <r>    1.6589    1.0000 </r>
       <r>    2.4220    1.0000 </r>
       <r>    2.6685    1.0000 </r>
       <r>    2.7684    1.0000 </r>
       <r>    3.1363    1.0000 </r>
       <r>    3.1637    1.0000 </r>
       <r>    3.2240    1.0000 </r>
       <r>    3.3206    1.0000 </r>
       <r>    3.5429    1.0000 </r>
       <r>    3.5568    1.0000 </r>
       <r>    3.6533    1.0000 </r>
       <r>    3.6709    1.0000 </r>
       <r>    3.9320    1.0000 </r>
       <r>    4.0001    1.0000 </r>
       <r>    4.3258    1.0000 </r>
       <r>    4.5516    1.0000 </r>
       <r>    4.5743    1.0000 </r>
       <r>    4.8469    1.0059 </r>
       <r>    4.9382    1.0214 </r>
       <r>    5.4397   -0.0062 </r>
       <r>    5.5579   -0.0293 </r>
       <r>    5.9617   -0.0000 </r>
       <r>    6.0600   -0.0000 </r>
       <r>    6.1928   -0.0000 </r>
       <r>    6.3125   -0.0000 </r>
       <r>    6.3976   -0.0000 </r>
       <r>    6.4453   -0.0000 </r>
       <r>    6.6972   -0.0000 </r>
       <r>    6.7906   -0.0000 </r>
       <r>    6.8474   -0.0000 </r>
       <r>    6.8911   -0.0000 </r>
       <r>    7.1681   -0.0000 </r>
       <r>    7.1947   -0.0000 </r>
       <r>    7.3151   -0.0000 </r>
       <r>    7.3288   -0.0000 </r>
       <r>    7.5429   -0.0000 </r>
       <r>    7.6453   -0.0000 </r>
       <r>    7.6829   -0.0000 </r>
       <r>    7.7655   -0.0000 </r>
       <r>    7.9958   -0.0000 </r>
       <r>    8.0243   -0.0000 </r>
       <r>    8.1412   -0.0000 </r>
       <r>    8.4186   -0.0000 </r>
      </set>
      <set comment="kpoint 110">
       <r>   -3.3744    1.0000 </r>
       <r>   -2.9714    1.0000 </r>
       <r>   -2.7289    1.0000 </r>
       <r>   -2.3694    1.0000 </r>
       <r>   -2.3154    1.0000 </r>
       <r>   -1.9293    1.0000 </r>
       <r>   -0.5367    1.0000 </r>
       <r>   -0.4848    1.0000 </r>
       <r>   -0.1351    1.0000 </r>
       <r>   -0.0831    1.0000 </r>
       <r>    0.0923    1.0000 </r>
       <r>    0.2575    1.0000 </r>
       <r>    0.3227    1.0000 </r>
       <r>    0.4951    1.0000 </r>
       <r>    0.5525    1.0000 </r>
       <r>    0.6813    1.0000 </r>
       <r>    0.7351    1.0000 </r>
       <r>    0.8826    1.0000 </r>
       <r>    0.9478    1.0000 </r>
       <r>    1.2857    1.0000 </r>
       <r>    1.3245    1.0000 </r>
       <r>    1.6454    1.0000 </r>
       <r>    2.4259    1.0000 </r>
       <r>    2.6791    1.0000 </r>
       <r>    2.7678    1.0000 </r>
       <r>    3.1296    1.0000 </r>
       <r>    3.1388    1.0000 </r>
       <r>    3.2494    1.0000 </r>
       <r>    3.3121    1.0000 </r>
       <r>    3.5209    1.0000 </r>
       <r>    3.5314    1.0000 </r>
       <r>    3.6785    1.0000 </r>
       <r>    3.7072    1.0000 </r>
       <r>    3.9326    1.0000 </r>
       <r>    3.9989    1.0000 </r>
       <r>    4.3298    1.0000 </r>
       <r>    4.5547    1.0000 </r>
       <r>    4.5722    1.0000 </r>
       <r>    4.8690    1.0085 </r>
       <r>    4.9128    1.0159 </r>
       <r>    5.4663   -0.0256 </r>
       <r>    5.5476   -0.0314 </r>
       <r>    6.0007   -0.0000 </r>
       <r>    6.0478   -0.0000 </r>
       <r>    6.1958   -0.0000 </r>
       <r>    6.2602   -0.0000 </r>
       <r>    6.4071   -0.0000 </r>
       <r>    6.4496   -0.0000 </r>
       <r>    6.7140   -0.0000 </r>
       <r>    6.7823   -0.0000 </r>
       <r>    6.8460   -0.0000 </r>
       <r>    6.9297   -0.0000 </r>
       <r>    7.1580   -0.0000 </r>
       <r>    7.1710   -0.0000 </r>
       <r>    7.3100   -0.0000 </r>
       <r>    7.3324   -0.0000 </r>
       <r>    7.5474   -0.0000 </r>
       <r>    7.6138   -0.0000 </r>
       <r>    7.7115   -0.0000 </r>
       <r>    7.7472   -0.0000 </r>
       <r>    7.9950   -0.0000 </r>
       <r>    8.0106   -0.0000 </r>
       <r>    8.1339   -0.0000 </r>
       <r>    8.4403   -0.0000 </r>
      </set>
      <set comment="kpoint 111">
       <r>   -3.3716    1.0000 </r>
       <r>   -2.9749    1.0000 </r>
       <r>   -2.7309    1.0000 </r>
       <r>   -2.4258    1.0000 </r>
       <r>   -2.2535    1.0000 </r>
       <r>   -1.9185    1.0000 </r>
       <r>   -0.5912    1.0000 </r>
       <r>   -0.4314    1.0000 </r>
       <r>   -0.1997    1.0000 </r>
       <r>   -0.0343    1.0000 </r>
       <r>    0.1079    1.0000 </r>
       <r>    0.1867    1.0000 </r>
       <r>    0.3810    1.0000 </r>
       <r>    0.4351    1.0000 </r>
       <r>    0.5684    1.0000 </r>
       <r>    0.6596    1.0000 </r>
       <r>    0.8089    1.0000 </r>
       <r>    0.8962    1.0000 </r>
       <r>    0.9320    1.0000 </r>
       <r>    1.2334    1.0000 </r>
       <r>    1.3862    1.0000 </r>
       <r>    1.6467    1.0000 </r>
       <r>    2.4258    1.0000 </r>
       <r>    2.6709    1.0000 </r>
       <r>    2.7660    1.0000 </r>
       <r>    3.1217    1.0000 </r>
       <r>    3.1647    1.0000 </r>
       <r>    3.2106    1.0000 </r>
       <r>    3.3570    1.0000 </r>
       <r>    3.5014    1.0000 </r>
       <r>    3.5336    1.0000 </r>
       <r>    3.6864    1.0000 </r>
       <r>    3.6980    1.0000 </r>
       <r>    3.9205    1.0000 </r>
       <r>    4.0103    1.0000 </r>
       <r>    4.3236    1.0000 </r>
       <r>    4.5467    1.0000 </r>
       <r>    4.5817    1.0000 </r>
       <r>    4.8213    1.0037 </r>
       <r>    4.9567    1.0257 </r>
       <r>    5.4088    0.0344 </r>
       <r>    5.5949   -0.0209 </r>
       <r>    5.9406   -0.0000 </r>
       <r>    6.0988   -0.0000 </r>
       <r>    6.1452   -0.0000 </r>
       <r>    6.3300   -0.0000 </r>
       <r>    6.4194   -0.0000 </r>
       <r>    6.4409   -0.0000 </r>
       <r>    6.6233   -0.0000 </r>
       <r>    6.8314   -0.0000 </r>
       <r>    6.8495   -0.0000 </r>
       <r>    6.9492   -0.0000 </r>
       <r>    7.1536   -0.0000 </r>
       <r>    7.2010   -0.0000 </r>
       <r>    7.3096   -0.0000 </r>
       <r>    7.3280   -0.0000 </r>
       <r>    7.4944   -0.0000 </r>
       <r>    7.6574   -0.0000 </r>
       <r>    7.6701   -0.0000 </r>
       <r>    7.7937   -0.0000 </r>
       <r>    7.9734   -0.0000 </r>
       <r>    8.0260   -0.0000 </r>
       <r>    8.1474   -0.0000 </r>
       <r>    8.3942   -0.0000 </r>
      </set>
      <set comment="kpoint 112">
       <r>   -3.3700    1.0000 </r>
       <r>   -2.9791    1.0000 </r>
       <r>   -2.7366    1.0000 </r>
       <r>   -2.3913    1.0000 </r>
       <r>   -2.2841    1.0000 </r>
       <r>   -1.9123    1.0000 </r>
       <r>   -0.5650    1.0000 </r>
       <r>   -0.4635    1.0000 </r>
       <r>   -0.1909    1.0000 </r>
       <r>   -0.0571    1.0000 </r>
       <r>    0.0791    1.0000 </r>
       <r>    0.2216    1.0000 </r>
       <r>    0.3534    1.0000 </r>
       <r>    0.5016    1.0000 </r>
       <r>    0.5650    1.0000 </r>
       <r>    0.6605    1.0000 </r>
       <r>    0.7818    1.0000 </r>
       <r>    0.8894    1.0000 </r>
       <r>    0.9407    1.0000 </r>
       <r>    1.2547    1.0000 </r>
       <r>    1.3549    1.0000 </r>
       <r>    1.6575    1.0000 </r>
       <r>    2.4263    1.0000 </r>
       <r>    2.6757    1.0000 </r>
       <r>    2.7713    1.0000 </r>
       <r>    3.1462    1.0000 </r>
       <r>    3.1620    1.0000 </r>
       <r>    3.2109    1.0000 </r>
       <r>    3.3110    1.0000 </r>
       <r>    3.5089    1.0000 </r>
       <r>    3.5312    1.0000 </r>
       <r>    3.6858    1.0000 </r>
       <r>    3.6986    1.0000 </r>
       <r>    3.9433    1.0000 </r>
       <r>    3.9934    1.0000 </r>
       <r>    4.3165    1.0000 </r>
       <r>    4.5527    1.0000 </r>
       <r>    4.5789    1.0000 </r>
       <r>    4.8437    1.0055 </r>
       <r>    4.9352    1.0207 </r>
       <r>    5.4427   -0.0089 </r>
       <r>    5.5625   -0.0283 </r>
       <r>    5.9596   -0.0000 </r>
       <r>    6.0643   -0.0000 </r>
       <r>    6.1847   -0.0000 </r>
       <r>    6.3103   -0.0000 </r>
       <r>    6.4077   -0.0000 </r>
       <r>    6.4351   -0.0000 </r>
       <r>    6.6728   -0.0000 </r>
       <r>    6.8036   -0.0000 </r>
       <r>    6.8441   -0.0000 </r>
       <r>    6.9156   -0.0000 </r>
       <r>    7.1597   -0.0000 </r>
       <r>    7.1833   -0.0000 </r>
       <r>    7.3094   -0.0000 </r>
       <r>    7.3458   -0.0000 </r>
       <r>    7.5295   -0.0000 </r>
       <r>    7.6436   -0.0000 </r>
       <r>    7.6904   -0.0000 </r>
       <r>    7.7760   -0.0000 </r>
       <r>    7.9915   -0.0000 </r>
       <r>    8.0273   -0.0000 </r>
       <r>    8.1376   -0.0000 </r>
       <r>    8.4246   -0.0000 </r>
      </set>
      <set comment="kpoint 113">
       <r>   -3.6769    1.0000 </r>
       <r>   -3.0596    1.0000 </r>
       <r>   -1.9741    1.0000 </r>
       <r>   -1.8687    1.0000 </r>
       <r>   -1.7274    1.0000 </r>
       <r>   -1.6836    1.0000 </r>
       <r>   -1.6119    1.0000 </r>
       <r>   -1.4756    1.0000 </r>
       <r>   -0.7186    1.0000 </r>
       <r>   -0.6164    1.0000 </r>
       <r>   -0.4798    1.0000 </r>
       <r>    0.2831    1.0000 </r>
       <r>    0.3855    1.0000 </r>
       <r>    0.5227    1.0000 </r>
       <r>    0.5713    1.0000 </r>
       <r>    0.7255    1.0000 </r>
       <r>    0.8111    1.0000 </r>
       <r>    0.9605    1.0000 </r>
       <r>    2.0827    1.0000 </r>
       <r>    2.1793    1.0000 </r>
       <r>    2.3053    1.0000 </r>
       <r>    2.4785    1.0000 </r>
       <r>    2.6469    1.0000 </r>
       <r>    2.6517    1.0000 </r>
       <r>    2.7306    1.0000 </r>
       <r>    2.7687    1.0000 </r>
       <r>    2.8226    1.0000 </r>
       <r>    2.8818    1.0000 </r>
       <r>    3.3612    1.0000 </r>
       <r>    3.3742    1.0000 </r>
       <r>    3.4370    1.0000 </r>
       <r>    3.5434    1.0000 </r>
       <r>    3.6266    1.0000 </r>
       <r>    3.6351    1.0000 </r>
       <r>    4.5529    1.0000 </r>
       <r>    4.5984    1.0000 </r>
       <r>    4.6168    1.0000 </r>
       <r>    4.8196    1.0036 </r>
       <r>    4.8443    1.0056 </r>
       <r>    4.8628    1.0077 </r>
       <r>    5.0604    1.0275 </r>
       <r>    5.1315    0.9489 </r>
       <r>    5.2245    0.6694 </r>
       <r>    5.8660   -0.0001 </r>
       <r>    5.8936   -0.0000 </r>
       <r>    5.9699   -0.0000 </r>
       <r>    6.7001   -0.0000 </r>
       <r>    6.7124   -0.0000 </r>
       <r>    6.7246   -0.0000 </r>
       <r>    6.8670   -0.0000 </r>
       <r>    6.8933   -0.0000 </r>
       <r>    6.9411   -0.0000 </r>
       <r>    6.9917   -0.0000 </r>
       <r>    7.0854   -0.0000 </r>
       <r>    7.1044   -0.0000 </r>
       <r>    7.1600   -0.0000 </r>
       <r>    7.1846   -0.0000 </r>
       <r>    7.2044   -0.0000 </r>
       <r>    7.2737   -0.0000 </r>
       <r>    7.3713   -0.0000 </r>
       <r>    7.5514   -0.0000 </r>
       <r>    8.0615   -0.0000 </r>
       <r>    8.1459   -0.0000 </r>
       <r>    8.2673   -0.0000 </r>
      </set>
      <set comment="kpoint 114">
       <r>   -3.6774    1.0000 </r>
       <r>   -3.0601    1.0000 </r>
       <r>   -1.9293    1.0000 </r>
       <r>   -1.8695    1.0000 </r>
       <r>   -1.7557    1.0000 </r>
       <r>   -1.7056    1.0000 </r>
       <r>   -1.5994    1.0000 </r>
       <r>   -1.4975    1.0000 </r>
       <r>   -0.6947    1.0000 </r>
       <r>   -0.6105    1.0000 </r>
       <r>   -0.5002    1.0000 </r>
       <r>    0.2937    1.0000 </r>
       <r>    0.3883    1.0000 </r>
       <r>    0.5185    1.0000 </r>
       <r>    0.5816    1.0000 </r>
       <r>    0.7301    1.0000 </r>
       <r>    0.8188    1.0000 </r>
       <r>    0.9406    1.0000 </r>
       <r>    2.1023    1.0000 </r>
       <r>    2.1863    1.0000 </r>
       <r>    2.2745    1.0000 </r>
       <r>    2.4518    1.0000 </r>
       <r>    2.6554    1.0000 </r>
       <r>    2.6685    1.0000 </r>
       <r>    2.7239    1.0000 </r>
       <r>    2.7841    1.0000 </r>
       <r>    2.8218    1.0000 </r>
       <r>    2.8612    1.0000 </r>
       <r>    3.3689    1.0000 </r>
       <r>    3.4000    1.0000 </r>
       <r>    3.4537    1.0000 </r>
       <r>    3.5398    1.0000 </r>
       <r>    3.5959    1.0000 </r>
       <r>    3.6168    1.0000 </r>
       <r>    4.5879    1.0000 </r>
       <r>    4.6040    1.0000 </r>
       <r>    4.6217    1.0000 </r>
       <r>    4.8127    1.0031 </r>
       <r>    4.8296    1.0043 </r>
       <r>    4.8372    1.0049 </r>
       <r>    5.0687    1.0233 </r>
       <r>    5.1412    0.9292 </r>
       <r>    5.2206    0.6845 </r>
       <r>    5.8718   -0.0001 </r>
       <r>    5.9076   -0.0000 </r>
       <r>    5.9578   -0.0000 </r>
       <r>    6.6932   -0.0000 </r>
       <r>    6.7074   -0.0000 </r>
       <r>    6.7238   -0.0000 </r>
       <r>    6.8761   -0.0000 </r>
       <r>    6.9044   -0.0000 </r>
       <r>    6.9676   -0.0000 </r>
       <r>    7.0185   -0.0000 </r>
       <r>    7.0410   -0.0000 </r>
       <r>    7.0756   -0.0000 </r>
       <r>    7.1609   -0.0000 </r>
       <r>    7.1878   -0.0000 </r>
       <r>    7.1971   -0.0000 </r>
       <r>    7.2860   -0.0000 </r>
       <r>    7.3887   -0.0000 </r>
       <r>    7.5323   -0.0000 </r>
       <r>    8.0806   -0.0000 </r>
       <r>    8.1631   -0.0000 </r>
       <r>    8.2595   -0.0000 </r>
      </set>
      <set comment="kpoint 115">
       <r>   -3.6767    1.0000 </r>
       <r>   -3.0632    1.0000 </r>
       <r>   -1.9239    1.0000 </r>
       <r>   -1.8676    1.0000 </r>
       <r>   -1.7730    1.0000 </r>
       <r>   -1.6650    1.0000 </r>
       <r>   -1.6009    1.0000 </r>
       <r>   -1.5242    1.0000 </r>
       <r>   -0.6877    1.0000 </r>
       <r>   -0.6088    1.0000 </r>
       <r>   -0.5190    1.0000 </r>
       <r>    0.3332    1.0000 </r>
       <r>    0.3886    1.0000 </r>
       <r>    0.4753    1.0000 </r>
       <r>    0.5861    1.0000 </r>
       <r>    0.7475    1.0000 </r>
       <r>    0.8259    1.0000 </r>
       <r>    0.9157    1.0000 </r>
       <r>    2.1196    1.0000 </r>
       <r>    2.1803    1.0000 </r>
       <r>    2.2682    1.0000 </r>
       <r>    2.4768    1.0000 </r>
       <r>    2.6736    1.0000 </r>
       <r>    2.6999    1.0000 </r>
       <r>    2.7107    1.0000 </r>
       <r>    2.7686    1.0000 </r>
       <r>    2.8058    1.0000 </r>
       <r>    2.8442    1.0000 </r>
       <r>    3.3834    1.0000 </r>
       <r>    3.4298    1.0000 </r>
       <r>    3.4738    1.0000 </r>
       <r>    3.5032    1.0000 </r>
       <r>    3.5568    1.0000 </r>
       <r>    3.6063    1.0000 </r>
       <r>    4.5844    1.0000 </r>
       <r>    4.6028    1.0000 </r>
       <r>    4.6118    1.0000 </r>
       <r>    4.8238    1.0039 </r>
       <r>    4.8284    1.0042 </r>
       <r>    4.8517    1.0064 </r>
       <r>    5.0888    1.0084 </r>
       <r>    5.1386    0.9347 </r>
       <r>    5.2002    0.7603 </r>
       <r>    5.8851   -0.0001 </r>
       <r>    5.9021   -0.0000 </r>
       <r>    5.9486   -0.0000 </r>
       <r>    6.7024   -0.0000 </r>
       <r>    6.7158   -0.0000 </r>
       <r>    6.7239   -0.0000 </r>
       <r>    6.8982   -0.0000 </r>
       <r>    6.9271   -0.0000 </r>
       <r>    6.9611   -0.0000 </r>
       <r>    6.9841   -0.0000 </r>
       <r>    7.0254   -0.0000 </r>
       <r>    7.0673   -0.0000 </r>
       <r>    7.1631   -0.0000 </r>
       <r>    7.1763   -0.0000 </r>
       <r>    7.2105   -0.0000 </r>
       <r>    7.3227   -0.0000 </r>
       <r>    7.3858   -0.0000 </r>
       <r>    7.5021   -0.0000 </r>
       <r>    8.0914   -0.0000 </r>
       <r>    8.1510   -0.0000 </r>
       <r>    8.2309   -0.0000 </r>
      </set>
      <set comment="kpoint 116">
       <r>   -3.6812    1.0000 </r>
       <r>   -3.0506    1.0000 </r>
       <r>   -1.9290    1.0000 </r>
       <r>   -1.8773    1.0000 </r>
       <r>   -1.7460    1.0000 </r>
       <r>   -1.7076    1.0000 </r>
       <r>   -1.6147    1.0000 </r>
       <r>   -1.4935    1.0000 </r>
       <r>   -0.6861    1.0000 </r>
       <r>   -0.6244    1.0000 </r>
       <r>   -0.4964    1.0000 </r>
       <r>    0.3178    1.0000 </r>
       <r>    0.3742    1.0000 </r>
       <r>    0.4960    1.0000 </r>
       <r>    0.5877    1.0000 </r>
       <r>    0.7401    1.0000 </r>
       <r>    0.8144    1.0000 </r>
       <r>    0.9550    1.0000 </r>
       <r>    2.1013    1.0000 </r>
       <r>    2.1774    1.0000 </r>
       <r>    2.3099    1.0000 </r>
       <r>    2.4581    1.0000 </r>
       <r>    2.6341    1.0000 </r>
       <r>    2.6466    1.0000 </r>
       <r>    2.7442    1.0000 </r>
       <r>    2.7595    1.0000 </r>
       <r>    2.8051    1.0000 </r>
       <r>    2.8876    1.0000 </r>
       <r>    3.3476    1.0000 </r>
       <r>    3.4302    1.0000 </r>
       <r>    3.4634    1.0000 </r>
       <r>    3.5431    1.0000 </r>
       <r>    3.5879    1.0000 </r>
       <r>    3.6102    1.0000 </r>
       <r>    4.5676    1.0000 </r>
       <r>    4.5930    1.0000 </r>
       <r>    4.6119    1.0000 </r>
       <r>    4.8140    1.0032 </r>
       <r>    4.8282    1.0042 </r>
       <r>    4.8581    1.0071 </r>
       <r>    5.0778    1.0175 </r>
       <r>    5.1297    0.9522 </r>
       <r>    5.2198    0.6877 </r>
       <r>    5.8756   -0.0001 </r>
       <r>    5.9017   -0.0000 </r>
       <r>    5.9557   -0.0000 </r>
       <r>    6.6919   -0.0000 </r>
       <r>    6.7137   -0.0000 </r>
       <r>    6.7241   -0.0000 </r>
       <r>    6.8618   -0.0000 </r>
       <r>    6.9173   -0.0000 </r>
       <r>    6.9667   -0.0000 </r>
       <r>    7.0114   -0.0000 </r>
       <r>    7.0526   -0.0000 </r>
       <r>    7.0927   -0.0000 </r>
       <r>    7.1603   -0.0000 </r>
       <r>    7.1701   -0.0000 </r>
       <r>    7.2011   -0.0000 </r>
       <r>    7.2962   -0.0000 </r>
       <r>    7.3743   -0.0000 </r>
       <r>    7.5364   -0.0000 </r>
       <r>    8.0839   -0.0000 </r>
       <r>    8.1458   -0.0000 </r>
       <r>    8.2738   -0.0000 </r>
      </set>
      <set comment="kpoint 117">
       <r>   -3.3734    1.0000 </r>
       <r>   -3.1598    1.0000 </r>
       <r>   -2.7568    1.0000 </r>
       <r>   -2.2133    1.0000 </r>
       <r>   -2.0441    1.0000 </r>
       <r>   -1.2003    1.0000 </r>
       <r>   -1.0448    1.0000 </r>
       <r>   -0.9230    1.0000 </r>
       <r>   -0.7875    1.0000 </r>
       <r>   -0.6209    1.0000 </r>
       <r>   -0.4699    1.0000 </r>
       <r>    0.3025    1.0000 </r>
       <r>    0.6165    1.0000 </r>
       <r>    0.7665    1.0000 </r>
       <r>    0.8944    1.0000 </r>
       <r>    1.1954    1.0000 </r>
       <r>    1.2178    1.0000 </r>
       <r>    1.3783    1.0000 </r>
       <r>    1.4367    1.0000 </r>
       <r>    1.5786    1.0000 </r>
       <r>    1.6289    1.0000 </r>
       <r>    1.8006    1.0000 </r>
       <r>    1.8441    1.0000 </r>
       <r>    2.0205    1.0000 </r>
       <r>    2.0622    1.0000 </r>
       <r>    2.7685    1.0000 </r>
       <r>    2.8758    1.0000 </r>
       <r>    3.0810    1.0000 </r>
       <r>    3.0969    1.0000 </r>
       <r>    3.3506    1.0000 </r>
       <r>    3.3862    1.0000 </r>
       <r>    3.7352    1.0000 </r>
       <r>    3.7514    1.0000 </r>
       <r>    4.1849    1.0000 </r>
       <r>    4.6217    1.0000 </r>
       <r>    4.7566    1.0009 </r>
       <r>    4.7893    1.0019 </r>
       <r>    4.9546    1.0252 </r>
       <r>    5.3774    0.0988 </r>
       <r>    5.4951   -0.0345 </r>
       <r>    5.5057   -0.0354 </r>
       <r>    5.5427   -0.0323 </r>
       <r>    5.6720   -0.0072 </r>
       <r>    5.8726   -0.0001 </r>
       <r>    5.8963   -0.0000 </r>
       <r>    6.0011   -0.0000 </r>
       <r>    6.0731   -0.0000 </r>
       <r>    6.1733   -0.0000 </r>
       <r>    6.6355   -0.0000 </r>
       <r>    6.6635   -0.0000 </r>
       <r>    6.7870   -0.0000 </r>
       <r>    6.7993   -0.0000 </r>
       <r>    6.9459   -0.0000 </r>
       <r>    7.0515   -0.0000 </r>
       <r>    7.1089   -0.0000 </r>
       <r>    7.2810   -0.0000 </r>
       <r>    7.3146   -0.0000 </r>
       <r>    7.3435   -0.0000 </r>
       <r>    7.5854   -0.0000 </r>
       <r>    7.6377   -0.0000 </r>
       <r>    8.1022   -0.0000 </r>
       <r>    8.3501   -0.0000 </r>
       <r>    8.3864   -0.0000 </r>
       <r>    8.4221   -0.0000 </r>
      </set>
      <set comment="kpoint 118">
       <r>   -3.3771    1.0000 </r>
       <r>   -3.1592    1.0000 </r>
       <r>   -2.7424    1.0000 </r>
       <r>   -2.2261    1.0000 </r>
       <r>   -2.0504    1.0000 </r>
       <r>   -1.1955    1.0000 </r>
       <r>   -1.0376    1.0000 </r>
       <r>   -0.9235    1.0000 </r>
       <r>   -0.7803    1.0000 </r>
       <r>   -0.6260    1.0000 </r>
       <r>   -0.4714    1.0000 </r>
       <r>    0.2903    1.0000 </r>
       <r>    0.5909    1.0000 </r>
       <r>    0.7759    1.0000 </r>
       <r>    0.9049    1.0000 </r>
       <r>    1.2070    1.0000 </r>
       <r>    1.2442    1.0000 </r>
       <r>    1.3672    1.0000 </r>
       <r>    1.4343    1.0000 </r>
       <r>    1.5521    1.0000 </r>
       <r>    1.6538    1.0000 </r>
       <r>    1.8230    1.0000 </r>
       <r>    1.8437    1.0000 </r>
       <r>    2.0212    1.0000 </r>
       <r>    2.0353    1.0000 </r>
       <r>    2.7682    1.0000 </r>
       <r>    2.8749    1.0000 </r>
       <r>    3.0770    1.0000 </r>
       <r>    3.0983    1.0000 </r>
       <r>    3.3445    1.0000 </r>
       <r>    3.3783    1.0000 </r>
       <r>    3.7431    1.0000 </r>
       <r>    3.7577    1.0000 </r>
       <r>    4.1815    1.0000 </r>
       <r>    4.6172    1.0000 </r>
       <r>    4.7204    1.0004 </r>
       <r>    4.8089    1.0029 </r>
       <r>    4.9772    1.0302 </r>
       <r>    5.3759    0.1026 </r>
       <r>    5.4713   -0.0279 </r>
       <r>    5.4860   -0.0328 </r>
       <r>    5.5543   -0.0300 </r>
       <r>    5.7003   -0.0044 </r>
       <r>    5.8802   -0.0001 </r>
       <r>    5.9027   -0.0000 </r>
       <r>    6.0184   -0.0000 </r>
       <r>    6.0766   -0.0000 </r>
       <r>    6.1664   -0.0000 </r>
       <r>    6.6294   -0.0000 </r>
       <r>    6.6581   -0.0000 </r>
       <r>    6.7696   -0.0000 </r>
       <r>    6.8007   -0.0000 </r>
       <r>    6.9310   -0.0000 </r>
       <r>    7.0361   -0.0000 </r>
       <r>    7.1324   -0.0000 </r>
       <r>    7.2628   -0.0000 </r>
       <r>    7.3302   -0.0000 </r>
       <r>    7.3586   -0.0000 </r>
       <r>    7.5866   -0.0000 </r>
       <r>    7.6418   -0.0000 </r>
       <r>    8.1132   -0.0000 </r>
       <r>    8.3291   -0.0000 </r>
       <r>    8.3747   -0.0000 </r>
       <r>    8.4173   -0.0000 </r>
      </set>
      <set comment="kpoint 119">
       <r>   -3.3717    1.0000 </r>
       <r>   -3.1637    1.0000 </r>
       <r>   -2.7555    1.0000 </r>
       <r>   -2.1551    1.0000 </r>
       <r>   -2.1107    1.0000 </r>
       <r>   -1.1545    1.0000 </r>
       <r>   -1.1042    1.0000 </r>
       <r>   -0.9136    1.0000 </r>
       <r>   -0.7188    1.0000 </r>
       <r>   -0.6661    1.0000 </r>
       <r>   -0.4848    1.0000 </r>
       <r>    0.2962    1.0000 </r>
       <r>    0.6726    1.0000 </r>
       <r>    0.7104    1.0000 </r>
       <r>    0.8986    1.0000 </r>
       <r>    1.1937    1.0000 </r>
       <r>    1.2787    1.0000 </r>
       <r>    1.3196    1.0000 </r>
       <r>    1.4835    1.0000 </r>
       <r>    1.5315    1.0000 </r>
       <r>    1.7037    1.0000 </r>
       <r>    1.7436    1.0000 </r>
       <r>    1.8964    1.0000 </r>
       <r>    1.9480    1.0000 </r>
       <r>    2.0534    1.0000 </r>
       <r>    2.7661    1.0000 </r>
       <r>    2.8735    1.0000 </r>
       <r>    3.0925    1.0000 </r>
       <r>    3.1005    1.0000 </r>
       <r>    3.3573    1.0000 </r>
       <r>    3.3720    1.0000 </r>
       <r>    3.7384    1.0000 </r>
       <r>    3.7573    1.0000 </r>
       <r>    4.1890    1.0000 </r>
       <r>    4.6496    1.0001 </r>
       <r>    4.7297    1.0005 </r>
       <r>    4.8628    1.0077 </r>
       <r>    4.8839    1.0106 </r>
       <r>    5.4389   -0.0053 </r>
       <r>    5.4629   -0.0238 </r>
       <r>    5.4864   -0.0329 </r>
       <r>    5.5177   -0.0353 </r>
       <r>    5.6848   -0.0058 </r>
       <r>    5.8733   -0.0001 </r>
       <r>    5.8867   -0.0001 </r>
       <r>    6.0487   -0.0000 </r>
       <r>    6.0832   -0.0000 </r>
       <r>    6.1234   -0.0000 </r>
       <r>    6.6466   -0.0000 </r>
       <r>    6.6580   -0.0000 </r>
       <r>    6.7926   -0.0000 </r>
       <r>    6.8465   -0.0000 </r>
       <r>    6.8791   -0.0000 </r>
       <r>    7.0595   -0.0000 </r>
       <r>    7.1737   -0.0000 </r>
       <r>    7.2407   -0.0000 </r>
       <r>    7.2955   -0.0000 </r>
       <r>    7.3259   -0.0000 </r>
       <r>    7.5971   -0.0000 </r>
       <r>    7.6297   -0.0000 </r>
       <r>    8.1001   -0.0000 </r>
       <r>    8.3605   -0.0000 </r>
       <r>    8.3810   -0.0000 </r>
       <r>    8.4736   -0.0000 </r>
      </set>
      <set comment="kpoint 120">
       <r>   -3.3744    1.0000 </r>
       <r>   -3.1602    1.0000 </r>
       <r>   -2.7564    1.0000 </r>
       <r>   -2.1849    1.0000 </r>
       <r>   -2.0721    1.0000 </r>
       <r>   -1.1874    1.0000 </r>
       <r>   -1.0809    1.0000 </r>
       <r>   -0.8979    1.0000 </r>
       <r>   -0.7540    1.0000 </r>
       <r>   -0.6826    1.0000 </r>
       <r>   -0.4525    1.0000 </r>
       <r>    0.3099    1.0000 </r>
       <r>    0.6437    1.0000 </r>
       <r>    0.7411    1.0000 </r>
       <r>    0.9010    1.0000 </r>
       <r>    1.1918    1.0000 </r>
       <r>    1.2602    1.0000 </r>
       <r>    1.3365    1.0000 </r>
       <r>    1.4556    1.0000 </r>
       <r>    1.5491    1.0000 </r>
       <r>    1.6646    1.0000 </r>
       <r>    1.7564    1.0000 </r>
       <r>    1.8769    1.0000 </r>
       <r>    1.9866    1.0000 </r>
       <r>    2.0716    1.0000 </r>
       <r>    2.7806    1.0000 </r>
       <r>    2.8688    1.0000 </r>
       <r>    3.0831    1.0000 </r>
       <r>    3.1007    1.0000 </r>
       <r>    3.3503    1.0000 </r>
       <r>    3.3714    1.0000 </r>
       <r>    3.7377    1.0000 </r>
       <r>    3.7505    1.0000 </r>
       <r>    4.1871    1.0000 </r>
       <r>    4.6488    1.0001 </r>
       <r>    4.7382    1.0006 </r>
       <r>    4.8104    1.0030 </r>
       <r>    4.9194    1.0173 </r>
       <r>    5.4155    0.0237 </r>
       <r>    5.4894   -0.0335 </r>
       <r>    5.5055   -0.0354 </r>
       <r>    5.5170   -0.0353 </r>
       <r>    5.6917   -0.0051 </r>
       <r>    5.8700   -0.0001 </r>
       <r>    5.8849   -0.0001 </r>
       <r>    6.0232   -0.0000 </r>
       <r>    6.0623   -0.0000 </r>
       <r>    6.1551   -0.0000 </r>
       <r>    6.6482   -0.0000 </r>
       <r>    6.6628   -0.0000 </r>
       <r>    6.7868   -0.0000 </r>
       <r>    6.8208   -0.0000 </r>
       <r>    6.9181   -0.0000 </r>
       <r>    7.0648   -0.0000 </r>
       <r>    7.1501   -0.0000 </r>
       <r>    7.2672   -0.0000 </r>
       <r>    7.2923   -0.0000 </r>
       <r>    7.3126   -0.0000 </r>
       <r>    7.5928   -0.0000 </r>
       <r>    7.6301   -0.0000 </r>
       <r>    8.1174   -0.0000 </r>
       <r>    8.3533   -0.0000 </r>
       <r>    8.3846   -0.0000 </r>
       <r>    8.4426   -0.0000 </r>
      </set>
      <set comment="kpoint 121">
       <r>   -3.3745    1.0000 </r>
       <r>   -3.1592    1.0000 </r>
       <r>   -2.7554    1.0000 </r>
       <r>   -2.2126    1.0000 </r>
       <r>   -2.0428    1.0000 </r>
       <r>   -1.2076    1.0000 </r>
       <r>   -1.0547    1.0000 </r>
       <r>   -0.9125    1.0000 </r>
       <r>   -0.7911    1.0000 </r>
       <r>   -0.6135    1.0000 </r>
       <r>   -0.4720    1.0000 </r>
       <r>    0.3037    1.0000 </r>
       <r>    0.6200    1.0000 </r>
       <r>    0.7675    1.0000 </r>
       <r>    0.9040    1.0000 </r>
       <r>    1.1787    1.0000 </r>
       <r>    1.2652    1.0000 </r>
       <r>    1.3488    1.0000 </r>
       <r>    1.4102    1.0000 </r>
       <r>    1.5761    1.0000 </r>
       <r>    1.6363    1.0000 </r>
       <r>    1.7992    1.0000 </r>
       <r>    1.8495    1.0000 </r>
       <r>    2.0022    1.0000 </r>
       <r>    2.0818    1.0000 </r>
       <r>    2.7745    1.0000 </r>
       <r>    2.8705    1.0000 </r>
       <r>    3.0822    1.0000 </r>
       <r>    3.0988    1.0000 </r>
       <r>    3.3533    1.0000 </r>
       <r>    3.3855    1.0000 </r>
       <r>    3.7345    1.0000 </r>
       <r>    3.7519    1.0000 </r>
       <r>    4.1837    1.0000 </r>
       <r>    4.5974    1.0000 </r>
       <r>    4.7485    1.0008 </r>
       <r>    4.7989    1.0024 </r>
       <r>    4.9627    1.0270 </r>
       <r>    5.3841    0.0830 </r>
       <r>    5.4790   -0.0308 </r>
       <r>    5.5011   -0.0351 </r>
       <r>    5.5523   -0.0304 </r>
       <r>    5.7042   -0.0041 </r>
       <r>    5.8747   -0.0001 </r>
       <r>    5.8997   -0.0000 </r>
       <r>    5.9918   -0.0000 </r>
       <r>    6.0790   -0.0000 </r>
       <r>    6.1664   -0.0000 </r>
       <r>    6.6375   -0.0000 </r>
       <r>    6.6575   -0.0000 </r>
       <r>    6.7818   -0.0000 </r>
       <r>    6.7893   -0.0000 </r>
       <r>    6.9595   -0.0000 </r>
       <r>    7.0329   -0.0000 </r>
       <r>    7.1280   -0.0000 </r>
       <r>    7.2906   -0.0000 </r>
       <r>    7.3072   -0.0000 </r>
       <r>    7.3416   -0.0000 </r>
       <r>    7.5746   -0.0000 </r>
       <r>    7.6440   -0.0000 </r>
       <r>    8.1128   -0.0000 </r>
       <r>    8.3531   -0.0000 </r>
       <r>    8.3786   -0.0000 </r>
       <r>    8.4006   -0.0000 </r>
      </set>
      <set comment="kpoint 122">
       <r>   -3.3786    1.0000 </r>
       <r>   -3.1594    1.0000 </r>
       <r>   -2.7400    1.0000 </r>
       <r>   -2.1690    1.0000 </r>
       <r>   -2.1154    1.0000 </r>
       <r>   -1.1397    1.0000 </r>
       <r>   -1.1207    1.0000 </r>
       <r>   -0.9061    1.0000 </r>
       <r>   -0.7303    1.0000 </r>
       <r>   -0.6597    1.0000 </r>
       <r>   -0.4795    1.0000 </r>
       <r>    0.2950    1.0000 </r>
       <r>    0.6684    1.0000 </r>
       <r>    0.6982    1.0000 </r>
       <r>    0.9167    1.0000 </r>
       <r>    1.2084    1.0000 </r>
       <r>    1.2917    1.0000 </r>
       <r>    1.3293    1.0000 </r>
       <r>    1.4540    1.0000 </r>
       <r>    1.5092    1.0000 </r>
       <r>    1.7099    1.0000 </r>
       <r>    1.7492    1.0000 </r>
       <r>    1.8922    1.0000 </r>
       <r>    1.9722    1.0000 </r>
       <r>    2.0463    1.0000 </r>
       <r>    2.7642    1.0000 </r>
       <r>    2.8772    1.0000 </r>
       <r>    3.0879    1.0000 </r>
       <r>    3.0940    1.0000 </r>
       <r>    3.3467    1.0000 </r>
       <r>    3.3665    1.0000 </r>
       <r>    3.7481    1.0000 </r>
       <r>    3.7592    1.0000 </r>
       <r>    4.1796    1.0000 </r>
       <r>    4.6380    1.0000 </r>
       <r>    4.7237    1.0004 </r>
       <r>    4.8589    1.0072 </r>
       <r>    4.9057    1.0145 </r>
       <r>    5.4142    0.0257 </r>
       <r>    5.4695   -0.0271 </r>
       <r>    5.4891   -0.0335 </r>
       <r>    5.5195   -0.0352 </r>
       <r>    5.7013   -0.0043 </r>
       <r>    5.8842   -0.0001 </r>
       <r>    5.9041   -0.0000 </r>
       <r>    6.0584   -0.0000 </r>
       <r>    6.0808   -0.0000 </r>
       <r>    6.1228   -0.0000 </r>
       <r>    6.6385   -0.0000 </r>
       <r>    6.6481   -0.0000 </r>
       <r>    6.7918   -0.0000 </r>
       <r>    6.8338   -0.0000 </r>
       <r>    6.9102   -0.0000 </r>
       <r>    7.0533   -0.0000 </r>
       <r>    7.1767   -0.0000 </r>
       <r>    7.2317   -0.0000 </r>
       <r>    7.2884   -0.0000 </r>
       <r>    7.3275   -0.0000 </r>
       <r>    7.6017   -0.0000 </r>
       <r>    7.6225   -0.0000 </r>
       <r>    8.1044   -0.0000 </r>
       <r>    8.3448   -0.0000 </r>
       <r>    8.3611   -0.0000 </r>
       <r>    8.4514   -0.0000 </r>
      </set>
      <set comment="kpoint 123">
       <r>   -3.3756    1.0000 </r>
       <r>   -3.1632    1.0000 </r>
       <r>   -2.7435    1.0000 </r>
       <r>   -2.1908    1.0000 </r>
       <r>   -2.0825    1.0000 </r>
       <r>   -1.1750    1.0000 </r>
       <r>   -1.0704    1.0000 </r>
       <r>   -0.9006    1.0000 </r>
       <r>   -0.7753    1.0000 </r>
       <r>   -0.6474    1.0000 </r>
       <r>   -0.4822    1.0000 </r>
       <r>    0.2990    1.0000 </r>
       <r>    0.6363    1.0000 </r>
       <r>    0.7481    1.0000 </r>
       <r>    0.8953    1.0000 </r>
       <r>    1.1924    1.0000 </r>
       <r>    1.2620    1.0000 </r>
       <r>    1.3537    1.0000 </r>
       <r>    1.4766    1.0000 </r>
       <r>    1.5491    1.0000 </r>
       <r>    1.6626    1.0000 </r>
       <r>    1.7669    1.0000 </r>
       <r>    1.8737    1.0000 </r>
       <r>    1.9883    1.0000 </r>
       <r>    2.0562    1.0000 </r>
       <r>    2.7746    1.0000 </r>
       <r>    2.8768    1.0000 </r>
       <r>    3.0779    1.0000 </r>
       <r>    3.0932    1.0000 </r>
       <r>    3.3491    1.0000 </r>
       <r>    3.3625    1.0000 </r>
       <r>    3.7424    1.0000 </r>
       <r>    3.7571    1.0000 </r>
       <r>    4.1787    1.0000 </r>
       <r>    4.6446    1.0001 </r>
       <r>    4.7448    1.0007 </r>
       <r>    4.8085    1.0029 </r>
       <r>    4.9150    1.0163 </r>
       <r>    5.3951    0.0595 </r>
       <r>    5.4832   -0.0321 </r>
       <r>    5.4873   -0.0331 </r>
       <r>    5.5367   -0.0332 </r>
       <r>    5.7012   -0.0043 </r>
       <r>    5.8829   -0.0001 </r>
       <r>    5.9060   -0.0000 </r>
       <r>    6.0329   -0.0000 </r>
       <r>    6.0850   -0.0000 </r>
       <r>    6.1371   -0.0000 </r>
       <r>    6.6365   -0.0000 </r>
       <r>    6.6498   -0.0000 </r>
       <r>    6.7795   -0.0000 </r>
       <r>    6.8073   -0.0000 </r>
       <r>    6.9243   -0.0000 </r>
       <r>    7.0602   -0.0000 </r>
       <r>    7.1662   -0.0000 </r>
       <r>    7.2625   -0.0000 </r>
       <r>    7.2917   -0.0000 </r>
       <r>    7.3223   -0.0000 </r>
       <r>    7.5924   -0.0000 </r>
       <r>    7.6375   -0.0000 </r>
       <r>    8.1086   -0.0000 </r>
       <r>    8.3394   -0.0000 </r>
       <r>    8.3875   -0.0000 </r>
       <r>    8.4482   -0.0000 </r>
      </set>
      <set comment="kpoint 124">
       <r>   -3.3715    1.0000 </r>
       <r>   -3.1660    1.0000 </r>
       <r>   -2.7531    1.0000 </r>
       <r>   -2.1848    1.0000 </r>
       <r>   -2.0719    1.0000 </r>
       <r>   -1.1717    1.0000 </r>
       <r>   -1.0902    1.0000 </r>
       <r>   -0.9298    1.0000 </r>
       <r>   -0.7306    1.0000 </r>
       <r>   -0.6732    1.0000 </r>
       <r>   -0.4583    1.0000 </r>
       <r>    0.3075    1.0000 </r>
       <r>    0.6299    1.0000 </r>
       <r>    0.7408    1.0000 </r>
       <r>    0.9062    1.0000 </r>
       <r>    1.1945    1.0000 </r>
       <r>    1.2669    1.0000 </r>
       <r>    1.3503    1.0000 </r>
       <r>    1.4385    1.0000 </r>
       <r>    1.5474    1.0000 </r>
       <r>    1.6670    1.0000 </r>
       <r>    1.7660    1.0000 </r>
       <r>    1.8833    1.0000 </r>
       <r>    1.9810    1.0000 </r>
       <r>    2.0732    1.0000 </r>
       <r>    2.7659    1.0000 </r>
       <r>    2.8693    1.0000 </r>
       <r>    3.0868    1.0000 </r>
       <r>    3.0995    1.0000 </r>
       <r>    3.3524    1.0000 </r>
       <r>    3.3700    1.0000 </r>
       <r>    3.7356    1.0000 </r>
       <r>    3.7516    1.0000 </r>
       <r>    4.1930    1.0000 </r>
       <r>    4.6423    1.0000 </r>
       <r>    4.7493    1.0008 </r>
       <r>    4.8061    1.0027 </r>
       <r>    4.9102    1.0154 </r>
       <r>    5.4211    0.0158 </r>
       <r>    5.4813   -0.0315 </r>
       <r>    5.5023   -0.0352 </r>
       <r>    5.5233   -0.0349 </r>
       <r>    5.6917   -0.0051 </r>
       <r>    5.8752   -0.0001 </r>
       <r>    5.8887   -0.0000 </r>
       <r>    6.0196   -0.0000 </r>
       <r>    6.0647   -0.0000 </r>
       <r>    6.1544   -0.0000 </r>
       <r>    6.6425   -0.0000 </r>
       <r>    6.6615   -0.0000 </r>
       <r>    6.7928   -0.0000 </r>
       <r>    6.8172   -0.0000 </r>
       <r>    6.9024   -0.0000 </r>
       <r>    7.0633   -0.0000 </r>
       <r>    7.1629   -0.0000 </r>
       <r>    7.2658   -0.0000 </r>
       <r>    7.2865   -0.0000 </r>
       <r>    7.3361   -0.0000 </r>
       <r>    7.5896   -0.0000 </r>
       <r>    7.6358   -0.0000 </r>
       <r>    8.1139   -0.0000 </r>
       <r>    8.3377   -0.0000 </r>
       <r>    8.3792   -0.0000 </r>
       <r>    8.4328   -0.0000 </r>
      </set>
      <set comment="kpoint 125">
       <r>   -3.3699    1.0000 </r>
       <r>   -3.1690    1.0000 </r>
       <r>   -2.7507    1.0000 </r>
       <r>   -2.1551    1.0000 </r>
       <r>   -2.1090    1.0000 </r>
       <r>   -1.1445    1.0000 </r>
       <r>   -1.1188    1.0000 </r>
       <r>   -0.9290    1.0000 </r>
       <r>   -0.7088    1.0000 </r>
       <r>   -0.6554    1.0000 </r>
       <r>   -0.4927    1.0000 </r>
       <r>    0.3091    1.0000 </r>
       <r>    0.6552    1.0000 </r>
       <r>    0.7125    1.0000 </r>
       <r>    0.9003    1.0000 </r>
       <r>    1.2003    1.0000 </r>
       <r>    1.2959    1.0000 </r>
       <r>    1.3248    1.0000 </r>
       <r>    1.4590    1.0000 </r>
       <r>    1.5258    1.0000 </r>
       <r>    1.7179    1.0000 </r>
       <r>    1.7369    1.0000 </r>
       <r>    1.8978    1.0000 </r>
       <r>    1.9528    1.0000 </r>
       <r>    2.0487    1.0000 </r>
       <r>    2.7628    1.0000 </r>
       <r>    2.8751    1.0000 </r>
       <r>    3.0888    1.0000 </r>
       <r>    3.1044    1.0000 </r>
       <r>    3.3555    1.0000 </r>
       <r>    3.3731    1.0000 </r>
       <r>    3.7398    1.0000 </r>
       <r>    3.7570    1.0000 </r>
       <r>    4.1895    1.0000 </r>
       <r>    4.6470    1.0001 </r>
       <r>    4.7102    1.0003 </r>
       <r>    4.8557    1.0068 </r>
       <r>    4.8933    1.0122 </r>
       <r>    5.4298    0.0046 </r>
       <r>    5.4670   -0.0259 </r>
       <r>    5.4896   -0.0335 </r>
       <r>    5.5245   -0.0348 </r>
       <r>    5.7084   -0.0038 </r>
       <r>    5.8759   -0.0001 </r>
       <r>    5.8929   -0.0000 </r>
       <r>    6.0356   -0.0000 </r>
       <r>    6.0888   -0.0000 </r>
       <r>    6.1198   -0.0000 </r>
       <r>    6.6461   -0.0000 </r>
       <r>    6.6558   -0.0000 </r>
       <r>    6.7841   -0.0000 </r>
       <r>    6.8421   -0.0000 </r>
       <r>    6.8858   -0.0000 </r>
       <r>    7.0480   -0.0000 </r>
       <r>    7.1836   -0.0000 </r>
       <r>    7.2411   -0.0000 </r>
       <r>    7.2976   -0.0000 </r>
       <r>    7.3323   -0.0000 </r>
       <r>    7.5969   -0.0000 </r>
       <r>    7.6273   -0.0000 </r>
       <r>    8.1094   -0.0000 </r>
       <r>    8.3479   -0.0000 </r>
       <r>    8.3631   -0.0000 </r>
       <r>    8.4697   -0.0000 </r>
      </set>
      <set comment="kpoint 126">
       <r>   -3.3886    1.0000 </r>
       <r>   -3.1393    1.0000 </r>
       <r>   -2.7502    1.0000 </r>
       <r>   -2.2235    1.0000 </r>
       <r>   -2.0508    1.0000 </r>
       <r>   -1.2155    1.0000 </r>
       <r>   -1.0289    1.0000 </r>
       <r>   -0.9104    1.0000 </r>
       <r>   -0.7741    1.0000 </r>
       <r>   -0.6326    1.0000 </r>
       <r>   -0.4922    1.0000 </r>
       <r>    0.3102    1.0000 </r>
       <r>    0.6259    1.0000 </r>
       <r>    0.7617    1.0000 </r>
       <r>    0.8917    1.0000 </r>
       <r>    1.1889    1.0000 </r>
       <r>    1.2364    1.0000 </r>
       <r>    1.3621    1.0000 </r>
       <r>    1.4218    1.0000 </r>
       <r>    1.5880    1.0000 </r>
       <r>    1.6720    1.0000 </r>
       <r>    1.8035    1.0000 </r>
       <r>    1.8472    1.0000 </r>
       <r>    2.0153    1.0000 </r>
       <r>    2.0497    1.0000 </r>
       <r>    2.7555    1.0000 </r>
       <r>    2.8740    1.0000 </r>
       <r>    3.0708    1.0000 </r>
       <r>    3.0863    1.0000 </r>
       <r>    3.3651    1.0000 </r>
       <r>    3.3841    1.0000 </r>
       <r>    3.7354    1.0000 </r>
       <r>    3.7542    1.0000 </r>
       <r>    4.1831    1.0000 </r>
       <r>    4.5673    1.0000 </r>
       <r>    4.7756    1.0014 </r>
       <r>    4.8157    1.0033 </r>
       <r>    4.9512    1.0244 </r>
       <r>    5.3895    0.0710 </r>
       <r>    5.4839   -0.0322 </r>
       <r>    5.5025   -0.0352 </r>
       <r>    5.5482   -0.0313 </r>
       <r>    5.6893   -0.0053 </r>
       <r>    5.8689   -0.0001 </r>
       <r>    5.8903   -0.0000 </r>
       <r>    6.0063   -0.0000 </r>
       <r>    6.0791   -0.0000 </r>
       <r>    6.1756   -0.0000 </r>
       <r>    6.6406   -0.0000 </r>
       <r>    6.6609   -0.0000 </r>
       <r>    6.7627   -0.0000 </r>
       <r>    6.8008   -0.0000 </r>
       <r>    6.9352   -0.0000 </r>
       <r>    7.0642   -0.0000 </r>
       <r>    7.1180   -0.0000 </r>
       <r>    7.2736   -0.0000 </r>
       <r>    7.3149   -0.0000 </r>
       <r>    7.3430   -0.0000 </r>
       <r>    7.5855   -0.0000 </r>
       <r>    7.6443   -0.0000 </r>
       <r>    8.1155   -0.0000 </r>
       <r>    8.3443   -0.0000 </r>
       <r>    8.3856   -0.0000 </r>
       <r>    8.4168   -0.0000 </r>
      </set>
      <set comment="kpoint 127">
       <r>   -3.3888    1.0000 </r>
       <r>   -3.1378    1.0000 </r>
       <r>   -2.7570    1.0000 </r>
       <r>   -2.1889    1.0000 </r>
       <r>   -2.0825    1.0000 </r>
       <r>   -1.1782    1.0000 </r>
       <r>   -1.0664    1.0000 </r>
       <r>   -0.9261    1.0000 </r>
       <r>   -0.7542    1.0000 </r>
       <r>   -0.6443    1.0000 </r>
       <r>   -0.4814    1.0000 </r>
       <r>    0.2959    1.0000 </r>
       <r>    0.6335    1.0000 </r>
       <r>    0.7391    1.0000 </r>
       <r>    0.9218    1.0000 </r>
       <r>    1.2035    1.0000 </r>
       <r>    1.2701    1.0000 </r>
       <r>    1.3532    1.0000 </r>
       <r>    1.4282    1.0000 </r>
       <r>    1.5306    1.0000 </r>
       <r>    1.6870    1.0000 </r>
       <r>    1.7897    1.0000 </r>
       <r>    1.8712    1.0000 </r>
       <r>    1.9796    1.0000 </r>
       <r>    2.0595    1.0000 </r>
       <r>    2.7694    1.0000 </r>
       <r>    2.8799    1.0000 </r>
       <r>    3.0717    1.0000 </r>
       <r>    3.0786    1.0000 </r>
       <r>    3.3719    1.0000 </r>
       <r>    3.3849    1.0000 </r>
       <r>    3.7287    1.0000 </r>
       <r>    3.7431    1.0000 </r>
       <r>    4.1793    1.0000 </r>
       <r>    4.6052    1.0000 </r>
       <r>    4.7392    1.0006 </r>
       <r>    4.8437    1.0055 </r>
       <r>    4.9289    1.0193 </r>
       <r>    5.4114    0.0301 </r>
       <r>    5.4851   -0.0325 </r>
       <r>    5.4951   -0.0345 </r>
       <r>    5.5348   -0.0335 </r>
       <r>    5.6960   -0.0047 </r>
       <r>    5.8702   -0.0001 </r>
       <r>    5.8864   -0.0001 </r>
       <r>    6.0191   -0.0000 </r>
       <r>    6.0874   -0.0000 </r>
       <r>    6.1361   -0.0000 </r>
       <r>    6.6371   -0.0000 </r>
       <r>    6.6573   -0.0000 </r>
       <r>    6.7635   -0.0000 </r>
       <r>    6.8113   -0.0000 </r>
       <r>    6.9298   -0.0000 </r>
       <r>    7.0577   -0.0000 </r>
       <r>    7.1788   -0.0000 </r>
       <r>    7.2670   -0.0000 </r>
       <r>    7.3126   -0.0000 </r>
       <r>    7.3299   -0.0000 </r>
       <r>    7.5829   -0.0000 </r>
       <r>    7.6315   -0.0000 </r>
       <r>    8.1216   -0.0000 </r>
       <r>    8.3469   -0.0000 </r>
       <r>    8.3853   -0.0000 </r>
       <r>    8.4499   -0.0000 </r>
      </set>
      <set comment="kpoint 128">
       <r>   -3.3891    1.0000 </r>
       <r>   -3.1401    1.0000 </r>
       <r>   -2.7492    1.0000 </r>
       <r>   -2.1688    1.0000 </r>
       <r>   -2.1149    1.0000 </r>
       <r>   -1.1406    1.0000 </r>
       <r>   -1.1178    1.0000 </r>
       <r>   -0.9137    1.0000 </r>
       <r>   -0.7258    1.0000 </r>
       <r>   -0.6548    1.0000 </r>
       <r>   -0.4907    1.0000 </r>
       <r>    0.3088    1.0000 </r>
       <r>    0.6591    1.0000 </r>
       <r>    0.7007    1.0000 </r>
       <r>    0.9099    1.0000 </r>
       <r>    1.2125    1.0000 </r>
       <r>    1.2892    1.0000 </r>
       <r>    1.3370    1.0000 </r>
       <r>    1.4482    1.0000 </r>
       <r>    1.5155    1.0000 </r>
       <r>    1.6989    1.0000 </r>
       <r>    1.7738    1.0000 </r>
       <r>    1.8979    1.0000 </r>
       <r>    1.9578    1.0000 </r>
       <r>    2.0490    1.0000 </r>
       <r>    2.7494    1.0000 </r>
       <r>    2.8859    1.0000 </r>
       <r>    3.0691    1.0000 </r>
       <r>    3.0859    1.0000 </r>
       <r>    3.3685    1.0000 </r>
       <r>    3.3801    1.0000 </r>
       <r>    3.7378    1.0000 </r>
       <r>    3.7524    1.0000 </r>
       <r>    4.1828    1.0000 </r>
       <r>    4.6389    1.0000 </r>
       <r>    4.7200    1.0004 </r>
       <r>    4.8564    1.0069 </r>
       <r>    4.9088    1.0151 </r>
       <r>    5.4353   -0.0016 </r>
       <r>    5.4800   -0.0311 </r>
       <r>    5.4919   -0.0340 </r>
       <r>    5.5145   -0.0354 </r>
       <r>    5.6836   -0.0059 </r>
       <r>    5.8650   -0.0001 </r>
       <r>    5.8803   -0.0001 </r>
       <r>    6.0550   -0.0000 </r>
       <r>    6.0955   -0.0000 </r>
       <r>    6.1189   -0.0000 </r>
       <r>    6.6499   -0.0000 </r>
       <r>    6.6591   -0.0000 </r>
       <r>    6.7986   -0.0000 </r>
       <r>    6.8241   -0.0000 </r>
       <r>    6.9041   -0.0000 </r>
       <r>    7.0704   -0.0000 </r>
       <r>    7.1821   -0.0000 </r>
       <r>    7.2509   -0.0000 </r>
       <r>    7.2871   -0.0000 </r>
       <r>    7.3003   -0.0000 </r>
       <r>    7.5953   -0.0000 </r>
       <r>    7.6295   -0.0000 </r>
       <r>    8.1032   -0.0000 </r>
       <r>    8.3438   -0.0000 </r>
       <r>    8.3715   -0.0000 </r>
       <r>    8.4547   -0.0000 </r>
      </set>
     </set>
    </set>
   </array>
  </eigenvalues>
  <separator name="orbital magnetization" >
   <v name="MAGDIPOLOUT">      0.00000000      0.00000000      0.00000000</v>
  </separator>
  <dos>
   <i name="efermi">      5.26543562 </i>
   <total>
    <array>
     <dimension dim="1">gridpoints</dimension>
     <dimension dim="2">spin</dimension>
     <field>energy</field>
     <field>total</field>
     <field>integrated</field>
     <set>
      <set comment="spin 1">
       <r>    -5.9846     0.0000     0.0000 </r>
       <r>    -5.9263     0.0000     0.0000 </r>
       <r>    -5.8680     0.0000     0.0000 </r>
       <r>    -5.8097     0.0000     0.0000 </r>
       <r>    -5.7514     0.0000     0.0000 </r>
       <r>    -5.6931     0.0000     0.0000 </r>
       <r>    -5.6348    -0.0000    -0.0000 </r>
       <r>    -5.5766    -0.0000    -0.0000 </r>
       <r>    -5.5183    -0.0000    -0.0000 </r>
       <r>    -5.4600    -0.0000    -0.0000 </r>
       <r>    -5.4017    -0.0000    -0.0000 </r>
       <r>    -5.3434    -0.0000    -0.0000 </r>
       <r>    -5.2851    -0.0000    -0.0000 </r>
       <r>    -5.2268    -0.0000    -0.0000 </r>
       <r>    -5.1685    -0.0000    -0.0000 </r>
       <r>    -5.1102    -0.0000    -0.0000 </r>
       <r>    -5.0519    -0.0000    -0.0000 </r>
       <r>    -4.9936    -0.0000    -0.0000 </r>
       <r>    -4.9353    -0.0000    -0.0000 </r>
       <r>    -4.8770    -0.0000    -0.0000 </r>
       <r>    -4.8187    -0.0000    -0.0000 </r>
       <r>    -4.7604    -0.0000    -0.0000 </r>
       <r>    -4.7021    -0.0000    -0.0000 </r>
       <r>    -4.6439    -0.0000    -0.0000 </r>
       <r>    -4.5856    -0.0001    -0.0000 </r>
       <r>    -4.5273    -0.0004    -0.0000 </r>
       <r>    -4.4690    -0.0017    -0.0001 </r>
       <r>    -4.4107    -0.0053    -0.0004 </r>
       <r>    -4.3524    -0.0141    -0.0013 </r>
       <r>    -4.2941    -0.0297    -0.0030 </r>
       <r>    -4.2358    -0.0476    -0.0058 </r>
       <r>    -4.1775    -0.0481    -0.0086 </r>
       <r>    -4.1192     0.0075    -0.0081 </r>
       <r>    -4.0609     0.1644     0.0015 </r>
       <r>    -4.0026     0.4449     0.0274 </r>
       <r>    -3.9443     0.8230     0.0754 </r>
       <r>    -3.8860     1.2335     0.1473 </r>
       <r>    -3.8277     1.6185     0.2416 </r>
       <r>    -3.7695     1.9651     0.3562 </r>
       <r>    -3.7112     2.2875     0.4895 </r>
       <r>    -3.6529     2.5731     0.6395 </r>
       <r>    -3.5946     2.7743     0.8012 </r>
       <r>    -3.5363     2.8799     0.9691 </r>
       <r>    -3.4780     2.9743     1.1425 </r>
       <r>    -3.4197     3.1721     1.3274 </r>
       <r>    -3.3614     3.4695     1.5297 </r>
       <r>    -3.3031     3.7075     1.7458 </r>
       <r>    -3.2448     3.7364     1.9636 </r>
       <r>    -3.1865     3.6102     2.1740 </r>
       <r>    -3.1282     3.5586     2.3815 </r>
       <r>    -3.0699     3.7459     2.5998 </r>
       <r>    -3.0116     4.0994     2.8388 </r>
       <r>    -2.9533     4.4117     3.0960 </r>
       <r>    -2.8950     4.5782     3.3629 </r>
       <r>    -2.8368     4.6767     3.6355 </r>
       <r>    -2.7785     4.8162     3.9162 </r>
       <r>    -2.7202     4.9708     4.2060 </r>
       <r>    -2.6619     5.0077     4.4979 </r>
       <r>    -2.6036     4.8679     4.7817 </r>
       <r>    -2.5453     4.6899     5.0551 </r>
       <r>    -2.4870     4.7303     5.3308 </r>
       <r>    -2.4287     5.1325     5.6300 </r>
       <r>    -2.3704     5.7578     5.9657 </r>
       <r>    -2.3121     6.2614     6.3307 </r>
       <r>    -2.2538     6.3651     6.7017 </r>
       <r>    -2.1955     6.0579     7.0548 </r>
       <r>    -2.1372     5.5481     7.3783 </r>
       <r>    -2.0789     5.0919     7.6751 </r>
       <r>    -2.0206     4.9096     7.9613 </r>
       <r>    -1.9624     5.1689     8.2626 </r>
       <r>    -1.9041     5.8804     8.6054 </r>
       <r>    -1.8458     6.7585     8.9994 </r>
       <r>    -1.7875     7.3172     9.4259 </r>
       <r>    -1.7292     7.2482     9.8484 </r>
       <r>    -1.6709     6.7207    10.2402 </r>
       <r>    -1.6126     6.2347    10.6036 </r>
       <r>    -1.5543     6.1509    10.9622 </r>
       <r>    -1.4960     6.3983    11.3352 </r>
       <r>    -1.4377     6.6563    11.7232 </r>
       <r>    -1.3794     6.7566    12.1171 </r>
       <r>    -1.3211     6.8170    12.5144 </r>
       <r>    -1.2628     6.9751    12.9210 </r>
       <r>    -1.2045     7.1139    13.3357 </r>
       <r>    -1.1462     6.9877    13.7431 </r>
       <r>    -1.0879     6.6136    14.1286 </r>
       <r>    -1.0297     6.4069    14.5021 </r>
       <r>    -0.9714     6.8211    14.8997 </r>
       <r>    -0.9131     7.8546    15.3576 </r>
       <r>    -0.8548     8.9591    15.8798 </r>
       <r>    -0.7965     9.4546    16.4310 </r>
       <r>    -0.7382     9.0511    16.9586 </r>
       <r>    -0.6799     8.0295    17.4267 </r>
       <r>    -0.6216     6.9872    17.8340 </r>
       <r>    -0.5633     6.4108    18.2077 </r>
       <r>    -0.5050     6.4190    18.5819 </r>
       <r>    -0.4467     6.8405    18.9806 </r>
       <r>    -0.3884     7.4745    19.4163 </r>
       <r>    -0.3301     8.2195    19.8955 </r>
       <r>    -0.2718     8.9689    20.4183 </r>
       <r>    -0.2135     9.5111    20.9728 </r>
       <r>    -0.1553     9.6524    21.5354 </r>
       <r>    -0.0970     9.4177    22.0844 </r>
       <r>    -0.0387     9.0385    22.6113 </r>
       <r>     0.0196     8.7267    23.1200 </r>
       <r>     0.0779     8.5257    23.6170 </r>
       <r>     0.1362     8.3971    24.1065 </r>
       <r>     0.1945     8.3559    24.5936 </r>
       <r>     0.2528     8.4304    25.0850 </r>
       <r>     0.3111     8.5444    25.5831 </r>
       <r>     0.3694     8.5741    26.0829 </r>
       <r>     0.4277     8.5489    26.5813 </r>
       <r>     0.4860     8.6865    27.0877 </r>
       <r>     0.5443     9.1345    27.6201 </r>
       <r>     0.6026     9.7126    28.1863 </r>
       <r>     0.6609    10.0148    28.7701 </r>
       <r>     0.7191     9.8298    29.3431 </r>
       <r>     0.7774     9.4251    29.8926 </r>
       <r>     0.8357     9.3170    30.4357 </r>
       <r>     0.8940     9.7139    31.0019 </r>
       <r>     0.9523    10.2620    31.6001 </r>
       <r>     1.0106    10.4581    32.2098 </r>
       <r>     1.0689    10.2868    32.8094 </r>
       <r>     1.1272    10.2706    33.4081 </r>
       <r>     1.1855    10.7872    34.0370 </r>
       <r>     1.2438    11.4727    34.7058 </r>
       <r>     1.3021    11.4919    35.3757 </r>
       <r>     1.3604    10.4274    35.9835 </r>
       <r>     1.4187     8.7776    36.4952 </r>
       <r>     1.4770     7.5268    36.9340 </r>
       <r>     1.5353     7.3226    37.3608 </r>
       <r>     1.5936     8.1214    37.8342 </r>
       <r>     1.6518     9.4606    38.3857 </r>
       <r>     1.7101    10.8340    39.0173 </r>
       <r>     1.7684    11.8226    39.7065 </r>
       <r>     1.8267    12.1437    40.4144 </r>
       <r>     1.8850    11.8048    41.1025 </r>
       <r>     1.9433    11.1796    41.7542 </r>
       <r>     2.0016    10.7599    42.3814 </r>
       <r>     2.0599    10.7258    43.0067 </r>
       <r>     2.1182    10.7978    43.6361 </r>
       <r>     2.1765    10.5730    44.2525 </r>
       <r>     2.2348     9.9686    44.8336 </r>
       <r>     2.2931     9.2793    45.3745 </r>
       <r>     2.3514     8.8691    45.8915 </r>
       <r>     2.4097     8.9088    46.4108 </r>
       <r>     2.4680     9.3700    46.9570 </r>
       <r>     2.5262    10.1468    47.5485 </r>
       <r>     2.5845    11.1429    48.1981 </r>
       <r>     2.6428    12.2580    48.9127 </r>
       <r>     2.7011    13.2724    49.6864 </r>
       <r>     2.7594    13.7798    50.4896 </r>
       <r>     2.8177    13.3868    51.2700 </r>
       <r>     2.8760    12.1168    51.9763 </r>
       <r>     2.9343    10.6164    52.5952 </r>
       <r>     2.9926     9.8227    53.1678 </r>
       <r>     3.0509    10.2584    53.7658 </r>
       <r>     3.1092    11.5884    54.4413 </r>
       <r>     3.1675    12.9150    55.1942 </r>
       <r>     3.2258    13.5187    55.9822 </r>
       <r>     3.2841    13.2664    56.7556 </r>
       <r>     3.3424    12.4203    57.4796 </r>
       <r>     3.4007    11.3386    58.1406 </r>
       <r>     3.4589    10.4590    58.7503 </r>
       <r>     3.5172    10.2906    59.3501 </r>
       <r>     3.5755    11.0708    59.9955 </r>
       <r>     3.6338    12.3698    60.7166 </r>
       <r>     3.6921    13.2156    61.4870 </r>
       <r>     3.7504    12.8321    62.2350 </r>
       <r>     3.8087    11.3704    62.8978 </r>
       <r>     3.8670     9.8898    63.4743 </r>
       <r>     3.9253     9.5020    64.0282 </r>
       <r>     3.9836    10.4639    64.6382 </r>
       <r>     4.0419    12.1020    65.3437 </r>
       <r>     4.1002    13.5592    66.1341 </r>
       <r>     4.1585    14.4760    66.9779 </r>
       <r>     4.2168    14.9363    67.8486 </r>
       <r>     4.2751    15.0062    68.7234 </r>
       <r>     4.3333    14.6235    69.5758 </r>
       <r>     4.3916    13.9207    70.3873 </r>
       <r>     4.4499    13.3377    71.1648 </r>
       <r>     4.5082    13.2145    71.9351 </r>
       <r>     4.5665    13.4044    72.7165 </r>
       <r>     4.6248    13.4611    73.5012 </r>
       <r>     4.6831    13.1348    74.2669 </r>
       <r>     4.7414    12.5306    74.9974 </r>
       <r>     4.7997    11.8357    75.6873 </r>
       <r>     4.8580    11.0839    76.3334 </r>
       <r>     4.9163    10.2506    76.9310 </r>
       <r>     4.9746     9.4996    77.4847 </r>
       <r>     5.0329     9.2536    78.0242 </r>
       <r>     5.0912     9.9466    78.6040 </r>
       <r>     5.1495    11.6287    79.2819 </r>
       <r>     5.2078    13.8196    80.0874 </r>
       <r>     5.2660    15.8287    81.0102 </r>
       <r>     5.3243    17.2103    82.0134 </r>
       <r>     5.3826    17.8488    83.0539 </r>
       <r>     5.4409    17.7284    84.0873 </r>
       <r>     5.4992    16.8711    85.0708 </r>
       <r>     5.5575    15.5583    85.9778 </r>
       <r>     5.6158    14.3569    86.8147 </r>
       <r>     5.6741    13.6585    87.6109 </r>
       <r>     5.7324    13.2156    88.3813 </r>
       <r>     5.7907    12.3817    89.1030 </r>
       <r>     5.8490    10.9247    89.7399 </r>
       <r>     5.9073     9.4902    90.2931 </r>
       <r>     5.9656     9.1561    90.8268 </r>
       <r>     6.0239    10.5239    91.4403 </r>
       <r>     6.0822    13.1784    92.2085 </r>
       <r>     6.1404    15.9366    93.1375 </r>
       <r>     6.1987    17.6573    94.1668 </r>
       <r>     6.2570    17.9434    95.2128 </r>
       <r>     6.3153    17.1697    96.2137 </r>
       <r>     6.3736    15.9575    97.1439 </r>
       <r>     6.4319    14.7297    98.0026 </r>
       <r>     6.4902    13.6977    98.8010 </r>
       <r>     6.5485    13.0165    99.5598 </r>
       <r>     6.6068    12.7703   100.3043 </r>
       <r>     6.6651    12.8732   101.0547 </r>
       <r>     6.7234    13.1516   101.8213 </r>
       <r>     6.7817    13.5560   102.6116 </r>
       <r>     6.8400    14.1922   103.4389 </r>
       <r>     6.8983    15.1055   104.3194 </r>
       <r>     6.9566    16.1072   105.2584 </r>
       <r>     7.0149    16.8760   106.2421 </r>
       <r>     7.0731    17.1968   107.2446 </r>
       <r>     7.1314    17.0358   108.2377 </r>
       <r>     7.1897    16.4221   109.1950 </r>
       <r>     7.2480    15.4115   110.0934 </r>
       <r>     7.3063    14.2539   110.9243 </r>
       <r>     7.3646    13.4764   111.7099 </r>
       <r>     7.4229    13.5931   112.5022 </r>
       <r>     7.4812    14.6391   113.3556 </r>
       <r>     7.5395    16.0232   114.2897 </r>
       <r>     7.5978    16.8888   115.2742 </r>
       <r>     7.6561    16.6607   116.2454 </r>
       <r>     7.7144    15.3657   117.1411 </r>
       <r>     7.7727    13.5973   117.9337 </r>
       <r>     7.8310    12.2292   118.6466 </r>
       <r>     7.8893    12.0260   119.3476 </r>
       <r>     7.9475    13.2767   120.1216 </r>
       <r>     8.0058    15.5740   121.0295 </r>
       <r>     8.0641    17.8951   122.0726 </r>
       <r>     8.1224    19.0883   123.1854 </r>
       <r>     8.1807    18.5283   124.2654 </r>
       <r>     8.2390    16.4148   125.2223 </r>
       <r>     8.2973    13.4745   126.0078 </r>
       <r>     8.3556    10.4112   126.6147 </r>
       <r>     8.4139     7.6083   127.0582 </r>
       <r>     8.4722     5.2103   127.3619 </r>
       <r>     8.5305     3.3187   127.5554 </r>
       <r>     8.5888     2.0252   127.6734 </r>
       <r>     8.6471     1.2973   127.7491 </r>
       <r>     8.7054     0.9350   127.8036 </r>
       <r>     8.7637     0.6952   127.8441 </r>
       <r>     8.8220     0.4484   127.8702 </r>
       <r>     8.8802     0.2067   127.8823 </r>
       <r>     8.9385     0.0330   127.8842 </r>
       <r>     8.9968    -0.0483   127.8814 </r>
       <r>     9.0551    -0.0643   127.8777 </r>
       <r>     9.1134    -0.0562   127.8744 </r>
       <r>     9.1717    -0.0427   127.8719 </r>
       <r>     9.2300    -0.0106   127.8713 </r>
       <r>     9.2883     0.0699   127.8754 </r>
       <r>     9.3466     0.2116   127.8877 </r>
       <r>     9.4049     0.3786   127.9098 </r>
       <r>     9.4632     0.4928   127.9385 </r>
       <r>     9.5215     0.4884   127.9670 </r>
       <r>     9.5798     0.3683   127.9884 </r>
       <r>     9.6381     0.2013   128.0002 </r>
       <r>     9.6964     0.0649   128.0039 </r>
       <r>     9.7546    -0.0067   128.0036 </r>
       <r>     9.8129    -0.0255   128.0021 </r>
       <r>     9.8712    -0.0198   128.0009 </r>
       <r>     9.9295    -0.0101   128.0003 </r>
       <r>     9.9878    -0.0039   128.0001 </r>
       <r>    10.0461    -0.0012   128.0000 </r>
       <r>    10.1044    -0.0003   128.0000 </r>
       <r>    10.1627    -0.0001   128.0000 </r>
       <r>    10.2210    -0.0000   128.0000 </r>
       <r>    10.2793    -0.0000   128.0000 </r>
       <r>    10.3376    -0.0000   128.0000 </r>
       <r>    10.3959    -0.0000   128.0000 </r>
       <r>    10.4542    -0.0000   128.0000 </r>
       <r>    10.5125    -0.0000   128.0000 </r>
       <r>    10.5708    -0.0000   128.0000 </r>
       <r>    10.6291    -0.0000   128.0000 </r>
       <r>    10.6873    -0.0000   128.0000 </r>
       <r>    10.7456    -0.0000   128.0000 </r>
       <r>    10.8039     0.0000   128.0000 </r>
       <r>    10.8622     0.0000   128.0000 </r>
       <r>    10.9205     0.0000   128.0000 </r>
       <r>    10.9788     0.0000   128.0000 </r>
       <r>    11.0371     0.0000   128.0000 </r>
       <r>    11.0954     0.0000   128.0000 </r>
       <r>    11.1537     0.0000   128.0000 </r>
       <r>    11.2120     0.0000   128.0000 </r>
       <r>    11.2703     0.0000   128.0000 </r>
       <r>    11.3286     0.0000   128.0000 </r>
       <r>    11.3869     0.0000   128.0000 </r>
       <r>    11.4452     0.0000   128.0000 </r>
       <r>    11.5035     0.0000   128.0000 </r>
      </set>
     </set>
    </array>
   </total>
  </dos>
 </calculation>
 <structure name="finalpos" >
  <crystal>
   <varray name="basis" >
    <v>       0.00000000       6.68250000       6.68250000 </v>
    <v>       6.68250000       0.00000000       6.68250000 </v>
    <v>       6.68250000       6.68250000       0.00000000 </v>
   </varray>
   <i name="volume">    596.82485053 </i>
   <varray name="rec_basis" >
    <v>      -0.07482230       0.07482230       0.07482230 </v>
    <v>       0.07482230      -0.07482230       0.07482230 </v>
    <v>       0.07482230       0.07482230      -0.07482230 </v>
   </varray>
  </crystal>
  <varray name="positions" >
   <v>       0.99086247       0.99745800       0.01157445 </v>
   <v>       0.00175233       0.01048802       0.33145303 </v>
   <v>       0.99700770       0.99182205       0.66570522 </v>
   <v>       0.99086587       0.33691220       0.01026976 </v>
   <v>       0.01068699       0.33658033       0.32534108 </v>
   <v>       0.00660478       0.34067183       0.65587071 </v>
   <v>       0.99141610       0.67824729       0.00091523 </v>
   <v>       0.01083138       0.65840974       0.32785532 </v>
   <v>       0.01095212       0.65744307       0.66875347 </v>
   <v>       0.32235464       0.00725632       0.00654205 </v>
   <v>       0.34600796       0.99344692       0.32937549 </v>
   <v>       0.32419107       0.99445355       0.67493623 </v>
   <v>       0.34268402       0.32981381       0.00440260 </v>
   <v>       0.32462830       0.34447215       0.33536624 </v>
   <v>       0.34339763       0.33279013       0.66811193 </v>
   <v>       0.33581439       0.66891680       0.98759637 </v>
   <v>       0.33413933       0.66000728       0.34525466 </v>
   <v>       0.32899823       0.65913206       0.67884359 </v>
   <v>       0.65801702       0.99905481       0.99764917 </v>
   <v>       0.67907311       0.99268638       0.33212069 </v>
   <v>       0.65568769       0.00060548       0.66689227 </v>
   <v>       0.66304515       0.33584331       0.01065285 </v>
   <v>       0.66071405       0.33476120       0.34498256 </v>
   <v>       0.65584960       0.33848722       0.67516958 </v>
   <v>       0.67710838       0.65729279       0.99582837 </v>
   <v>       0.66572132       0.65546406       0.34285381 </v>
   <v>       0.66411652       0.66425379       0.67913051 </v>
  </varray>
 </structure>
</modeling>
