<?xml version="1.0" encoding="ISO-8859-1"?>
<modeling>
 <generator>
  <i name="program" type="string">vasp </i>
  <i name="version" type="string">5.3.5  </i>
  <i name="subversion" type="string">31Mar14 (build Jun 17 2014 14:04:22) complex                          parallel </i>
  <i name="platform" type="string">LinuxIfort </i>
  <i name="date" type="string">2025 12 23 </i>
  <i name="time" type="string">00:37:47 </i>
 </generator>
 <incar>
  <i type="string" name="SYSTEM"> Al Random Displacement</i>
  <i type="string" name="PREC">normal</i>
  <i type="string" name="ALGO"> Fast</i>
  <i type="int" name="IBRION">    -1</i>
  <i type="int" name="NSW">     0</i>
  <i name="ENCUT">    300.00000000</i>
  <i type="string" name="LREAL"> Auto</i>
  <i type="int" name="ISMEAR">     1</i>
  <i name="SIGMA">      0.20000000</i>
  <i type="logical" name="LWAVE"> F  </i>
  <i type="logical" name="LCHARG"> F  </i>
 </incar>
 <kpoints>
  <generation param="Monkhorst-Pack">
   <v type="int" name="divisions">       4        4        4 </v>
   <v name="usershift">      0.00000000       0.00000000       0.00000000 </v>
   <v name="genvec1">      0.25000000       0.00000000       0.00000000 </v>
   <v name="genvec2">      0.00000000       0.25000000       0.00000000 </v>
   <v name="genvec3">      0.00000000       0.00000000       0.25000000 </v>
   <v name="shift">      0.50000000       0.50000000       0.50000000 </v>
  </generation>
  <varray name="kpointlist" >
   <v>       0.12500000       0.12500000       0.12500000 </v>
   <v>       0.12500000       0.00000000       0.00000000 </v>
   <v>       0.00000000       0.00000000      -0.12500000 </v>
   <v>       0.00000000       0.12500000       0.00000000 </v>
   <v>       0.37500000       0.12500000       0.12500000 </v>
   <v>       0.12500000       0.37500000       0.12500000 </v>
   <v>       0.12500000       0.12500000       0.37500000 </v>
   <v>       0.12500000       0.00000000      -0.25000000 </v>
   <v>       0.37500000       0.25000000       0.25000000 </v>
   <v>       0.12500000      -0.25000000       0.00000000 </v>
   <v>       0.00000000       0.25000000      -0.12500000 </v>
   <v>       0.25000000       0.00000000      -0.12500000 </v>
   <v>      -0.25000000      -0.25000000      -0.37500000 </v>
   <v>       0.25000000       0.37500000       0.25000000 </v>
   <v>       0.00000000       0.12500000      -0.25000000 </v>
   <v>      -0.25000000       0.12500000       0.00000000 </v>
   <v>      -0.37500000       0.12500000       0.12500000 </v>
   <v>       0.12500000      -0.37500000       0.12500000 </v>
   <v>       0.12500000       0.12500000      -0.37500000 </v>
   <v>       0.12500000       0.00000000       0.50000000 </v>
   <v>      -0.37500000       0.50000000       0.50000000 </v>
   <v>       0.12500000       0.50000000       0.00000000 </v>
   <v>       0.00000000       0.50000000      -0.12500000 </v>
   <v>       0.50000000       0.00000000      -0.12500000 </v>
   <v>       0.50000000       0.50000000       0.37500000 </v>
   <v>       0.50000000      -0.37500000       0.50000000 </v>
   <v>       0.00000000       0.12500000       0.50000000 </v>
   <v>       0.50000000       0.12500000       0.00000000 </v>
   <v>      -0.12500000       0.12500000       0.12500000 </v>
   <v>       0.12500000      -0.12500000       0.12500000 </v>
   <v>       0.12500000       0.12500000      -0.12500000 </v>
   <v>       0.12500000       0.00000000       0.25000000 </v>
   <v>      -0.12500000      -0.25000000      -0.25000000 </v>
   <v>       0.12500000       0.25000000       0.00000000 </v>
   <v>       0.00000000      -0.25000000      -0.12500000 </v>
   <v>      -0.25000000       0.00000000      -0.12500000 </v>
   <v>       0.25000000       0.25000000       0.12500000 </v>
   <v>      -0.25000000      -0.12500000      -0.25000000 </v>
   <v>       0.00000000       0.12500000       0.25000000 </v>
   <v>       0.25000000       0.12500000       0.00000000 </v>
   <v>       0.37500000       0.37500000       0.12500000 </v>
   <v>       0.12500000       0.37500000       0.37500000 </v>
   <v>       0.37500000       0.12500000       0.37500000 </v>
   <v>       0.37500000       0.25000000       0.00000000 </v>
   <v>       0.37500000       0.00000000       0.25000000 </v>
   <v>       0.12500000      -0.25000000      -0.25000000 </v>
   <v>       0.25000000       0.25000000      -0.12500000 </v>
   <v>       0.00000000      -0.25000000      -0.37500000 </v>
   <v>      -0.25000000       0.00000000      -0.37500000 </v>
   <v>       0.25000000       0.37500000       0.00000000 </v>
   <v>      -0.25000000       0.12500000      -0.25000000 </v>
   <v>       0.00000000       0.37500000       0.25000000 </v>
   <v>      -0.37500000       0.37500000       0.12500000 </v>
   <v>       0.12500000      -0.37500000       0.37500000 </v>
   <v>       0.37500000       0.12500000      -0.37500000 </v>
   <v>       0.37500000       0.25000000      -0.25000000 </v>
   <v>      -0.37500000       0.25000000       0.50000000 </v>
   <v>       0.12500000       0.50000000      -0.25000000 </v>
   <v>       0.25000000       0.50000000      -0.12500000 </v>
   <v>       0.25000000      -0.25000000      -0.37500000 </v>
   <v>       0.50000000      -0.25000000       0.37500000 </v>
   <v>       0.50000000      -0.37500000       0.25000000 </v>
   <v>      -0.25000000       0.12500000       0.50000000 </v>
   <v>      -0.25000000       0.37500000       0.25000000 </v>
   <v>      -0.12500000       0.25000000       0.50000000 </v>
   <v>      -0.37500000       0.25000000      -0.25000000 </v>
   <v>       0.37500000       0.50000000      -0.25000000 </v>
   <v>       0.25000000       0.50000000      -0.37500000 </v>
   <v>       0.50000000      -0.25000000       0.12500000 </v>
   <v>       0.25000000      -0.25000000       0.37500000 </v>
   <v>       0.50000000      -0.12500000       0.25000000 </v>
   <v>      -0.25000000      -0.37500000       0.25000000 </v>
   <v>      -0.25000000       0.37500000       0.50000000 </v>
   <v>       0.37500000      -0.12500000      -0.37500000 </v>
   <v>      -0.37500000       0.37500000      -0.12500000 </v>
   <v>      -0.12500000      -0.37500000       0.37500000 </v>
   <v>      -0.12500000       0.37500000       0.12500000 </v>
   <v>       0.12500000      -0.12500000       0.37500000 </v>
   <v>       0.37500000       0.12500000      -0.12500000 </v>
   <v>       0.37500000       0.25000000       0.50000000 </v>
   <v>      -0.12500000       0.50000000      -0.25000000 </v>
   <v>       0.12500000       0.25000000      -0.25000000 </v>
   <v>       0.25000000      -0.25000000      -0.12500000 </v>
   <v>       0.50000000      -0.25000000      -0.37500000 </v>
   <v>       0.25000000       0.50000000       0.12500000 </v>
   <v>      -0.25000000      -0.12500000       0.50000000 </v>
   <v>      -0.25000000       0.12500000       0.25000000 </v>
   <v>       0.50000000       0.37500000       0.25000000 </v>
   <v>      -0.12500000       0.25000000      -0.25000000 </v>
   <v>      -0.37500000       0.50000000      -0.25000000 </v>
   <v>       0.12500000       0.25000000       0.50000000 </v>
   <v>       0.50000000      -0.25000000      -0.12500000 </v>
   <v>       0.25000000      -0.25000000       0.12500000 </v>
   <v>       0.25000000       0.50000000       0.37500000 </v>
   <v>      -0.25000000      -0.12500000       0.25000000 </v>
   <v>      -0.25000000      -0.37500000       0.50000000 </v>
   <v>       0.50000000       0.12500000       0.25000000 </v>
   <v>       0.12500000      -0.12500000      -0.37500000 </v>
   <v>      -0.37500000       0.12500000      -0.12500000 </v>
   <v>      -0.12500000      -0.37500000       0.12500000 </v>
   <v>      -0.37500000      -0.37500000       0.12500000 </v>
   <v>       0.12500000      -0.37500000      -0.37500000 </v>
   <v>      -0.37500000       0.12500000      -0.37500000 </v>
   <v>      -0.37500000       0.50000000       0.00000000 </v>
   <v>      -0.37500000       0.00000000       0.50000000 </v>
   <v>       0.12500000       0.50000000       0.50000000 </v>
   <v>       0.50000000       0.50000000      -0.12500000 </v>
   <v>       0.00000000       0.50000000       0.37500000 </v>
   <v>       0.50000000       0.00000000       0.37500000 </v>
   <v>       0.50000000      -0.37500000       0.00000000 </v>
   <v>       0.50000000       0.12500000       0.50000000 </v>
   <v>       0.00000000      -0.37500000       0.50000000 </v>
   <v>       0.37500000       0.37500000       0.37500000 </v>
   <v>       0.37500000       0.00000000       0.00000000 </v>
   <v>       0.00000000       0.00000000      -0.37500000 </v>
   <v>       0.00000000       0.37500000       0.00000000 </v>
   <v>      -0.37500000       0.37500000       0.37500000 </v>
   <v>       0.37500000      -0.37500000       0.37500000 </v>
   <v>       0.37500000       0.37500000      -0.37500000 </v>
   <v>       0.37500000       0.00000000      -0.25000000 </v>
   <v>      -0.37500000       0.25000000       0.25000000 </v>
   <v>       0.37500000      -0.25000000       0.00000000 </v>
   <v>       0.00000000       0.25000000      -0.37500000 </v>
   <v>       0.25000000       0.00000000      -0.37500000 </v>
   <v>      -0.25000000      -0.25000000       0.37500000 </v>
   <v>       0.25000000      -0.37500000       0.25000000 </v>
   <v>       0.00000000       0.37500000      -0.25000000 </v>
   <v>      -0.25000000       0.37500000       0.00000000 </v>
  </varray>
  <varray name="weights" >
   <v>       0.00781250 </v>
   <v>       0.00781250 </v>
   <v>       0.00781250 </v>
   <v>       0.00781250 </v>
   <v>       0.00781250 </v>
   <v>       0.00781250 </v>
   <v>       0.00781250 </v>
   <v>       0.00781250 </v>
   <v>       0.00781250 </v>
   <v>       0.00781250 </v>
   <v>       0.00781250 </v>
   <v>       0.00781250 </v>
   <v>       0.00781250 </v>
   <v>       0.00781250 </v>
   <v>       0.00781250 </v>
   <v>       0.00781250 </v>
   <v>       0.00781250 </v>
   <v>       0.00781250 </v>
   <v>       0.00781250 </v>
   <v>       0.00781250 </v>
   <v>       0.00781250 </v>
   <v>       0.00781250 </v>
   <v>       0.00781250 </v>
   <v>       0.00781250 </v>
   <v>       0.00781250 </v>
   <v>       0.00781250 </v>
   <v>       0.00781250 </v>
   <v>       0.00781250 </v>
   <v>       0.00781250 </v>
   <v>       0.00781250 </v>
   <v>       0.00781250 </v>
   <v>       0.00781250 </v>
   <v>       0.00781250 </v>
   <v>       0.00781250 </v>
   <v>       0.00781250 </v>
   <v>       0.00781250 </v>
   <v>       0.00781250 </v>
   <v>       0.00781250 </v>
   <v>       0.00781250 </v>
   <v>       0.00781250 </v>
   <v>       0.00781250 </v>
   <v>       0.00781250 </v>
   <v>       0.00781250 </v>
   <v>       0.00781250 </v>
   <v>       0.00781250 </v>
   <v>       0.00781250 </v>
   <v>       0.00781250 </v>
   <v>       0.00781250 </v>
   <v>       0.00781250 </v>
   <v>       0.00781250 </v>
   <v>       0.00781250 </v>
   <v>       0.00781250 </v>
   <v>       0.00781250 </v>
   <v>       0.00781250 </v>
   <v>       0.00781250 </v>
   <v>       0.00781250 </v>
   <v>       0.00781250 </v>
   <v>       0.00781250 </v>
   <v>       0.00781250 </v>
   <v>       0.00781250 </v>
   <v>       0.00781250 </v>
   <v>       0.00781250 </v>
   <v>       0.00781250 </v>
   <v>       0.00781250 </v>
   <v>       0.00781250 </v>
   <v>       0.00781250 </v>
   <v>       0.00781250 </v>
   <v>       0.00781250 </v>
   <v>       0.00781250 </v>
   <v>       0.00781250 </v>
   <v>       0.00781250 </v>
   <v>       0.00781250 </v>
   <v>       0.00781250 </v>
   <v>       0.00781250 </v>
   <v>       0.00781250 </v>
   <v>       0.00781250 </v>
   <v>       0.00781250 </v>
   <v>       0.00781250 </v>
   <v>       0.00781250 </v>
   <v>       0.00781250 </v>
   <v>       0.00781250 </v>
   <v>       0.00781250 </v>
   <v>       0.00781250 </v>
   <v>       0.00781250 </v>
   <v>       0.00781250 </v>
   <v>       0.00781250 </v>
   <v>       0.00781250 </v>
   <v>       0.00781250 </v>
   <v>       0.00781250 </v>
   <v>       0.00781250 </v>
   <v>       0.00781250 </v>
   <v>       0.00781250 </v>
   <v>       0.00781250 </v>
   <v>       0.00781250 </v>
   <v>       0.00781250 </v>
   <v>       0.00781250 </v>
   <v>       0.00781250 </v>
   <v>       0.00781250 </v>
   <v>       0.00781250 </v>
   <v>       0.00781250 </v>
   <v>       0.00781250 </v>
   <v>       0.00781250 </v>
   <v>       0.00781250 </v>
   <v>       0.00781250 </v>
   <v>       0.00781250 </v>
   <v>       0.00781250 </v>
   <v>       0.00781250 </v>
   <v>       0.00781250 </v>
   <v>       0.00781250 </v>
   <v>       0.00781250 </v>
   <v>       0.00781250 </v>
   <v>       0.00781250 </v>
   <v>       0.00781250 </v>
   <v>       0.00781250 </v>
   <v>       0.00781250 </v>
   <v>       0.00781250 </v>
   <v>       0.00781250 </v>
   <v>       0.00781250 </v>
   <v>       0.00781250 </v>
   <v>       0.00781250 </v>
   <v>       0.00781250 </v>
   <v>       0.00781250 </v>
   <v>       0.00781250 </v>
   <v>       0.00781250 </v>
   <v>       0.00781250 </v>
   <v>       0.00781250 </v>
   <v>       0.00781250 </v>
   <v>       0.00781250 </v>
  </varray>
 </kpoints>
 <parameters>
  <separator name="general" >
   <i type="string" name="SYSTEM">Al Random Displacement</i>
   <i type="logical" name="LCOMPAT"> F  </i>
  </separator>
  <separator name="electronic" >
   <i type="string" name="PREC">normal</i>
   <i name="ENMAX">    300.00000000</i>
   <i name="ENAUG">    291.05200000</i>
   <i name="EDIFF">      0.00010000</i>
   <i type="int" name="IALGO">    68</i>
   <i type="int" name="IWAVPR">    10</i>
   <i type="int" name="NBANDS">    64</i>
   <i name="NELECT">     81.00000000</i>
   <i type="int" name="TURBO">     0</i>
   <i type="int" name="IRESTART">     0</i>
   <i type="int" name="NREBOOT">     0</i>
   <i type="int" name="NMIN">     0</i>
   <i name="EREF">      0.00000000</i>
   <separator name="electronic smearing" >
    <i type="int" name="ISMEAR">     1</i>
    <i name="SIGMA">      0.20000000</i>
    <i name="KSPACING">      0.50000000</i>
    <i type="logical" name="KGAMMA"> T  </i>
   </separator>
   <separator name="electronic projectors" >
    <i type="logical" name="LREAL"> T  </i>
    <v name="ROPT">     -0.00050000</v>
    <i type="int" name="LMAXPAW">  -100</i>
    <i type="int" name="LMAXMIX">     2</i>
    <i type="logical" name="NLSPLINE"> F  </i>
   </separator>
   <separator name="electronic startup" >
    <i type="int" name="ISTART">     0</i>
    <i type="int" name="ICHARG">     2</i>
    <i type="int" name="INIWAV">     1</i>
   </separator>
   <separator name="electronic spin" >
    <i type="int" name="ISPIN">     1</i>
    <i type="logical" name="LNONCOLLINEAR"> F  </i>
    <v name="MAGMOM">      1.00000000      1.00000000      1.00000000      1.00000000      1.00000000      1.00000000      1.00000000      1.00000000      1.00000000      1.00000000      1.00000000      1.00000000      1.00000000      1.00000000      1.00000000      1.00000000      1.00000000      1.00000000      1.00000000      1.00000000
      1.00000000      1.00000000      1.00000000      1.00000000      1.00000000      1.00000000      1.00000000</v>
    <i name="NUPDOWN">     -1.00000000</i>
    <i type="logical" name="LSORBIT"> F  </i>
    <v name="SAXIS">      0.00000000      0.00000000      1.00000000</v>
    <i type="logical" name="LSPIRAL"> F  </i>
    <v name="QSPIRAL">      0.00000000      0.00000000      0.00000000</v>
    <i type="logical" name="LZEROZ"> F  </i>
   </separator>
   <separator name="electronic exchange-correlation" >
    <i type="logical" name="LASPH"> F  </i>
    <i type="logical" name="LMETAGGA"> F  </i>
   </separator>
   <separator name="electronic convergence" >
    <i type="int" name="NELM">    60</i>
    <i type="int" name="NELMDL">    -5</i>
    <i type="int" name="NELMIN">     2</i>
    <i name="ENINI">    300.00000000</i>
    <separator name="electronic convergence detail" >
     <i type="logical" name="LDIAG"> T  </i>
     <i type="logical" name="LSUBROT"> F  </i>
     <i name="WEIMIN">      0.00000000</i>
     <i name="EBREAK">      0.00000039</i>
     <i name="DEPER">      0.30000000</i>
     <i type="int" name="NRMM">     4</i>
     <i name="TIME">      0.40000000</i>
    </separator>
   </separator>
   <separator name="electronic mixer" >
    <i name="AMIX">      0.40000000</i>
    <i name="BMIX">      1.00000000</i>
    <i name="AMIN">      0.10000000</i>
    <i name="AMIX_MAG">      1.60000000</i>
    <i name="BMIX_MAG">      1.00000000</i>
    <separator name="electronic mixer details" >
     <i type="int" name="IMIX">     4</i>
     <i type="int" name="MAXMIX">   -45</i>
     <i name="WC">    100.00000000</i>
     <i type="int" name="INIMIX">     1</i>
     <i type="int" name="MIXPRE">     1</i>
     <i type="int" name="MREMOVE">     5</i>
    </separator>
   </separator>
   <separator name="electronic dipolcorrection" >
    <i type="logical" name="LDIPOL"> F  </i>
    <i type="logical" name="LMONO"> F  </i>
    <i type="int" name="IDIPOL">     0</i>
    <i name="EPSILON">      1.00000000</i>
    <v name="DIPOL">   -100.00000000   -100.00000000   -100.00000000</v>
    <i name="EFIELD">      0.00000000</i>
   </separator>
  </separator>
  <separator name="grids" >
   <i type="int" name="NGX">    36</i>
   <i type="int" name="NGY">    36</i>
   <i type="int" name="NGZ">    36</i>
   <i type="int" name="NGXF">    72</i>
   <i type="int" name="NGYF">    72</i>
   <i type="int" name="NGZF">    72</i>
   <i type="logical" name="ADDGRID"> F  </i>
  </separator>
  <separator name="ionic" >
   <i type="int" name="NSW">     0</i>
   <i type="int" name="IBRION">    -1</i>
   <i type="int" name="ISIF">     2</i>
   <i name="PSTRESS">      0.00000000</i>
   <i name="EDIFFG">      0.00100000</i>
   <i type="int" name="NFREE">     0</i>
   <i name="POTIM">      0.50000000</i>
   <i name="SMASS">     -3.00000000</i>
   <i name="SCALEE">      1.00000000</i>
  </separator>
  <separator name="ionic md" >
   <i name="TEBEG">      0.00010000</i>
   <i name="TEEND">      0.00010000</i>
   <i type="int" name="NBLOCK">     1</i>
   <i type="int" name="KBLOCK">     1</i>
   <i type="int" name="NPACO">   256</i>
   <i name="APACO">     16.00000000</i>
  </separator>
  <separator name="symmetry" >
   <i type="int" name="ISYM">     2</i>
   <i name="SYMPREC">      0.00001000</i>
  </separator>
  <separator name="dos" >
   <i type="logical" name="LORBIT"> F  </i>
   <v name="RWIGS">     -1.00000000</v>
   <i type="int" name="NEDOS">   301</i>
   <i name="EMIN">     10.00000000</i>
   <i name="EMAX">    -10.00000000</i>
   <i name="EFERMI">      0.00000000</i>
  </separator>
  <separator name="writing" >
   <i type="int" name="NWRITE">     2</i>
   <i type="logical" name="LWAVE"> F  </i>
   <i type="logical" name="LCHARG"> F  </i>
   <i type="logical" name="LPARD"> F  </i>
   <i type="logical" name="LVTOT"> F  </i>
   <i type="logical" name="LVHAR"> F  </i>
   <i type="logical" name="LELF"> F  </i>
   <i type="logical" name="LOPTICS"> F  </i>
   <v name="STM">      0.00000000      0.00000000      0.00000000      0.00000000      0.00000000      0.00000000      0.00000000</v>
  </separator>
  <separator name="performance" >
   <i type="int" name="NPAR">    16</i>
   <i type="int" name="NSIM">     4</i>
   <i type="int" name="NBLK">    -1</i>
   <i type="logical" name="LPLANE"> T  </i>
   <i type="logical" name="LSCALAPACK"> F  </i>
   <i type="logical" name="LSCAAWARE"> F  </i>
   <i type="logical" name="LSCALU"> F  </i>
   <i type="logical" name="LASYNC"> F  </i>
   <i type="logical" name="LORBITALREAL"> F  </i>
  </separator>
  <separator name="miscellaneous" >
   <i type="int" name="IDIOT">     3</i>
   <i type="logical" name="LMUSIC"> F  </i>
   <v name="POMASS">     26.98100000</v>
   <v name="DARWINR">      0.00000000</v>
   <v name="DARWINV">      1.00000000</v>
   <i type="logical" name="LCORR"> T  </i>
  </separator>
  <i type="logical" name="GGA_COMPAT"> T  </i>
  <i type="logical" name="LBERRY"> F  </i>
  <i type="int" name="ICORELEVEL">     0</i>
  <i type="logical" name="LDAU"> F  </i>
  <i type="int" name="I_CONSTRAINED_M">     0</i>
  <separator name="electronic exchange-correlation" >
   <i type="string" name="GGA">--</i>
   <i type="int" name="VOSKOWN">     0</i>
   <i type="logical" name="LHFCALC"> F  </i>
   <i type="string" name="PRECFOCK"></i>
   <i type="logical" name="LSYMGRAD"> F  </i>
   <i type="logical" name="LHFONE"> F  </i>
   <i type="logical" name="LRHFCALC"> F  </i>
   <i type="logical" name="LTHOMAS"> F  </i>
   <i type="logical" name="LMODELHF"> F  </i>
   <i name="ENCUT4O">     -1.00000000</i>
   <i type="int" name="EXXOEP">     0</i>
   <i type="int" name="FOURORBIT">     0</i>
   <i name="AEXX">      0.00000000</i>
   <i name="HFALPHA">      0.00000000</i>
   <i name="MCALPHA">      0.00000000</i>
   <i name="ALDAX">      1.00000000</i>
   <i name="AGGAX">      1.00000000</i>
   <i name="ALDAC">      1.00000000</i>
   <i name="AGGAC">      1.00000000</i>
   <i type="int" name="NKREDX">     1</i>
   <i type="int" name="NKREDY">     1</i>
   <i type="int" name="NKREDZ">     1</i>
   <i type="logical" name="SHIFTRED"> F  </i>
   <i type="logical" name="ODDONLY"> F  </i>
   <i type="logical" name="EVENONLY"> F  </i>
   <i type="int" name="LMAXFOCK">     0</i>
   <i type="int" name="NMAXFOCKAE">     0</i>
   <i type="logical" name="LFOCKAEDFT"> F  </i>
   <i name="HFSCREEN">      0.00000000</i>
   <i name="HFSCREENC">      0.00000000</i>
   <i type="int" name="NBANDSGWLOW">     0</i>
  </separator>
  <separator name="vdW DFT" >
   <i type="logical" name="LUSE_VDW"> F  </i>
   <i name="Zab_VDW">     -0.84910000</i>
   <i name="PARAM1">      0.12340000</i>
   <i name="PARAM2">      1.00000000</i>
   <i name="PARAM3">      0.00000000</i>
  </separator>
  <separator name="model GW" >
   <i type="int" name="MODEL_GW">     0</i>
   <i name="MODEL_EPS0">      7.26413417</i>
   <i name="MODEL_ALPHA">      1.00000000</i>
  </separator>
  <separator name="linear response parameters" >
   <i type="logical" name="LEPSILON"> F  </i>
   <i type="logical" name="LRPA"> F  </i>
   <i type="logical" name="LNABLA"> F  </i>
   <i type="logical" name="LVEL"> F  </i>
   <i type="int" name="KINTER">     0</i>
   <i name="CSHIFT">      0.10000000</i>
   <i name="OMEGAMAX">     -1.00000000</i>
   <i name="DEG_THRESHOLD">      0.00200000</i>
  </separator>
  <separator name="orbital magnetization" >
   <i type="logical" name="NUCIND"> F  </i>
   <v name="MAGPOS">      0.00000000      0.00000000      0.00000000</v>
   <i type="logical" name="LNICSALL"> T  </i>
   <i type="logical" name="ORBITALMAG"> F  </i>
   <i type="logical" name="LMAGBLOCH"> F  </i>
   <i type="logical" name="LCHIMAG"> F  </i>
   <i type="logical" name="LGAUGE"> T  </i>
   <i type="int" name="MAGATOM">     0</i>
   <v name="MAGDIPOL">      0.00000000      0.00000000      0.00000000</v>
   <v name="AVECCONST">      0.00000000      0.00000000      0.00000000</v>
  </separator>
  <separator name="response functions" >
   <i type="logical" name="LADDER"> F  </i>
   <i type="logical" name="LFXC"> F  </i>
   <i type="logical" name="LHARTREE"> T  </i>
   <i type="int" name="IBSE">     0</i>
   <i type="logical" name="LTCTE"> F  </i>
   <i type="logical" name="LTETE"> F  </i>
   <i type="logical" name="LTRIPLET"> F  </i>
   <i type="logical" name="LFXCEPS"> F  </i>
   <i type="logical" name="LFXHEG"> F  </i>
   <i type="logical" name="L2ORDER"> F  </i>
   <i type="logical" name="LUSEW"> F  </i>
   <i name="ENCUTGW">     -2.00000000</i>
   <i name="ENCUTGWSOFT">     -2.00000000</i>
   <i name="ENCUTLF">     -1.00000000</i>
   <i type="int" name="LMAXMP2">    -1</i>
   <i name="SCISSOR">      0.00000000</i>
   <i type="int" name="NOMEGA">     0</i>
   <i type="int" name="NOMEGAR">     0</i>
   <i type="int" name="NBANDSGW">    -1</i>
   <i type="int" name="NBANDSO">    -1</i>
   <i type="int" name="NBANDSV">    -1</i>
   <i type="int" name="NELM">     1</i>
   <i type="int" name="DIM">     3</i>
   <i type="int" name="ANTIRES">     0</i>
   <i name="OMEGAMAX">    -30.00000000</i>
   <i name="OMEGAMIN">    -30.00000000</i>
   <i name="OMEGATL">   -200.00000000</i>
   <i type="int" name="OMEGAGRID">     0</i>
   <i name="CSHIFT">     -0.10000000</i>
   <i type="logical" name="SELFENERGY"> F  </i>
   <i type="logical" name="LSPECTRAL"> F  </i>
   <i type="logical" name="ODDONLYGW"> F  </i>
   <i type="logical" name="EVENONLYGW"> F  </i>
   <i type="int" name="NKREDLFX">     1</i>
   <i type="int" name="NKREDLFY">     1</i>
   <i type="int" name="NKREDLFZ">     1</i>
   <i type="int" name="MAXMEM">  1800</i>
   <i type="int" name="TELESCOPE">     0</i>
   <i type="int" name="TAUPAR">     1</i>
  </separator>
  <separator name="External order field" >
   <i name="OFIELD_KAPPA">      0.00000000</i>
   <v name="OFIELD_K">      0.00000000      0.00000000      0.00000000</v>
   <i name="OFIELD_Q6_NEAR">      0.00000000</i>
   <i name="OFIELD_Q6_FAR">      0.00000000</i>
   <i name="OFIELD_A">      0.00000000</i>
  </separator>
 </parameters>
 <atominfo>
  <atoms>      27 </atoms>
  <types>       1 </types>
  <array name="atoms" >
   <dimension dim="1">ion</dimension>
   <field type="string">element</field>
   <field type="int">atomtype</field>
   <set>
    <rc><c>Al</c><c>   1</c></rc>
    <rc><c>Al</c><c>   1</c></rc>
    <rc><c>Al</c><c>   1</c></rc>
    <rc><c>Al</c><c>   1</c></rc>
    <rc><c>Al</c><c>   1</c></rc>
    <rc><c>Al</c><c>   1</c></rc>
    <rc><c>Al</c><c>   1</c></rc>
    <rc><c>Al</c><c>   1</c></rc>
    <rc><c>Al</c><c>   1</c></rc>
    <rc><c>Al</c><c>   1</c></rc>
    <rc><c>Al</c><c>   1</c></rc>
    <rc><c>Al</c><c>   1</c></rc>
    <rc><c>Al</c><c>   1</c></rc>
    <rc><c>Al</c><c>   1</c></rc>
    <rc><c>Al</c><c>   1</c></rc>
    <rc><c>Al</c><c>   1</c></rc>
    <rc><c>Al</c><c>   1</c></rc>
    <rc><c>Al</c><c>   1</c></rc>
    <rc><c>Al</c><c>   1</c></rc>
    <rc><c>Al</c><c>   1</c></rc>
    <rc><c>Al</c><c>   1</c></rc>
    <rc><c>Al</c><c>   1</c></rc>
    <rc><c>Al</c><c>   1</c></rc>
    <rc><c>Al</c><c>   1</c></rc>
    <rc><c>Al</c><c>   1</c></rc>
    <rc><c>Al</c><c>   1</c></rc>
    <rc><c>Al</c><c>   1</c></rc>
   </set>
  </array>
  <array name="atomtypes" >
   <dimension dim="1">type</dimension>
   <field type="int">atomspertype</field>
   <field type="string">element</field>
   <field>mass</field>
   <field>valence</field>
   <field type="string">pseudopotential</field>
   <set>
    <rc><c>  27</c><c>Al</c><c>     26.98100000</c><c>      3.00000000</c><c>  PAW_PBE Al 04Jan2001                  </c></rc>
   </set>
  </array>
 </atominfo>
 <structure name="initialpos" >
  <crystal>
   <varray name="basis" >
    <v>       0.00000000       5.46750000       5.46750000 </v>
    <v>       5.46750000       0.00000000       5.46750000 </v>
    <v>       5.46750000       5.46750000       0.00000000 </v>
   </varray>
   <i name="volume">    326.88603759 </i>
   <varray name="rec_basis" >
    <v>      -0.09144947       0.09144947       0.09144947 </v>
    <v>       0.09144947      -0.09144947       0.09144947 </v>
    <v>       0.09144947       0.09144947      -0.09144947 </v>
   </varray>
  </crystal>
  <varray name="positions" >
   <v>       0.04079223       0.96565805       0.00533359 </v>
   <v>       0.01715641       0.03111664       0.32626946 </v>
   <v>       0.95843014       0.03469088       0.67537452 </v>
   <v>       0.03475898       0.29495675       0.01452081 </v>
   <v>       0.03479805       0.32262890       0.29487685 </v>
   <v>       0.96232860       0.33790976       0.70583014 </v>
   <v>       0.03775573       0.64215929       0.01455147 </v>
   <v>       0.01368470       0.63086866       0.36985972 </v>
   <v>       0.95374633       0.69156570       0.68075784 </v>
   <v>       0.33739118       0.98695473       0.04180088 </v>
   <v>       0.33095592       0.96699931       0.32562377 </v>
   <v>       0.37477643       0.98875753       0.63271536 </v>
   <v>       0.37232569       0.32444825       0.96305904 </v>
   <v>       0.33755809       0.34212860       0.36444457 </v>
   <v>       0.30820138       0.36886931       0.63841971 </v>
   <v>       0.36963111       0.62565710       0.00272257 </v>
   <v>       0.30306848       0.70264484       0.31067805 </v>
   <v>       0.35298461       0.69988189       0.64810184 </v>
   <v>       0.69902605       0.95675431       0.00957276 </v>
   <v>       0.66456287       0.95595807       0.35736811 </v>
   <v>       0.62128707       0.02499026       0.68457491 </v>
   <v>       0.62653381       0.35050415       0.03199408 </v>
   <v>       0.68922533       0.36326329       0.29640122 </v>
   <v>       0.62533293       0.34170228       0.70170744 </v>
   <v>       0.68898423       0.69258199       0.99429279 </v>
   <v>       0.69950649       0.64166247       0.30415369 </v>
   <v>       0.71021087       0.64048950       0.66978427 </v>
  </varray>
 </structure>
 <calculation>
  <scstep>
   <time name="dav">    7.43    7.44</time>
   <time name="total">    7.46    7.47</time>
   <energy>
    <i name="alphaZ">     -7.49059958 </i>
    <i name="ewald">  -2158.59731721 </i>
    <i name="hartreedc">    -13.08395495 </i>
    <i name="XCdc">   -692.63863477 </i>
    <i name="pawpsdc">   1787.40424240 </i>
    <i name="pawaedc">   -924.63176043 </i>
    <i name="eentropy">      0.00130591 </i>
    <i name="bandstr">    661.21946392 </i>
    <i name="atom">   1445.51584806 </i>
    <i name="e_fr_energy">     97.69859335 </i>
    <i name="e_wo_entrp">     97.69728743 </i>
    <i name="e_0_energy">     97.69815804 </i>
   </energy>
  </scstep>
  <scstep>
   <time name="dav">    8.93    8.93</time>
   <time name="total">    8.93    8.95</time>
   <energy>
    <i name="e_fr_energy">    -68.93081826 </i>
    <i name="e_wo_entrp">    -68.92893773 </i>
    <i name="e_0_energy">    -68.93019142 </i>
   </energy>
  </scstep>
  <scstep>
   <time name="dav">    9.23    9.24</time>
   <time name="total">    9.24    9.25</time>
   <energy>
    <i name="e_fr_energy">    -75.29693132 </i>
    <i name="e_wo_entrp">    -75.29162508 </i>
    <i name="e_0_energy">    -75.29516257 </i>
   </energy>
  </scstep>
  <scstep>
   <time name="dav">    8.55    8.56</time>
   <time name="total">    8.56    8.58</time>
   <energy>
    <i name="e_fr_energy">    -75.35162652 </i>
    <i name="e_wo_entrp">    -75.34624093 </i>
    <i name="e_0_energy">    -75.34983133 </i>
   </energy>
  </scstep>
  <scstep>
   <time name="dav">    9.14    9.14</time>
   <time name="total">    9.46    9.48</time>
   <energy>
    <i name="e_fr_energy">    -75.35218652 </i>
    <i name="e_wo_entrp">    -75.34679933 </i>
    <i name="e_0_energy">    -75.35039079 </i>
   </energy>
  </scstep>
  <scstep>
   <time name="diag">    1.11    1.11</time>
   <time name="diis">    3.72    3.72</time>
   <time name="orth">    0.17    0.17</time>
   <time name="total">    5.33    5.35</time>
   <energy>
    <i name="e_fr_energy">    -72.27270419 </i>
    <i name="e_wo_entrp">    -72.27059374 </i>
    <i name="e_0_energy">    -72.27200071 </i>
   </energy>
  </scstep>
  <scstep>
   <time name="diag">    1.11    1.11</time>
   <time name="diis">    4.19    4.20</time>
   <time name="orth">    0.17    0.17</time>
   <time name="total">    5.81    5.82</time>
   <energy>
    <i name="e_fr_energy">    -71.74632844 </i>
    <i name="e_wo_entrp">    -71.74476846 </i>
    <i name="e_0_energy">    -71.74580845 </i>
   </energy>
  </scstep>
  <scstep>
   <time name="diag">    1.11    1.11</time>
   <time name="diis">    4.52    4.52</time>
   <time name="orth">    0.17    0.17</time>
   <time name="total">    6.13    6.15</time>
   <energy>
    <i name="e_fr_energy">    -71.63037386 </i>
    <i name="e_wo_entrp">    -71.62895718 </i>
    <i name="e_0_energy">    -71.62990164 </i>
   </energy>
  </scstep>
  <scstep>
   <time name="diag">    1.11    1.11</time>
   <time name="diis">    4.48    4.49</time>
   <time name="orth">    0.17    0.17</time>
   <time name="total">    6.10    6.11</time>
   <energy>
    <i name="e_fr_energy">    -71.61893180 </i>
    <i name="e_wo_entrp">    -71.61749123 </i>
    <i name="e_0_energy">    -71.61845161 </i>
   </energy>
  </scstep>
  <scstep>
   <time name="diag">    1.11    1.11</time>
   <time name="diis">    4.48    4.48</time>
   <time name="orth">    0.17    0.17</time>
   <time name="total">    6.09    6.11</time>
   <energy>
    <i name="e_fr_energy">    -71.61759087 </i>
    <i name="e_wo_entrp">    -71.61613144 </i>
    <i name="e_0_energy">    -71.61710439 </i>
   </energy>
  </scstep>
  <scstep>
   <time name="diag">    1.11    1.11</time>
   <time name="diis">    3.63    3.63</time>
   <time name="orth">    0.17    0.17</time>
   <time name="total">    5.25    5.27</time>
   <energy>
    <i name="e_fr_energy">    -71.61729254 </i>
    <i name="e_wo_entrp">    -71.61582385 </i>
    <i name="e_0_energy">    -71.61680298 </i>
   </energy>
  </scstep>
  <scstep>
   <time name="diag">    1.11    1.11</time>
   <time name="diis">    3.16    3.16</time>
   <time name="orth">    0.17    0.17</time>
   <time name="total">    4.46    4.47</time>
   <energy>
    <i name="alphaZ">     -7.49059958 </i>
    <i name="ewald">  -2158.59731721 </i>
    <i name="hartreedc">    -24.65990321 </i>
    <i name="XCdc">   -687.14151502 </i>
    <i name="pawpsdc">   8676.13520168 </i>
    <i name="pawaedc">  -7816.83985689 </i>
    <i name="eentropy">     -0.00146219 </i>
    <i name="bandstr">    501.46231378 </i>
    <i name="atom">   1445.51584806 </i>
    <i name="e_fr_energy">    -71.61729058 </i>
    <i name="e_wo_entrp">    -71.61582840 </i>
    <i name="e_0_energy">    -71.61680319 </i>
   </energy>
  </scstep>
  <structure>
   <crystal>
    <varray name="basis" >
     <v>       0.00000000       5.46750000       5.46750000 </v>
     <v>       5.46750000       0.00000000       5.46750000 </v>
     <v>       5.46750000       5.46750000       0.00000000 </v>
    </varray>
    <i name="volume">    326.88603759 </i>
    <varray name="rec_basis" >
     <v>      -0.09144947       0.09144947       0.09144947 </v>
     <v>       0.09144947      -0.09144947       0.09144947 </v>
     <v>       0.09144947       0.09144947      -0.09144947 </v>
    </varray>
   </crystal>
   <varray name="positions" >
    <v>       0.04079223       0.96565805       0.00533359 </v>
    <v>       0.01715641       0.03111664       0.32626946 </v>
    <v>       0.95843014       0.03469088       0.67537452 </v>
    <v>       0.03475898       0.29495675       0.01452081 </v>
    <v>       0.03479805       0.32262890       0.29487685 </v>
    <v>       0.96232860       0.33790976       0.70583014 </v>
    <v>       0.03775573       0.64215929       0.01455147 </v>
    <v>       0.01368470       0.63086866       0.36985972 </v>
    <v>       0.95374633       0.69156570       0.68075784 </v>
    <v>       0.33739118       0.98695473       0.04180088 </v>
    <v>       0.33095592       0.96699931       0.32562377 </v>
    <v>       0.37477643       0.98875753       0.63271536 </v>
    <v>       0.37232569       0.32444825       0.96305904 </v>
    <v>       0.33755809       0.34212860       0.36444457 </v>
    <v>       0.30820138       0.36886931       0.63841971 </v>
    <v>       0.36963111       0.62565710       0.00272257 </v>
    <v>       0.30306848       0.70264484       0.31067805 </v>
    <v>       0.35298461       0.69988189       0.64810184 </v>
    <v>       0.69902605       0.95675431       0.00957276 </v>
    <v>       0.66456287       0.95595807       0.35736811 </v>
    <v>       0.62128707       0.02499026       0.68457491 </v>
    <v>       0.62653381       0.35050415       0.03199408 </v>
    <v>       0.68922533       0.36326329       0.29640122 </v>
    <v>       0.62533293       0.34170228       0.70170744 </v>
    <v>       0.68898423       0.69258199       0.99429279 </v>
    <v>       0.69950649       0.64166247       0.30415369 </v>
    <v>       0.71021087       0.64048950       0.66978427 </v>
   </varray>
  </structure>
  <varray name="forces" >
   <v>       0.69529205      -0.64019706      -0.15695448 </v>
   <v>       0.11946698      -1.32928798      -7.40954749 </v>
   <v>      -1.95525085       1.21539532       1.18363317 </v>
   <v>      -0.75879016      -4.82988254       1.82448831 </v>
   <v>       3.84058525       3.09148497       1.16097551 </v>
   <v>      -3.24395322       2.94567061      -0.52058298 </v>
   <v>      -1.11872577      -1.91540031       1.11693175 </v>
   <v>      -0.82030905      -2.60243857       0.62888314 </v>
   <v>      -0.74820105       3.34437121       5.02653892 </v>
   <v>      -5.07540755      -4.99360480       3.17840305 </v>
   <v>       4.84413564       4.76073822       4.59561808 </v>
   <v>       4.46106986      -1.02861570      -2.70981743 </v>
   <v>       4.42859768      -0.04667931      -5.88824511 </v>
   <v>      -4.45984279      -2.22876938      -1.33192237 </v>
   <v>       3.37297733       3.17673021       0.16570174 </v>
   <v>       3.97642329      -4.12566201       1.56276633 </v>
   <v>      -1.64307180       3.90163361      -2.94858506 </v>
   <v>      -1.30399436      -0.08994951      -3.13721846 </v>
   <v>       4.32801701      -0.69678245       3.10043527 </v>
   <v>      -1.59700236      -0.54681736       3.89137328 </v>
   <v>      -0.71170502       0.67720284       2.05562257 </v>
   <v>      -5.08610977       5.04479833       0.48110910 </v>
   <v>      -0.20324714       1.25807155      -3.65584515 </v>
   <v>      -5.39741304      -0.48087184       5.82759806 </v>
   <v>      -3.05130952      -1.67431441      -4.22545018 </v>
   <v>       4.07549109       2.60809259      -0.44064191 </v>
   <v>       3.03227725      -4.79491622      -3.37526765 </v>
  </varray>
  <varray name="stress" >
   <v>     657.22520273      10.42266524       1.51076388 </v>
   <v>      10.42266608     598.21404781     -10.62626835 </v>
   <v>       1.51076420     -10.62626798     640.65166129 </v>
  </varray>
  <energy>
   <i name="e_fr_energy">    -71.61729058 </i>
   <i name="e_wo_entrp">    -71.61680319 </i>
   <i name="e_0_energy">     -0.00146219 </i>
  </energy>
  <time name="totalsc">   92.10   92.37</time>
  <eigenvalues>
   <array>
    <dimension dim="1">band</dimension>
    <dimension dim="2">kpoint</dimension>
    <dimension dim="3">spin</dimension>
    <field>eigene</field>
    <field>occ</field>
    <set>
     <set comment="spin 1">
      <set comment="kpoint 1">
       <r>   -1.9073    1.0000 </r>
       <r>    0.5357    1.0000 </r>
       <r>    1.1230    1.0000 </r>
       <r>    1.3343    1.0000 </r>
       <r>    1.4774    1.0000 </r>
       <r>    1.8252    1.0000 </r>
       <r>    1.9787    1.0000 </r>
       <r>    2.1672    1.0000 </r>
       <r>    2.3840    1.0000 </r>
       <r>    2.5333    1.0000 </r>
       <r>    2.7012    1.0000 </r>
       <r>    2.9366    1.0000 </r>
       <r>    3.5463    1.0000 </r>
       <r>    3.7028    1.0000 </r>
       <r>    4.0058    1.0000 </r>
       <r>    6.0798    1.0000 </r>
       <r>    6.2831    1.0000 </r>
       <r>    6.5149    1.0000 </r>
       <r>    7.1656    1.0000 </r>
       <r>    7.2638    1.0000 </r>
       <r>    7.3663    1.0000 </r>
       <r>    7.5402    1.0000 </r>
       <r>    7.6844    1.0000 </r>
       <r>    7.8416    1.0000 </r>
       <r>    8.3782    1.0000 </r>
       <r>    8.5311    1.0000 </r>
       <r>    8.8356    1.0000 </r>
       <r>    9.0474    1.0000 </r>
       <r>    9.2557    1.0000 </r>
       <r>    9.3812    1.0000 </r>
       <r>    9.6077    1.0000 </r>
       <r>    9.7340    1.0000 </r>
       <r>    9.9036    1.0000 </r>
       <r>    9.9573    1.0000 </r>
       <r>   10.0940    1.0000 </r>
       <r>   10.1971    1.0000 </r>
       <r>   10.5352    1.0000 </r>
       <r>   10.6456    1.0000 </r>
       <r>   10.7186    1.0000 </r>
       <r>   10.8341    1.0000 </r>
       <r>   11.4807    0.8157 </r>
       <r>   11.5788    0.4309 </r>
       <r>   11.7403   -0.0096 </r>
       <r>   11.8685   -0.0263 </r>
       <r>   11.9855   -0.0054 </r>
       <r>   12.1620   -0.0001 </r>
       <r>   12.3099   -0.0000 </r>
       <r>   12.4161   -0.0000 </r>
       <r>   12.5576   -0.0000 </r>
       <r>   12.5873   -0.0000 </r>
       <r>   12.7641   -0.0000 </r>
       <r>   12.7969   -0.0000 </r>
       <r>   13.0039   -0.0000 </r>
       <r>   13.1006   -0.0000 </r>
       <r>   13.1571   -0.0000 </r>
       <r>   13.3215   -0.0000 </r>
       <r>   13.4521   -0.0000 </r>
       <r>   13.6112   -0.0000 </r>
       <r>   14.1346   -0.0000 </r>
       <r>   15.3704   -0.0000 </r>
       <r>   15.5046   -0.0000 </r>
       <r>   15.6777   -0.0000 </r>
       <r>   16.8513   -0.0000 </r>
       <r>   17.1268    0.0000 </r>
      </set>
      <set comment="kpoint 2">
       <r>   -1.9062    1.0000 </r>
       <r>    0.5706    1.0000 </r>
       <r>    0.9688    1.0000 </r>
       <r>    1.3015    1.0000 </r>
       <r>    1.6902    1.0000 </r>
       <r>    1.8472    1.0000 </r>
       <r>    1.9265    1.0000 </r>
       <r>    2.1392    1.0000 </r>
       <r>    2.3799    1.0000 </r>
       <r>    2.5324    1.0000 </r>
       <r>    2.7714    1.0000 </r>
       <r>    3.0127    1.0000 </r>
       <r>    3.3305    1.0000 </r>
       <r>    3.6748    1.0000 </r>
       <r>    4.1087    1.0000 </r>
       <r>    5.9837    1.0000 </r>
       <r>    6.2679    1.0000 </r>
       <r>    6.7914    1.0000 </r>
       <r>    6.9234    1.0000 </r>
       <r>    7.1462    1.0000 </r>
       <r>    7.4177    1.0000 </r>
       <r>    7.6157    1.0000 </r>
       <r>    7.8829    1.0000 </r>
       <r>    7.9762    1.0000 </r>
       <r>    8.1067    1.0000 </r>
       <r>    8.4474    1.0000 </r>
       <r>    8.8405    1.0000 </r>
       <r>    8.9929    1.0000 </r>
       <r>    9.1983    1.0000 </r>
       <r>    9.5170    1.0000 </r>
       <r>    9.6629    1.0000 </r>
       <r>    9.7618    1.0000 </r>
       <r>    9.8616    1.0000 </r>
       <r>    9.9666    1.0000 </r>
       <r>   10.1266    1.0000 </r>
       <r>   10.2990    1.0000 </r>
       <r>   10.5060    1.0000 </r>
       <r>   10.5610    1.0000 </r>
       <r>   10.7645    1.0000 </r>
       <r>   10.8613    1.0000 </r>
       <r>   11.4357    0.9345 </r>
       <r>   11.6000    0.3439 </r>
       <r>   11.7319   -0.0012 </r>
       <r>   11.8701   -0.0259 </r>
       <r>   12.0361   -0.0020 </r>
       <r>   12.1135   -0.0003 </r>
       <r>   12.2884   -0.0000 </r>
       <r>   12.3865   -0.0000 </r>
       <r>   12.5317   -0.0000 </r>
       <r>   12.6517   -0.0000 </r>
       <r>   12.7151   -0.0000 </r>
       <r>   12.8139   -0.0000 </r>
       <r>   12.9298   -0.0000 </r>
       <r>   13.0097   -0.0000 </r>
       <r>   13.2096   -0.0000 </r>
       <r>   13.3546   -0.0000 </r>
       <r>   13.4114   -0.0000 </r>
       <r>   13.7534   -0.0000 </r>
       <r>   14.0985   -0.0000 </r>
       <r>   15.2602   -0.0000 </r>
       <r>   15.4980   -0.0000 </r>
       <r>   15.7885   -0.0000 </r>
       <r>   16.7652   -0.0000 </r>
       <r>   17.0637    0.0000 </r>
      </set>
      <set comment="kpoint 3">
       <r>   -1.9074    1.0000 </r>
       <r>    0.5505    1.0000 </r>
       <r>    1.0945    1.0000 </r>
       <r>    1.3741    1.0000 </r>
       <r>    1.4485    1.0000 </r>
       <r>    1.7356    1.0000 </r>
       <r>    2.0745    1.0000 </r>
       <r>    2.1946    1.0000 </r>
       <r>    2.3586    1.0000 </r>
       <r>    2.4961    1.0000 </r>
       <r>    2.7315    1.0000 </r>
       <r>    3.0277    1.0000 </r>
       <r>    3.3867    1.0000 </r>
       <r>    3.7433    1.0000 </r>
       <r>    4.0349    1.0000 </r>
       <r>    6.0497    1.0000 </r>
       <r>    6.3173    1.0000 </r>
       <r>    6.6002    1.0000 </r>
       <r>    7.0619    1.0000 </r>
       <r>    7.1969    1.0000 </r>
       <r>    7.3013    1.0000 </r>
       <r>    7.6446    1.0000 </r>
       <r>    7.7906    1.0000 </r>
       <r>    7.8373    1.0000 </r>
       <r>    8.2504    1.0000 </r>
       <r>    8.6034    1.0000 </r>
       <r>    8.8086    1.0000 </r>
       <r>    9.0518    1.0000 </r>
       <r>    9.1579    1.0000 </r>
       <r>    9.4332    1.0000 </r>
       <r>    9.6485    1.0000 </r>
       <r>    9.7863    1.0000 </r>
       <r>    9.8161    1.0000 </r>
       <r>    9.9337    1.0000 </r>
       <r>   10.1890    1.0000 </r>
       <r>   10.2662    1.0000 </r>
       <r>   10.4832    1.0000 </r>
       <r>   10.6185    1.0000 </r>
       <r>   10.7469    1.0000 </r>
       <r>   10.8618    1.0000 </r>
       <r>   11.4665    0.8584 </r>
       <r>   11.6082    0.3116 </r>
       <r>   11.6885    0.0667 </r>
       <r>   11.9359   -0.0120 </r>
       <r>   12.0250   -0.0026 </r>
       <r>   12.0876   -0.0006 </r>
       <r>   12.2929   -0.0000 </r>
       <r>   12.4089   -0.0000 </r>
       <r>   12.4764   -0.0000 </r>
       <r>   12.6475   -0.0000 </r>
       <r>   12.7118   -0.0000 </r>
       <r>   12.8446   -0.0000 </r>
       <r>   12.9355   -0.0000 </r>
       <r>   13.0143   -0.0000 </r>
       <r>   13.2058   -0.0000 </r>
       <r>   13.3399   -0.0000 </r>
       <r>   13.4604   -0.0000 </r>
       <r>   13.6959   -0.0000 </r>
       <r>   14.1176   -0.0000 </r>
       <r>   15.3087   -0.0000 </r>
       <r>   15.5185   -0.0000 </r>
       <r>   15.7381   -0.0000 </r>
       <r>   16.8604   -0.0000 </r>
       <r>   17.1221    0.0000 </r>
      </set>
      <set comment="kpoint 4">
       <r>   -1.9064    1.0000 </r>
       <r>    0.5474    1.0000 </r>
       <r>    1.0041    1.0000 </r>
       <r>    1.3918    1.0000 </r>
       <r>    1.6226    1.0000 </r>
       <r>    1.7729    1.0000 </r>
       <r>    1.9120    1.0000 </r>
       <r>    2.1625    1.0000 </r>
       <r>    2.3277    1.0000 </r>
       <r>    2.6666    1.0000 </r>
       <r>    2.7590    1.0000 </r>
       <r>    2.9592    1.0000 </r>
       <r>    3.2967    1.0000 </r>
       <r>    3.7819    1.0000 </r>
       <r>    4.0478    1.0000 </r>
       <r>    5.8870    1.0000 </r>
       <r>    6.4697    1.0000 </r>
       <r>    6.7029    1.0000 </r>
       <r>    7.0332    1.0000 </r>
       <r>    7.1335    1.0000 </r>
       <r>    7.2914    1.0000 </r>
       <r>    7.6091    1.0000 </r>
       <r>    7.8801    1.0000 </r>
       <r>    7.9709    1.0000 </r>
       <r>    8.0630    1.0000 </r>
       <r>    8.5594    1.0000 </r>
       <r>    8.8773    1.0000 </r>
       <r>    8.9398    1.0000 </r>
       <r>    9.2255    1.0000 </r>
       <r>    9.4381    1.0000 </r>
       <r>    9.6482    1.0000 </r>
       <r>    9.6860    1.0000 </r>
       <r>    9.9012    1.0000 </r>
       <r>    9.9991    1.0000 </r>
       <r>   10.2506    1.0000 </r>
       <r>   10.3133    1.0000 </r>
       <r>   10.4459    1.0000 </r>
       <r>   10.5302    1.0000 </r>
       <r>   10.7149    1.0000 </r>
       <r>   10.8914    1.0000 </r>
       <r>   11.4540    0.8923 </r>
       <r>   11.5736    0.4525 </r>
       <r>   11.7675   -0.0276 </r>
       <r>   11.8610   -0.0280 </r>
       <r>   12.0620   -0.0012 </r>
       <r>   12.1746   -0.0001 </r>
       <r>   12.2634   -0.0000 </r>
       <r>   12.3479   -0.0000 </r>
       <r>   12.4764   -0.0000 </r>
       <r>   12.6102   -0.0000 </r>
       <r>   12.7623   -0.0000 </r>
       <r>   12.8584   -0.0000 </r>
       <r>   12.9430   -0.0000 </r>
       <r>   13.0182   -0.0000 </r>
       <r>   13.1154   -0.0000 </r>
       <r>   13.3636   -0.0000 </r>
       <r>   13.5168   -0.0000 </r>
       <r>   13.6518   -0.0000 </r>
       <r>   14.1337   -0.0000 </r>
       <r>   15.2739   -0.0000 </r>
       <r>   15.5781   -0.0000 </r>
       <r>   15.7104   -0.0000 </r>
       <r>   16.6793   -0.0000 </r>
       <r>   17.1496    0.0000 </r>
      </set>
      <set comment="kpoint 5">
       <r>   -1.6122    1.0000 </r>
       <r>   -0.1487    1.0000 </r>
       <r>    0.3885    1.0000 </r>
       <r>    1.2038    1.0000 </r>
       <r>    1.4161    1.0000 </r>
       <r>    1.7346    1.0000 </r>
       <r>    2.0167    1.0000 </r>
       <r>    2.3560    1.0000 </r>
       <r>    2.3923    1.0000 </r>
       <r>    2.8244    1.0000 </r>
       <r>    3.6300    1.0000 </r>
       <r>    3.7994    1.0000 </r>
       <r>    4.1860    1.0000 </r>
       <r>    4.3711    1.0000 </r>
       <r>    5.0407    1.0000 </r>
       <r>    5.2548    1.0000 </r>
       <r>    5.4757    1.0000 </r>
       <r>    5.7534    1.0000 </r>
       <r>    6.4304    1.0000 </r>
       <r>    6.6944    1.0000 </r>
       <r>    7.2566    1.0000 </r>
       <r>    7.3899    1.0000 </r>
       <r>    7.6301    1.0000 </r>
       <r>    7.7276    1.0000 </r>
       <r>    8.0885    1.0000 </r>
       <r>    8.1858    1.0000 </r>
       <r>    8.4549    1.0000 </r>
       <r>    8.6159    1.0000 </r>
       <r>    9.1133    1.0000 </r>
       <r>    9.2335    1.0000 </r>
       <r>    9.3347    1.0000 </r>
       <r>    9.5385    1.0000 </r>
       <r>    9.6110    1.0000 </r>
       <r>    9.7578    1.0000 </r>
       <r>    9.8578    1.0000 </r>
       <r>   10.0900    1.0000 </r>
       <r>   10.1400    1.0000 </r>
       <r>   10.2863    1.0000 </r>
       <r>   10.5203    1.0000 </r>
       <r>   10.8053    1.0000 </r>
       <r>   11.6441    0.1841 </r>
       <r>   11.8552   -0.0292 </r>
       <r>   11.8807   -0.0234 </r>
       <r>   12.3169   -0.0000 </r>
       <r>   12.5057   -0.0000 </r>
       <r>   12.6436   -0.0000 </r>
       <r>   12.8923   -0.0000 </r>
       <r>   12.9758   -0.0000 </r>
       <r>   13.1377   -0.0000 </r>
       <r>   13.2284   -0.0000 </r>
       <r>   13.4313   -0.0000 </r>
       <r>   13.6537   -0.0000 </r>
       <r>   13.7897   -0.0000 </r>
       <r>   13.8726   -0.0000 </r>
       <r>   14.4396   -0.0000 </r>
       <r>   14.5790   -0.0000 </r>
       <r>   14.7945   -0.0000 </r>
       <r>   14.9261   -0.0000 </r>
       <r>   15.1487   -0.0000 </r>
       <r>   15.3133   -0.0000 </r>
       <r>   15.3903   -0.0000 </r>
       <r>   15.6332   -0.0000 </r>
       <r>   15.6510   -0.0000 </r>
       <r>   15.8803   -0.0000 </r>
      </set>
      <set comment="kpoint 6">
       <r>   -1.6119    1.0000 </r>
       <r>   -0.1940    1.0000 </r>
       <r>    0.5131    1.0000 </r>
       <r>    1.1002    1.0000 </r>
       <r>    1.4779    1.0000 </r>
       <r>    1.7324    1.0000 </r>
       <r>    1.9280    1.0000 </r>
       <r>    2.2022    1.0000 </r>
       <r>    2.6182    1.0000 </r>
       <r>    2.8241    1.0000 </r>
       <r>    3.5235    1.0000 </r>
       <r>    3.8660    1.0000 </r>
       <r>    4.2366    1.0000 </r>
       <r>    4.4233    1.0000 </r>
       <r>    4.9002    1.0000 </r>
       <r>    5.2751    1.0000 </r>
       <r>    5.4537    1.0000 </r>
       <r>    5.8246    1.0000 </r>
       <r>    6.4196    1.0000 </r>
       <r>    6.7383    1.0000 </r>
       <r>    7.1072    1.0000 </r>
       <r>    7.4955    1.0000 </r>
       <r>    7.7221    1.0000 </r>
       <r>    7.8608    1.0000 </r>
       <r>    7.8975    1.0000 </r>
       <r>    8.2042    1.0000 </r>
       <r>    8.4278    1.0000 </r>
       <r>    8.6427    1.0000 </r>
       <r>    9.0127    1.0000 </r>
       <r>    9.2553    1.0000 </r>
       <r>    9.3151    1.0000 </r>
       <r>    9.3612    1.0000 </r>
       <r>    9.6143    1.0000 </r>
       <r>    9.7683    1.0000 </r>
       <r>    9.9317    1.0000 </r>
       <r>   10.1672    1.0000 </r>
       <r>   10.2641    1.0000 </r>
       <r>   10.3807    1.0000 </r>
       <r>   10.4968    1.0000 </r>
       <r>   10.7277    1.0000 </r>
       <r>   11.5579    0.5191 </r>
       <r>   11.8489   -0.0305 </r>
       <r>   11.9965   -0.0044 </r>
       <r>   12.2416   -0.0000 </r>
       <r>   12.3791   -0.0000 </r>
       <r>   12.7212   -0.0000 </r>
       <r>   12.8399   -0.0000 </r>
       <r>   12.9966   -0.0000 </r>
       <r>   13.2044   -0.0000 </r>
       <r>   13.3013   -0.0000 </r>
       <r>   13.5063   -0.0000 </r>
       <r>   13.5866   -0.0000 </r>
       <r>   13.7670   -0.0000 </r>
       <r>   13.8953   -0.0000 </r>
       <r>   14.3523   -0.0000 </r>
       <r>   14.5139   -0.0000 </r>
       <r>   14.6248   -0.0000 </r>
       <r>   14.9491   -0.0000 </r>
       <r>   15.1073   -0.0000 </r>
       <r>   15.3711   -0.0000 </r>
       <r>   15.4964   -0.0000 </r>
       <r>   15.5898   -0.0000 </r>
       <r>   15.7019   -0.0000 </r>
       <r>   15.9262   -0.0000 </r>
      </set>
      <set comment="kpoint 7">
       <r>   -1.6209    1.0000 </r>
       <r>   -0.1416    1.0000 </r>
       <r>    0.4809    1.0000 </r>
       <r>    1.1491    1.0000 </r>
       <r>    1.4125    1.0000 </r>
       <r>    1.7639    1.0000 </r>
       <r>    1.8241    1.0000 </r>
       <r>    2.2653    1.0000 </r>
       <r>    2.5251    1.0000 </r>
       <r>    2.8600    1.0000 </r>
       <r>    3.5596    1.0000 </r>
       <r>    3.9117    1.0000 </r>
       <r>    4.2572    1.0000 </r>
       <r>    4.4360    1.0000 </r>
       <r>    5.0233    1.0000 </r>
       <r>    5.1773    1.0000 </r>
       <r>    5.5387    1.0000 </r>
       <r>    5.6725    1.0000 </r>
       <r>    6.4530    1.0000 </r>
       <r>    6.6411    1.0000 </r>
       <r>    7.3149    1.0000 </r>
       <r>    7.4306    1.0000 </r>
       <r>    7.6551    1.0000 </r>
       <r>    7.7505    1.0000 </r>
       <r>    7.9268    1.0000 </r>
       <r>    8.1799    1.0000 </r>
       <r>    8.3931    1.0000 </r>
       <r>    8.7608    1.0000 </r>
       <r>    9.0320    1.0000 </r>
       <r>    9.1957    1.0000 </r>
       <r>    9.3509    1.0000 </r>
       <r>    9.3960    1.0000 </r>
       <r>    9.6509    1.0000 </r>
       <r>    9.8543    1.0000 </r>
       <r>    9.9840    1.0000 </r>
       <r>   10.0908    1.0000 </r>
       <r>   10.1631    1.0000 </r>
       <r>   10.2542    1.0000 </r>
       <r>   10.4877    1.0000 </r>
       <r>   10.6832    1.0000 </r>
       <r>   11.7754   -0.0306 </r>
       <r>   11.8281   -0.0340 </r>
       <r>   11.9377   -0.0117 </r>
       <r>   12.1516   -0.0001 </r>
       <r>   12.5380   -0.0000 </r>
       <r>   12.6798   -0.0000 </r>
       <r>   12.8556   -0.0000 </r>
       <r>   12.9299   -0.0000 </r>
       <r>   13.2640   -0.0000 </r>
       <r>   13.3429   -0.0000 </r>
       <r>   13.5230   -0.0000 </r>
       <r>   13.6042   -0.0000 </r>
       <r>   13.7616   -0.0000 </r>
       <r>   13.8402   -0.0000 </r>
       <r>   14.4241   -0.0000 </r>
       <r>   14.4881   -0.0000 </r>
       <r>   14.7110   -0.0000 </r>
       <r>   14.8792   -0.0000 </r>
       <r>   15.1666   -0.0000 </r>
       <r>   15.2667   -0.0000 </r>
       <r>   15.4906   -0.0000 </r>
       <r>   15.6140   -0.0000 </r>
       <r>   15.6728   -0.0000 </r>
       <r>   16.0178   -0.0000 </r>
      </set>
      <set comment="kpoint 8">
       <r>   -1.6165    1.0000 </r>
       <r>   -0.1694    1.0000 </r>
       <r>    0.5311    1.0000 </r>
       <r>    1.0634    1.0000 </r>
       <r>    1.4649    1.0000 </r>
       <r>    1.6793    1.0000 </r>
       <r>    1.8810    1.0000 </r>
       <r>    2.2846    1.0000 </r>
       <r>    2.6479    1.0000 </r>
       <r>    2.8255    1.0000 </r>
       <r>    3.4996    1.0000 </r>
       <r>    3.9213    1.0000 </r>
       <r>    4.2836    1.0000 </r>
       <r>    4.4589    1.0000 </r>
       <r>    4.7877    1.0000 </r>
       <r>    5.3427    1.0000 </r>
       <r>    5.3645    1.0000 </r>
       <r>    5.8425    1.0000 </r>
       <r>    6.3581    1.0000 </r>
       <r>    6.8792    1.0000 </r>
       <r>    7.0535    1.0000 </r>
       <r>    7.4618    1.0000 </r>
       <r>    7.6378    1.0000 </r>
       <r>    7.8583    1.0000 </r>
       <r>    7.9875    1.0000 </r>
       <r>    8.3432    1.0000 </r>
       <r>    8.3586    1.0000 </r>
       <r>    8.5909    1.0000 </r>
       <r>    8.8757    1.0000 </r>
       <r>    9.1998    1.0000 </r>
       <r>    9.3209    1.0000 </r>
       <r>    9.4982    1.0000 </r>
       <r>    9.5925    1.0000 </r>
       <r>    9.7661    1.0000 </r>
       <r>    9.9686    1.0000 </r>
       <r>   10.1220    1.0000 </r>
       <r>   10.2189    1.0000 </r>
       <r>   10.4588    1.0000 </r>
       <r>   10.5709    1.0000 </r>
       <r>   10.6937    1.0000 </r>
       <r>   11.6736    0.1007 </r>
       <r>   11.8732   -0.0252 </r>
       <r>   11.9220   -0.0145 </r>
       <r>   12.1114   -0.0004 </r>
       <r>   12.5031   -0.0000 </r>
       <r>   12.7581   -0.0000 </r>
       <r>   12.8237   -0.0000 </r>
       <r>   12.9761   -0.0000 </r>
       <r>   13.0564   -0.0000 </r>
       <r>   13.3705   -0.0000 </r>
       <r>   13.4749   -0.0000 </r>
       <r>   13.6538   -0.0000 </r>
       <r>   13.8256   -0.0000 </r>
       <r>   13.9397   -0.0000 </r>
       <r>   14.2850   -0.0000 </r>
       <r>   14.4232   -0.0000 </r>
       <r>   14.6458   -0.0000 </r>
       <r>   14.9949   -0.0000 </r>
       <r>   15.0740   -0.0000 </r>
       <r>   15.2925   -0.0000 </r>
       <r>   15.4531   -0.0000 </r>
       <r>   15.5962   -0.0000 </r>
       <r>   15.7423   -0.0000 </r>
       <r>   16.0038   -0.0000 </r>
      </set>
      <set comment="kpoint 9">
       <r>   -1.6171    1.0000 </r>
       <r>   -0.1551    1.0000 </r>
       <r>    0.4440    1.0000 </r>
       <r>    1.2281    1.0000 </r>
       <r>    1.4113    1.0000 </r>
       <r>    1.7156    1.0000 </r>
       <r>    1.8686    1.0000 </r>
       <r>    2.3269    1.0000 </r>
       <r>    2.5397    1.0000 </r>
       <r>    2.7464    1.0000 </r>
       <r>    3.5688    1.0000 </r>
       <r>    3.9162    1.0000 </r>
       <r>    4.2184    1.0000 </r>
       <r>    4.4247    1.0000 </r>
       <r>    5.0118    1.0000 </r>
       <r>    5.2071    1.0000 </r>
       <r>    5.4674    1.0000 </r>
       <r>    5.6925    1.0000 </r>
       <r>    6.5276    1.0000 </r>
       <r>    6.7538    1.0000 </r>
       <r>    7.2590    1.0000 </r>
       <r>    7.3818    1.0000 </r>
       <r>    7.6893    1.0000 </r>
       <r>    7.8809    1.0000 </r>
       <r>    7.9907    1.0000 </r>
       <r>    8.0429    1.0000 </r>
       <r>    8.4117    1.0000 </r>
       <r>    8.6532    1.0000 </r>
       <r>    8.9379    1.0000 </r>
       <r>    9.1340    1.0000 </r>
       <r>    9.4230    1.0000 </r>
       <r>    9.4761    1.0000 </r>
       <r>    9.6305    1.0000 </r>
       <r>    9.8010    1.0000 </r>
       <r>    9.9611    1.0000 </r>
       <r>   10.0494    1.0000 </r>
       <r>   10.1169    1.0000 </r>
       <r>   10.3811    1.0000 </r>
       <r>   10.5039    1.0000 </r>
       <r>   10.7662    1.0000 </r>
       <r>   11.6726    0.1032 </r>
       <r>   11.8582   -0.0286 </r>
       <r>   11.9337   -0.0124 </r>
       <r>   12.0739   -0.0009 </r>
       <r>   12.6723   -0.0000 </r>
       <r>   12.6854   -0.0000 </r>
       <r>   12.8402   -0.0000 </r>
       <r>   12.9947   -0.0000 </r>
       <r>   13.2294   -0.0000 </r>
       <r>   13.3639   -0.0000 </r>
       <r>   13.4380   -0.0000 </r>
       <r>   13.6028   -0.0000 </r>
       <r>   13.7337   -0.0000 </r>
       <r>   13.8320   -0.0000 </r>
       <r>   14.4920   -0.0000 </r>
       <r>   14.6025   -0.0000 </r>
       <r>   14.7051   -0.0000 </r>
       <r>   14.9295   -0.0000 </r>
       <r>   15.1185   -0.0000 </r>
       <r>   15.3069   -0.0000 </r>
       <r>   15.4530   -0.0000 </r>
       <r>   15.5662   -0.0000 </r>
       <r>   15.6643   -0.0000 </r>
       <r>   15.8214   -0.0000 </r>
      </set>
      <set comment="kpoint 10">
       <r>   -1.6088    1.0000 </r>
       <r>   -0.1878    1.0000 </r>
       <r>    0.4683    1.0000 </r>
       <r>    1.1434    1.0000 </r>
       <r>    1.3900    1.0000 </r>
       <r>    1.7331    1.0000 </r>
       <r>    2.0838    1.0000 </r>
       <r>    2.1427    1.0000 </r>
       <r>    2.6505    1.0000 </r>
       <r>    2.8586    1.0000 </r>
       <r>    3.4638    1.0000 </r>
       <r>    3.8979    1.0000 </r>
       <r>    4.2437    1.0000 </r>
       <r>    4.3784    1.0000 </r>
       <r>    4.8109    1.0000 </r>
       <r>    5.3226    1.0000 </r>
       <r>    5.3796    1.0000 </r>
       <r>    5.9242    1.0000 </r>
       <r>    6.2835    1.0000 </r>
       <r>    6.9185    1.0000 </r>
       <r>    7.0588    1.0000 </r>
       <r>    7.4784    1.0000 </r>
       <r>    7.6524    1.0000 </r>
       <r>    7.8549    1.0000 </r>
       <r>    8.0287    1.0000 </r>
       <r>    8.2827    1.0000 </r>
       <r>    8.4551    1.0000 </r>
       <r>    8.6084    1.0000 </r>
       <r>    8.8985    1.0000 </r>
       <r>    9.0865    1.0000 </r>
       <r>    9.4279    1.0000 </r>
       <r>    9.5396    1.0000 </r>
       <r>    9.5917    1.0000 </r>
       <r>    9.6874    1.0000 </r>
       <r>    9.9388    1.0000 </r>
       <r>    9.9997    1.0000 </r>
       <r>   10.2573    1.0000 </r>
       <r>   10.4558    1.0000 </r>
       <r>   10.6422    1.0000 </r>
       <r>   10.6780    1.0000 </r>
       <r>   11.6410    0.1941 </r>
       <r>   11.8046   -0.0354 </r>
       <r>   12.0363   -0.0020 </r>
       <r>   12.1447   -0.0002 </r>
       <r>   12.4659   -0.0000 </r>
       <r>   12.7001   -0.0000 </r>
       <r>   12.8771   -0.0000 </r>
       <r>   13.0323   -0.0000 </r>
       <r>   13.1467   -0.0000 </r>
       <r>   13.3496   -0.0000 </r>
       <r>   13.4492   -0.0000 </r>
       <r>   13.5631   -0.0000 </r>
       <r>   13.7234   -0.0000 </r>
       <r>   13.9966   -0.0000 </r>
       <r>   14.1624   -0.0000 </r>
       <r>   14.5020   -0.0000 </r>
       <r>   14.6489   -0.0000 </r>
       <r>   14.9601   -0.0000 </r>
       <r>   15.1241   -0.0000 </r>
       <r>   15.2909   -0.0000 </r>
       <r>   15.3737   -0.0000 </r>
       <r>   15.5336   -0.0000 </r>
       <r>   15.8268   -0.0000 </r>
       <r>   16.0410   -0.0000 </r>
      </set>
      <set comment="kpoint 11">
       <r>   -1.6147    1.0000 </r>
       <r>   -0.1583    1.0000 </r>
       <r>    0.4389    1.0000 </r>
       <r>    1.1212    1.0000 </r>
       <r>    1.5025    1.0000 </r>
       <r>    1.8007    1.0000 </r>
       <r>    1.9294    1.0000 </r>
       <r>    2.1589    1.0000 </r>
       <r>    2.5709    1.0000 </r>
       <r>    2.7916    1.0000 </r>
       <r>    3.6009    1.0000 </r>
       <r>    3.8380    1.0000 </r>
       <r>    4.2073    1.0000 </r>
       <r>    4.4004    1.0000 </r>
       <r>    4.9959    1.0000 </r>
       <r>    5.2080    1.0000 </r>
       <r>    5.5395    1.0000 </r>
       <r>    5.7438    1.0000 </r>
       <r>    6.4900    1.0000 </r>
       <r>    6.7585    1.0000 </r>
       <r>    7.1505    1.0000 </r>
       <r>    7.4697    1.0000 </r>
       <r>    7.6006    1.0000 </r>
       <r>    7.7934    1.0000 </r>
       <r>    7.9500    1.0000 </r>
       <r>    8.2139    1.0000 </r>
       <r>    8.4215    1.0000 </r>
       <r>    8.6520    1.0000 </r>
       <r>    8.9550    1.0000 </r>
       <r>    9.2887    1.0000 </r>
       <r>    9.3556    1.0000 </r>
       <r>    9.4638    1.0000 </r>
       <r>    9.6065    1.0000 </r>
       <r>    9.7490    1.0000 </r>
       <r>    9.9302    1.0000 </r>
       <r>   10.0455    1.0000 </r>
       <r>   10.1536    1.0000 </r>
       <r>   10.4242    1.0000 </r>
       <r>   10.5397    1.0000 </r>
       <r>   10.8332    1.0000 </r>
       <r>   11.6066    0.3178 </r>
       <r>   11.7798   -0.0320 </r>
       <r>   11.9644   -0.0077 </r>
       <r>   12.2048   -0.0000 </r>
       <r>   12.5099   -0.0000 </r>
       <r>   12.6040   -0.0000 </r>
       <r>   12.8766   -0.0000 </r>
       <r>   13.0793   -0.0000 </r>
       <r>   13.1627   -0.0000 </r>
       <r>   13.2894   -0.0000 </r>
       <r>   13.5116   -0.0000 </r>
       <r>   13.6175   -0.0000 </r>
       <r>   13.7698   -0.0000 </r>
       <r>   13.8071   -0.0000 </r>
       <r>   14.3229   -0.0000 </r>
       <r>   14.5475   -0.0000 </r>
       <r>   14.7129   -0.0000 </r>
       <r>   14.9396   -0.0000 </r>
       <r>   15.2158   -0.0000 </r>
       <r>   15.2675   -0.0000 </r>
       <r>   15.4598   -0.0000 </r>
       <r>   15.5612   -0.0000 </r>
       <r>   15.7847   -0.0000 </r>
       <r>   15.9406   -0.0000 </r>
      </set>
      <set comment="kpoint 12">
       <r>   -1.6106    1.0000 </r>
       <r>   -0.1792    1.0000 </r>
       <r>    0.4917    1.0000 </r>
       <r>    1.0307    1.0000 </r>
       <r>    1.5251    1.0000 </r>
       <r>    1.7116    1.0000 </r>
       <r>    1.9784    1.0000 </r>
       <r>    2.2158    1.0000 </r>
       <r>    2.5906    1.0000 </r>
       <r>    2.8934    1.0000 </r>
       <r>    3.5558    1.0000 </r>
       <r>    3.7931    1.0000 </r>
       <r>    4.2482    1.0000 </r>
       <r>    4.4544    1.0000 </r>
       <r>    4.8181    1.0000 </r>
       <r>    5.3124    1.0000 </r>
       <r>    5.3863    1.0000 </r>
       <r>    5.8700    1.0000 </r>
       <r>    6.3619    1.0000 </r>
       <r>    6.8518    1.0000 </r>
       <r>    7.0496    1.0000 </r>
       <r>    7.4219    1.0000 </r>
       <r>    7.5873    1.0000 </r>
       <r>    7.9127    1.0000 </r>
       <r>    7.9610    1.0000 </r>
       <r>    8.2988    1.0000 </r>
       <r>    8.4726    1.0000 </r>
       <r>    8.6103    1.0000 </r>
       <r>    8.9915    1.0000 </r>
       <r>    9.1739    1.0000 </r>
       <r>    9.3223    1.0000 </r>
       <r>    9.5491    1.0000 </r>
       <r>    9.6617    1.0000 </r>
       <r>    9.7351    1.0000 </r>
       <r>    9.9637    1.0000 </r>
       <r>   10.0998    1.0000 </r>
       <r>   10.1955    1.0000 </r>
       <r>   10.2448    1.0000 </r>
       <r>   10.5932    1.0000 </r>
       <r>   10.8065    1.0000 </r>
       <r>   11.6183    0.2733 </r>
       <r>   11.8604   -0.0281 </r>
       <r>   11.9398   -0.0113 </r>
       <r>   12.1456   -0.0001 </r>
       <r>   12.4577   -0.0000 </r>
       <r>   12.6931   -0.0000 </r>
       <r>   12.9070   -0.0000 </r>
       <r>   13.0395   -0.0000 </r>
       <r>   13.0836   -0.0000 </r>
       <r>   13.3007   -0.0000 </r>
       <r>   13.3614   -0.0000 </r>
       <r>   13.6927   -0.0000 </r>
       <r>   13.8590   -0.0000 </r>
       <r>   13.9727   -0.0000 </r>
       <r>   14.2853   -0.0000 </r>
       <r>   14.4447   -0.0000 </r>
       <r>   14.7244   -0.0000 </r>
       <r>   14.8255   -0.0000 </r>
       <r>   15.0862   -0.0000 </r>
       <r>   15.2119   -0.0000 </r>
       <r>   15.4090   -0.0000 </r>
       <r>   15.6362   -0.0000 </r>
       <r>   15.8555   -0.0000 </r>
       <r>   16.0216   -0.0000 </r>
      </set>
      <set comment="kpoint 13">
       <r>   -1.6200    1.0000 </r>
       <r>   -0.1558    1.0000 </r>
       <r>    0.4998    1.0000 </r>
       <r>    1.1453    1.0000 </r>
       <r>    1.4225    1.0000 </r>
       <r>    1.7830    1.0000 </r>
       <r>    1.8039    1.0000 </r>
       <r>    2.2742    1.0000 </r>
       <r>    2.5155    1.0000 </r>
       <r>    2.8391    1.0000 </r>
       <r>    3.5278    1.0000 </r>
       <r>    3.9438    1.0000 </r>
       <r>    4.2882    1.0000 </r>
       <r>    4.4438    1.0000 </r>
       <r>    5.0064    1.0000 </r>
       <r>    5.1697    1.0000 </r>
       <r>    5.4894    1.0000 </r>
       <r>    5.6469    1.0000 </r>
       <r>    6.5435    1.0000 </r>
       <r>    6.6751    1.0000 </r>
       <r>    7.3033    1.0000 </r>
       <r>    7.4135    1.0000 </r>
       <r>    7.7149    1.0000 </r>
       <r>    7.7802    1.0000 </r>
       <r>    7.8358    1.0000 </r>
       <r>    8.2145    1.0000 </r>
       <r>    8.3790    1.0000 </r>
       <r>    8.7233    1.0000 </r>
       <r>    9.0135    1.0000 </r>
       <r>    9.1331    1.0000 </r>
       <r>    9.3774    1.0000 </r>
       <r>    9.4433    1.0000 </r>
       <r>    9.6342    1.0000 </r>
       <r>    9.8913    1.0000 </r>
       <r>    9.9223    1.0000 </r>
       <r>   10.1087    1.0000 </r>
       <r>   10.1675    1.0000 </r>
       <r>   10.3158    1.0000 </r>
       <r>   10.4561    1.0000 </r>
       <r>   10.6517    1.0000 </r>
       <r>   11.7141    0.0212 </r>
       <r>   11.8774   -0.0242 </r>
       <r>   11.9554   -0.0089 </r>
       <r>   12.1281   -0.0002 </r>
       <r>   12.5562   -0.0000 </r>
       <r>   12.6262   -0.0000 </r>
       <r>   12.7785   -0.0000 </r>
       <r>   13.0638   -0.0000 </r>
       <r>   13.2822   -0.0000 </r>
       <r>   13.3920   -0.0000 </r>
       <r>   13.5407   -0.0000 </r>
       <r>   13.6465   -0.0000 </r>
       <r>   13.7066   -0.0000 </r>
       <r>   13.8354   -0.0000 </r>
       <r>   14.3598   -0.0000 </r>
       <r>   14.6039   -0.0000 </r>
       <r>   14.7257   -0.0000 </r>
       <r>   14.8406   -0.0000 </r>
       <r>   15.0982   -0.0000 </r>
       <r>   15.3241   -0.0000 </r>
       <r>   15.4833   -0.0000 </r>
       <r>   15.5821   -0.0000 </r>
       <r>   15.6754   -0.0000 </r>
       <r>   15.8859   -0.0000 </r>
      </set>
      <set comment="kpoint 14">
       <r>   -1.6156    1.0000 </r>
       <r>   -0.1946    1.0000 </r>
       <r>    0.5703    1.0000 </r>
       <r>    1.1204    1.0000 </r>
       <r>    1.4027    1.0000 </r>
       <r>    1.5910    1.0000 </r>
       <r>    2.0491    1.0000 </r>
       <r>    2.3196    1.0000 </r>
       <r>    2.5033    1.0000 </r>
       <r>    2.7746    1.0000 </r>
       <r>    3.5381    1.0000 </r>
       <r>    3.9075    1.0000 </r>
       <r>    4.3226    1.0000 </r>
       <r>    4.4434    1.0000 </r>
       <r>    4.8604    1.0000 </r>
       <r>    5.2727    1.0000 </r>
       <r>    5.4002    1.0000 </r>
       <r>    5.7544    1.0000 </r>
       <r>    6.4109    1.0000 </r>
       <r>    6.8632    1.0000 </r>
       <r>    7.2092    1.0000 </r>
       <r>    7.4905    1.0000 </r>
       <r>    7.7330    1.0000 </r>
       <r>    7.8026    1.0000 </r>
       <r>    7.9439    1.0000 </r>
       <r>    8.1415    1.0000 </r>
       <r>    8.3690    1.0000 </r>
       <r>    8.6276    1.0000 </r>
       <r>    8.8531    1.0000 </r>
       <r>    9.1855    1.0000 </r>
       <r>    9.3007    1.0000 </r>
       <r>    9.5290    1.0000 </r>
       <r>    9.5902    1.0000 </r>
       <r>    9.9247    1.0000 </r>
       <r>    9.9648    1.0000 </r>
       <r>   10.1591    1.0000 </r>
       <r>   10.2239    1.0000 </r>
       <r>   10.3823    1.0000 </r>
       <r>   10.4179    1.0000 </r>
       <r>   10.6796    1.0000 </r>
       <r>   11.5556    0.5287 </r>
       <r>   11.9179   -0.0153 </r>
       <r>   11.9850   -0.0055 </r>
       <r>   12.1037   -0.0004 </r>
       <r>   12.4675   -0.0000 </r>
       <r>   12.7961   -0.0000 </r>
       <r>   12.8986   -0.0000 </r>
       <r>   12.9903   -0.0000 </r>
       <r>   13.2015   -0.0000 </r>
       <r>   13.2918   -0.0000 </r>
       <r>   13.4809   -0.0000 </r>
       <r>   13.6799   -0.0000 </r>
       <r>   13.7618   -0.0000 </r>
       <r>   13.8940   -0.0000 </r>
       <r>   14.3646   -0.0000 </r>
       <r>   14.4809   -0.0000 </r>
       <r>   14.7831   -0.0000 </r>
       <r>   14.8897   -0.0000 </r>
       <r>   15.1085   -0.0000 </r>
       <r>   15.2009   -0.0000 </r>
       <r>   15.3895   -0.0000 </r>
       <r>   15.6415   -0.0000 </r>
       <r>   15.7912   -0.0000 </r>
       <r>   15.9082   -0.0000 </r>
      </set>
      <set comment="kpoint 15">
       <r>   -1.6194    1.0000 </r>
       <r>   -0.1457    1.0000 </r>
       <r>    0.4680    1.0000 </r>
       <r>    1.1582    1.0000 </r>
       <r>    1.4351    1.0000 </r>
       <r>    1.6210    1.0000 </r>
       <r>    2.0119    1.0000 </r>
       <r>    2.2845    1.0000 </r>
       <r>    2.5383    1.0000 </r>
       <r>    2.7540    1.0000 </r>
       <r>    3.6422    1.0000 </r>
       <r>    3.8045    1.0000 </r>
       <r>    4.2498    1.0000 </r>
       <r>    4.4407    1.0000 </r>
       <r>    4.9805    1.0000 </r>
       <r>    5.2218    1.0000 </r>
       <r>    5.4928    1.0000 </r>
       <r>    5.7336    1.0000 </r>
       <r>    6.4951    1.0000 </r>
       <r>    6.7572    1.0000 </r>
       <r>    7.2355    1.0000 </r>
       <r>    7.4068    1.0000 </r>
       <r>    7.5753    1.0000 </r>
       <r>    7.8930    1.0000 </r>
       <r>    7.9706    1.0000 </r>
       <r>    8.1143    1.0000 </r>
       <r>    8.3844    1.0000 </r>
       <r>    8.5856    1.0000 </r>
       <r>    8.9953    1.0000 </r>
       <r>    9.1616    1.0000 </r>
       <r>    9.3734    1.0000 </r>
       <r>    9.5259    1.0000 </r>
       <r>    9.7180    1.0000 </r>
       <r>    9.7371    1.0000 </r>
       <r>    9.9422    1.0000 </r>
       <r>   10.1205    1.0000 </r>
       <r>   10.1742    1.0000 </r>
       <r>   10.2823    1.0000 </r>
       <r>   10.5778    1.0000 </r>
       <r>   10.7535    1.0000 </r>
       <r>   11.5943    0.3666 </r>
       <r>   11.8296   -0.0338 </r>
       <r>   11.9765   -0.0063 </r>
       <r>   12.1809   -0.0001 </r>
       <r>   12.5422   -0.0000 </r>
       <r>   12.6969   -0.0000 </r>
       <r>   12.9240   -0.0000 </r>
       <r>   13.0156   -0.0000 </r>
       <r>   13.1665   -0.0000 </r>
       <r>   13.2243   -0.0000 </r>
       <r>   13.5378   -0.0000 </r>
       <r>   13.6189   -0.0000 </r>
       <r>   13.6513   -0.0000 </r>
       <r>   13.8600   -0.0000 </r>
       <r>   14.3842   -0.0000 </r>
       <r>   14.6434   -0.0000 </r>
       <r>   14.7831   -0.0000 </r>
       <r>   14.8918   -0.0000 </r>
       <r>   15.0668   -0.0000 </r>
       <r>   15.3089   -0.0000 </r>
       <r>   15.4459   -0.0000 </r>
       <r>   15.6083   -0.0000 </r>
       <r>   15.7669   -0.0000 </r>
       <r>   15.8606   -0.0000 </r>
      </set>
      <set comment="kpoint 16">
       <r>   -1.6075    1.0000 </r>
       <r>   -0.1858    1.0000 </r>
       <r>    0.4694    1.0000 </r>
       <r>    1.0803    1.0000 </r>
       <r>    1.4389    1.0000 </r>
       <r>    1.7124    1.0000 </r>
       <r>    2.0477    1.0000 </r>
       <r>    2.2510    1.0000 </r>
       <r>    2.6382    1.0000 </r>
       <r>    2.8608    1.0000 </r>
       <r>    3.4647    1.0000 </r>
       <r>    3.8591    1.0000 </r>
       <r>    4.2551    1.0000 </r>
       <r>    4.3762    1.0000 </r>
       <r>    4.8210    1.0000 </r>
       <r>    5.2716    1.0000 </r>
       <r>    5.3912    1.0000 </r>
       <r>    5.9434    1.0000 </r>
       <r>    6.3199    1.0000 </r>
       <r>    6.8669    1.0000 </r>
       <r>    7.0413    1.0000 </r>
       <r>    7.4535    1.0000 </r>
       <r>    7.6640    1.0000 </r>
       <r>    7.8843    1.0000 </r>
       <r>    7.9976    1.0000 </r>
       <r>    8.2513    1.0000 </r>
       <r>    8.4531    1.0000 </r>
       <r>    8.6265    1.0000 </r>
       <r>    9.0135    1.0000 </r>
       <r>    9.1530    1.0000 </r>
       <r>    9.3180    1.0000 </r>
       <r>    9.5432    1.0000 </r>
       <r>    9.6811    1.0000 </r>
       <r>    9.7579    1.0000 </r>
       <r>    9.8926    1.0000 </r>
       <r>   10.0332    1.0000 </r>
       <r>   10.1958    1.0000 </r>
       <r>   10.3042    1.0000 </r>
       <r>   10.6234    1.0000 </r>
       <r>   10.7440    1.0000 </r>
       <r>   11.6745    0.0985 </r>
       <r>   11.8033   -0.0354 </r>
       <r>   11.9300   -0.0130 </r>
       <r>   12.1759   -0.0001 </r>
       <r>   12.4328   -0.0000 </r>
       <r>   12.7509   -0.0000 </r>
       <r>   12.9293   -0.0000 </r>
       <r>   13.0701   -0.0000 </r>
       <r>   13.2584   -0.0000 </r>
       <r>   13.3050   -0.0000 </r>
       <r>   13.3967   -0.0000 </r>
       <r>   13.6111   -0.0000 </r>
       <r>   13.7435   -0.0000 </r>
       <r>   13.9517   -0.0000 </r>
       <r>   14.1080   -0.0000 </r>
       <r>   14.4868   -0.0000 </r>
       <r>   14.6475   -0.0000 </r>
       <r>   14.9608   -0.0000 </r>
       <r>   15.0634   -0.0000 </r>
       <r>   15.1677   -0.0000 </r>
       <r>   15.4120   -0.0000 </r>
       <r>   15.6295   -0.0000 </r>
       <r>   15.8232   -0.0000 </r>
       <r>   16.0211   -0.0000 </r>
      </set>
      <set comment="kpoint 17">
       <r>   -1.1771    1.0000 </r>
       <r>   -0.8576    1.0000 </r>
       <r>    0.4849    1.0000 </r>
       <r>    0.8567    1.0000 </r>
       <r>    1.0809    1.0000 </r>
       <r>    1.8204    1.0000 </r>
       <r>    2.1206    1.0000 </r>
       <r>    2.3878    1.0000 </r>
       <r>    2.8030    1.0000 </r>
       <r>    3.5733    1.0000 </r>
       <r>    3.6670    1.0000 </r>
       <r>    3.9799    1.0000 </r>
       <r>    4.1102    1.0000 </r>
       <r>    5.0235    1.0000 </r>
       <r>    5.2577    1.0000 </r>
       <r>    5.3516    1.0000 </r>
       <r>    5.5650    1.0000 </r>
       <r>    5.8119    1.0000 </r>
       <r>    6.4565    1.0000 </r>
       <r>    6.6718    1.0000 </r>
       <r>    6.7614    1.0000 </r>
       <r>    6.9278    1.0000 </r>
       <r>    7.0240    1.0000 </r>
       <r>    7.0943    1.0000 </r>
       <r>    7.3773    1.0000 </r>
       <r>    7.5326    1.0000 </r>
       <r>    8.3296    1.0000 </r>
       <r>    8.4851    1.0000 </r>
       <r>    8.6021    1.0000 </r>
       <r>    8.7086    1.0000 </r>
       <r>    9.2463    1.0000 </r>
       <r>    9.4507    1.0000 </r>
       <r>    9.5631    1.0000 </r>
       <r>    9.8733    1.0000 </r>
       <r>   10.0147    1.0000 </r>
       <r>   10.1242    1.0000 </r>
       <r>   10.2804    1.0000 </r>
       <r>   11.1942    1.0129 </r>
       <r>   11.3087    1.0352 </r>
       <r>   11.4768    0.8281 </r>
       <r>   11.6868    0.0704 </r>
       <r>   11.9115   -0.0166 </r>
       <r>   12.1026   -0.0005 </r>
       <r>   12.3362   -0.0000 </r>
       <r>   12.6543   -0.0000 </r>
       <r>   12.7730   -0.0000 </r>
       <r>   13.0925   -0.0000 </r>
       <r>   13.1938   -0.0000 </r>
       <r>   13.3182   -0.0000 </r>
       <r>   13.5920   -0.0000 </r>
       <r>   13.6435   -0.0000 </r>
       <r>   14.1579   -0.0000 </r>
       <r>   14.2731   -0.0000 </r>
       <r>   14.3867   -0.0000 </r>
       <r>   14.4771   -0.0000 </r>
       <r>   14.6235   -0.0000 </r>
       <r>   14.7951   -0.0000 </r>
       <r>   14.8439   -0.0000 </r>
       <r>   15.0177   -0.0000 </r>
       <r>   15.3827   -0.0000 </r>
       <r>   15.5314   -0.0000 </r>
       <r>   15.8067   -0.0000 </r>
       <r>   15.8576   -0.0000 </r>
       <r>   16.0349   -0.0000 </r>
      </set>
      <set comment="kpoint 18">
       <r>   -1.1958    1.0000 </r>
       <r>   -0.8427    1.0000 </r>
       <r>    0.5495    1.0000 </r>
       <r>    0.7672    1.0000 </r>
       <r>    1.1867    1.0000 </r>
       <r>    1.8223    1.0000 </r>
       <r>    2.0248    1.0000 </r>
       <r>    2.3535    1.0000 </r>
       <r>    2.7823    1.0000 </r>
       <r>    3.4255    1.0000 </r>
       <r>    3.8490    1.0000 </r>
       <r>    3.9589    1.0000 </r>
       <r>    4.2018    1.0000 </r>
       <r>    4.9326    1.0000 </r>
       <r>    5.1711    1.0000 </r>
       <r>    5.5345    1.0000 </r>
       <r>    5.6106    1.0000 </r>
       <r>    5.7301    1.0000 </r>
       <r>    6.5763    1.0000 </r>
       <r>    6.6813    1.0000 </r>
       <r>    6.7460    1.0000 </r>
       <r>    6.9201    1.0000 </r>
       <r>    6.9989    1.0000 </r>
       <r>    7.1282    1.0000 </r>
       <r>    7.3293    1.0000 </r>
       <r>    7.6785    1.0000 </r>
       <r>    8.2464    1.0000 </r>
       <r>    8.3671    1.0000 </r>
       <r>    8.5738    1.0000 </r>
       <r>    8.6605    1.0000 </r>
       <r>    9.1723    1.0000 </r>
       <r>    9.4623    1.0000 </r>
       <r>    9.6272    1.0000 </r>
       <r>    9.7836    1.0000 </r>
       <r>   10.0638    1.0000 </r>
       <r>   10.1273    1.0000 </r>
       <r>   10.3269    1.0000 </r>
       <r>   11.1616    1.0079 </r>
       <r>   11.3479    1.0311 </r>
       <r>   11.4371    0.9316 </r>
       <r>   11.6907    0.0623 </r>
       <r>   11.9482   -0.0100 </r>
       <r>   12.1964   -0.0000 </r>
       <r>   12.3363   -0.0000 </r>
       <r>   12.4258   -0.0000 </r>
       <r>   12.9559   -0.0000 </r>
       <r>   13.0388   -0.0000 </r>
       <r>   13.2321   -0.0000 </r>
       <r>   13.3693   -0.0000 </r>
       <r>   13.4917   -0.0000 </r>
       <r>   13.6086   -0.0000 </r>
       <r>   14.1222   -0.0000 </r>
       <r>   14.2823   -0.0000 </r>
       <r>   14.4395   -0.0000 </r>
       <r>   14.5314   -0.0000 </r>
       <r>   14.6581   -0.0000 </r>
       <r>   14.7858   -0.0000 </r>
       <r>   14.8757   -0.0000 </r>
       <r>   15.0353   -0.0000 </r>
       <r>   15.3940   -0.0000 </r>
       <r>   15.6183   -0.0000 </r>
       <r>   15.7322   -0.0000 </r>
       <r>   15.9375   -0.0000 </r>
       <r>   16.1010   -0.0000 </r>
      </set>
      <set comment="kpoint 19">
       <r>   -1.2465    1.0000 </r>
       <r>   -0.7714    1.0000 </r>
       <r>    0.5889    1.0000 </r>
       <r>    0.8276    1.0000 </r>
       <r>    1.0595    1.0000 </r>
       <r>    1.8288    1.0000 </r>
       <r>    1.9176    1.0000 </r>
       <r>    2.3462    1.0000 </r>
       <r>    2.8531    1.0000 </r>
       <r>    3.5286    1.0000 </r>
       <r>    3.6758    1.0000 </r>
       <r>    4.0788    1.0000 </r>
       <r>    4.2076    1.0000 </r>
       <r>    4.9139    1.0000 </r>
       <r>    5.2834    1.0000 </r>
       <r>    5.4784    1.0000 </r>
       <r>    5.6787    1.0000 </r>
       <r>    5.7038    1.0000 </r>
       <r>    6.5448    1.0000 </r>
       <r>    6.6617    1.0000 </r>
       <r>    6.7890    1.0000 </r>
       <r>    6.8993    1.0000 </r>
       <r>    7.0680    1.0000 </r>
       <r>    7.1234    1.0000 </r>
       <r>    7.4069    1.0000 </r>
       <r>    7.4551    1.0000 </r>
       <r>    8.1394    1.0000 </r>
       <r>    8.3469    1.0000 </r>
       <r>    8.6071    1.0000 </r>
       <r>    8.7262    1.0000 </r>
       <r>    9.2503    1.0000 </r>
       <r>    9.4332    1.0000 </r>
       <r>    9.5761    1.0000 </r>
       <r>    9.8421    1.0000 </r>
       <r>    9.9515    1.0000 </r>
       <r>   10.0987    1.0000 </r>
       <r>   10.2293    1.0000 </r>
       <r>   11.3242    1.0353 </r>
       <r>   11.4165    0.9697 </r>
       <r>   11.4792    0.8204 </r>
       <r>   11.7221    0.0103 </r>
       <r>   11.8968   -0.0198 </r>
       <r>   12.1109   -0.0004 </r>
       <r>   12.3629   -0.0000 </r>
       <r>   12.6390   -0.0000 </r>
       <r>   12.8064   -0.0000 </r>
       <r>   13.0552   -0.0000 </r>
       <r>   13.1803   -0.0000 </r>
       <r>   13.3155   -0.0000 </r>
       <r>   13.5803   -0.0000 </r>
       <r>   13.7027   -0.0000 </r>
       <r>   14.1558   -0.0000 </r>
       <r>   14.3084   -0.0000 </r>
       <r>   14.4185   -0.0000 </r>
       <r>   14.5423   -0.0000 </r>
       <r>   14.6551   -0.0000 </r>
       <r>   14.7565   -0.0000 </r>
       <r>   14.8450   -0.0000 </r>
       <r>   15.0222   -0.0000 </r>
       <r>   15.3943   -0.0000 </r>
       <r>   15.5498   -0.0000 </r>
       <r>   15.7776   -0.0000 </r>
       <r>   15.9304   -0.0000 </r>
       <r>   15.9811   -0.0000 </r>
      </set>
      <set comment="kpoint 20">
       <r>   -1.2489    1.0000 </r>
       <r>   -0.7645    1.0000 </r>
       <r>    0.5837    1.0000 </r>
       <r>    0.7341    1.0000 </r>
       <r>    1.2649    1.0000 </r>
       <r>    1.6640    1.0000 </r>
       <r>    1.9027    1.0000 </r>
       <r>    2.4064    1.0000 </r>
       <r>    2.8519    1.0000 </r>
       <r>    3.4922    1.0000 </r>
       <r>    3.8096    1.0000 </r>
       <r>    3.9775    1.0000 </r>
       <r>    4.2642    1.0000 </r>
       <r>    4.8953    1.0000 </r>
       <r>    5.1685    1.0000 </r>
       <r>    5.5060    1.0000 </r>
       <r>    5.6987    1.0000 </r>
       <r>    5.8631    1.0000 </r>
       <r>    6.4800    1.0000 </r>
       <r>    6.5633    1.0000 </r>
       <r>    6.6634    1.0000 </r>
       <r>    6.8256    1.0000 </r>
       <r>    7.0313    1.0000 </r>
       <r>    7.2580    1.0000 </r>
       <r>    7.4015    1.0000 </r>
       <r>    7.6742    1.0000 </r>
       <r>    8.1246    1.0000 </r>
       <r>    8.4009    1.0000 </r>
       <r>    8.5661    1.0000 </r>
       <r>    8.7796    1.0000 </r>
       <r>    9.1645    1.0000 </r>
       <r>    9.2630    1.0000 </r>
       <r>    9.6958    1.0000 </r>
       <r>    9.7474    1.0000 </r>
       <r>   10.0075    1.0000 </r>
       <r>   10.1263    1.0000 </r>
       <r>   10.3319    1.0000 </r>
       <r>   11.2091    1.0158 </r>
       <r>   11.4218    0.9609 </r>
       <r>   11.5156    0.6920 </r>
       <r>   11.7706   -0.0289 </r>
       <r>   11.8326   -0.0334 </r>
       <r>   12.1370   -0.0002 </r>
       <r>   12.3183   -0.0000 </r>
       <r>   12.4733   -0.0000 </r>
       <r>   12.9594   -0.0000 </r>
       <r>   13.0241   -0.0000 </r>
       <r>   13.2230   -0.0000 </r>
       <r>   13.3525   -0.0000 </r>
       <r>   13.5860   -0.0000 </r>
       <r>   13.7942   -0.0000 </r>
       <r>   14.0595   -0.0000 </r>
       <r>   14.3698   -0.0000 </r>
       <r>   14.4557   -0.0000 </r>
       <r>   14.5038   -0.0000 </r>
       <r>   14.5632   -0.0000 </r>
       <r>   14.7582   -0.0000 </r>
       <r>   14.8953   -0.0000 </r>
       <r>   15.1549   -0.0000 </r>
       <r>   15.3894   -0.0000 </r>
       <r>   15.5027   -0.0000 </r>
       <r>   15.5771   -0.0000 </r>
       <r>   15.8244   -0.0000 </r>
       <r>   16.0374   -0.0000 </r>
      </set>
      <set comment="kpoint 21">
       <r>   -1.2322    1.0000 </r>
       <r>   -0.7932    1.0000 </r>
       <r>    0.5277    1.0000 </r>
       <r>    0.9154    1.0000 </r>
       <r>    1.0752    1.0000 </r>
       <r>    1.7690    1.0000 </r>
       <r>    1.9521    1.0000 </r>
       <r>    2.3340    1.0000 </r>
       <r>    2.8569    1.0000 </r>
       <r>    3.5492    1.0000 </r>
       <r>    3.8358    1.0000 </r>
       <r>    3.9235    1.0000 </r>
       <r>    4.1244    1.0000 </r>
       <r>    4.8870    1.0000 </r>
       <r>    5.3234    1.0000 </r>
       <r>    5.5199    1.0000 </r>
       <r>    5.6429    1.0000 </r>
       <r>    5.7596    1.0000 </r>
       <r>    6.5586    1.0000 </r>
       <r>    6.6406    1.0000 </r>
       <r>    6.8006    1.0000 </r>
       <r>    6.9231    1.0000 </r>
       <r>    6.9905    1.0000 </r>
       <r>    7.1479    1.0000 </r>
       <r>    7.2499    1.0000 </r>
       <r>    7.5639    1.0000 </r>
       <r>    8.2881    1.0000 </r>
       <r>    8.3626    1.0000 </r>
       <r>    8.5996    1.0000 </r>
       <r>    8.7599    1.0000 </r>
       <r>    9.1361    1.0000 </r>
       <r>    9.3816    1.0000 </r>
       <r>    9.6109    1.0000 </r>
       <r>    9.7953    1.0000 </r>
       <r>   10.0045    1.0000 </r>
       <r>   10.1223    1.0000 </r>
       <r>   10.1925    1.0000 </r>
       <r>   11.2591    1.0269 </r>
       <r>   11.3983    0.9951 </r>
       <r>   11.5780    0.4341 </r>
       <r>   11.7246    0.0071 </r>
       <r>   11.8580   -0.0286 </r>
       <r>   12.0603   -0.0012 </r>
       <r>   12.3611   -0.0000 </r>
       <r>   12.6446   -0.0000 </r>
       <r>   12.9547   -0.0000 </r>
       <r>   13.0094   -0.0000 </r>
       <r>   13.1583   -0.0000 </r>
       <r>   13.4603   -0.0000 </r>
       <r>   13.6067   -0.0000 </r>
       <r>   13.6704   -0.0000 </r>
       <r>   13.9883   -0.0000 </r>
       <r>   14.2926   -0.0000 </r>
       <r>   14.3909   -0.0000 </r>
       <r>   14.5230   -0.0000 </r>
       <r>   14.5699   -0.0000 </r>
       <r>   14.8575   -0.0000 </r>
       <r>   14.8843   -0.0000 </r>
       <r>   15.0198   -0.0000 </r>
       <r>   15.3753   -0.0000 </r>
       <r>   15.6363   -0.0000 </r>
       <r>   15.7071   -0.0000 </r>
       <r>   15.8421   -0.0000 </r>
       <r>   15.9277   -0.0000 </r>
      </set>
      <set comment="kpoint 22">
       <r>   -1.1976    1.0000 </r>
       <r>   -0.8367    1.0000 </r>
       <r>    0.4627    1.0000 </r>
       <r>    0.8409    1.0000 </r>
       <r>    1.3213    1.0000 </r>
       <r>    1.6032    1.0000 </r>
       <r>    2.1855    1.0000 </r>
       <r>    2.2977    1.0000 </r>
       <r>    2.7622    1.0000 </r>
       <r>    3.3627    1.0000 </r>
       <r>    3.8311    1.0000 </r>
       <r>    3.9762    1.0000 </r>
       <r>    4.4214    1.0000 </r>
       <r>    4.8050    1.0000 </r>
       <r>    5.0153    1.0000 </r>
       <r>    5.6238    1.0000 </r>
       <r>    5.7134    1.0000 </r>
       <r>    5.8003    1.0000 </r>
       <r>    6.4156    1.0000 </r>
       <r>    6.5850    1.0000 </r>
       <r>    6.7121    1.0000 </r>
       <r>    6.8728    1.0000 </r>
       <r>    7.1202    1.0000 </r>
       <r>    7.2033    1.0000 </r>
       <r>    7.3664    1.0000 </r>
       <r>    7.7272    1.0000 </r>
       <r>    8.0857    1.0000 </r>
       <r>    8.4066    1.0000 </r>
       <r>    8.6131    1.0000 </r>
       <r>    8.7819    1.0000 </r>
       <r>    9.1634    1.0000 </r>
       <r>    9.2923    1.0000 </r>
       <r>    9.6234    1.0000 </r>
       <r>    9.8343    1.0000 </r>
       <r>   10.0004    1.0000 </r>
       <r>   10.1530    1.0000 </r>
       <r>   10.3890    1.0000 </r>
       <r>   11.2654    1.0283 </r>
       <r>   11.3135    1.0354 </r>
       <r>   11.5418    0.5864 </r>
       <r>   11.6503    0.1647 </r>
       <r>   11.8167   -0.0351 </r>
       <r>   12.1201   -0.0003 </r>
       <r>   12.3182   -0.0000 </r>
       <r>   12.4212   -0.0000 </r>
       <r>   12.7848   -0.0000 </r>
       <r>   13.1174   -0.0000 </r>
       <r>   13.2266   -0.0000 </r>
       <r>   13.4244   -0.0000 </r>
       <r>   13.5523   -0.0000 </r>
       <r>   13.8917   -0.0000 </r>
       <r>   14.0690   -0.0000 </r>
       <r>   14.2624   -0.0000 </r>
       <r>   14.3682   -0.0000 </r>
       <r>   14.5153   -0.0000 </r>
       <r>   14.6455   -0.0000 </r>
       <r>   14.8302   -0.0000 </r>
       <r>   14.8538   -0.0000 </r>
       <r>   15.0958   -0.0000 </r>
       <r>   15.3978   -0.0000 </r>
       <r>   15.4718   -0.0000 </r>
       <r>   15.5499   -0.0000 </r>
       <r>   15.8951   -0.0000 </r>
       <r>   16.1275   -0.0000 </r>
      </set>
      <set comment="kpoint 23">
       <r>   -1.1891    1.0000 </r>
       <r>   -0.8488    1.0000 </r>
       <r>    0.5323    1.0000 </r>
       <r>    0.7874    1.0000 </r>
       <r>    1.1469    1.0000 </r>
       <r>    1.8722    1.0000 </r>
       <r>    2.0352    1.0000 </r>
       <r>    2.3419    1.0000 </r>
       <r>    2.7896    1.0000 </r>
       <r>    3.4655    1.0000 </r>
       <r>    3.8231    1.0000 </r>
       <r>    3.9473    1.0000 </r>
       <r>    4.1222    1.0000 </r>
       <r>    5.0154    1.0000 </r>
       <r>    5.2307    1.0000 </r>
       <r>    5.5061    1.0000 </r>
       <r>    5.5532    1.0000 </r>
       <r>    5.7239    1.0000 </r>
       <r>    6.5557    1.0000 </r>
       <r>    6.6933    1.0000 </r>
       <r>    6.8313    1.0000 </r>
       <r>    6.8656    1.0000 </r>
       <r>    7.0273    1.0000 </r>
       <r>    7.0776    1.0000 </r>
       <r>    7.3052    1.0000 </r>
       <r>    7.5733    1.0000 </r>
       <r>    8.2919    1.0000 </r>
       <r>    8.3787    1.0000 </r>
       <r>    8.5666    1.0000 </r>
       <r>    8.8459    1.0000 </r>
       <r>    9.1296    1.0000 </r>
       <r>    9.5065    1.0000 </r>
       <r>    9.6349    1.0000 </r>
       <r>    9.6934    1.0000 </r>
       <r>   10.0805    1.0000 </r>
       <r>   10.1487    1.0000 </r>
       <r>   10.2875    1.0000 </r>
       <r>   11.1891    1.0120 </r>
       <r>   11.3882    1.0060 </r>
       <r>   11.4032    0.9890 </r>
       <r>   11.6958    0.0522 </r>
       <r>   11.9168   -0.0155 </r>
       <r>   12.1204   -0.0003 </r>
       <r>   12.3301   -0.0000 </r>
       <r>   12.5402   -0.0000 </r>
       <r>   12.8909   -0.0000 </r>
       <r>   13.0271   -0.0000 </r>
       <r>   13.2845   -0.0000 </r>
       <r>   13.3728   -0.0000 </r>
       <r>   13.4840   -0.0000 </r>
       <r>   13.6765   -0.0000 </r>
       <r>   14.1148   -0.0000 </r>
       <r>   14.2175   -0.0000 </r>
       <r>   14.3608   -0.0000 </r>
       <r>   14.5168   -0.0000 </r>
       <r>   14.6389   -0.0000 </r>
       <r>   14.7941   -0.0000 </r>
       <r>   14.8765   -0.0000 </r>
       <r>   15.0664   -0.0000 </r>
       <r>   15.4071   -0.0000 </r>
       <r>   15.5030   -0.0000 </r>
       <r>   15.7264   -0.0000 </r>
       <r>   15.9274   -0.0000 </r>
       <r>   16.0615   -0.0000 </r>
      </set>
      <set comment="kpoint 24">
       <r>   -1.1840    1.0000 </r>
       <r>   -0.8520    1.0000 </r>
       <r>    0.5643    1.0000 </r>
       <r>    0.6876    1.0000 </r>
       <r>    1.2669    1.0000 </r>
       <r>    1.7194    1.0000 </r>
       <r>    2.0350    1.0000 </r>
       <r>    2.4714    1.0000 </r>
       <r>    2.8147    1.0000 </r>
       <r>    3.4666    1.0000 </r>
       <r>    3.7706    1.0000 </r>
       <r>    3.8951    1.0000 </r>
       <r>    4.2520    1.0000 </r>
       <r>    4.9539    1.0000 </r>
       <r>    5.1544    1.0000 </r>
       <r>    5.4112    1.0000 </r>
       <r>    5.5606    1.0000 </r>
       <r>    5.9218    1.0000 </r>
       <r>    6.5435    1.0000 </r>
       <r>    6.6031    1.0000 </r>
       <r>    6.6997    1.0000 </r>
       <r>    6.7533    1.0000 </r>
       <r>    7.0784    1.0000 </r>
       <r>    7.2155    1.0000 </r>
       <r>    7.4032    1.0000 </r>
       <r>    7.6594    1.0000 </r>
       <r>    8.1406    1.0000 </r>
       <r>    8.5028    1.0000 </r>
       <r>    8.5795    1.0000 </r>
       <r>    8.7556    1.0000 </r>
       <r>    9.1987    1.0000 </r>
       <r>    9.4386    1.0000 </r>
       <r>    9.5331    1.0000 </r>
       <r>    9.8196    1.0000 </r>
       <r>   10.0446    1.0000 </r>
       <r>   10.1937    1.0000 </r>
       <r>   10.3181    1.0000 </r>
       <r>   11.1694    1.0089 </r>
       <r>   11.2841    1.0321 </r>
       <r>   11.5346    0.6164 </r>
       <r>   11.6965    0.0507 </r>
       <r>   11.8323   -0.0334 </r>
       <r>   12.1500   -0.0001 </r>
       <r>   12.3865   -0.0000 </r>
       <r>   12.4325   -0.0000 </r>
       <r>   12.8919   -0.0000 </r>
       <r>   13.0223   -0.0000 </r>
       <r>   13.2527   -0.0000 </r>
       <r>   13.3292   -0.0000 </r>
       <r>   13.4850   -0.0000 </r>
       <r>   13.7693   -0.0000 </r>
       <r>   14.1608   -0.0000 </r>
       <r>   14.3821   -0.0000 </r>
       <r>   14.3957   -0.0000 </r>
       <r>   14.5233   -0.0000 </r>
       <r>   14.6663   -0.0000 </r>
       <r>   14.7420   -0.0000 </r>
       <r>   14.9024   -0.0000 </r>
       <r>   15.0428   -0.0000 </r>
       <r>   15.4071   -0.0000 </r>
       <r>   15.5152   -0.0000 </r>
       <r>   15.6957   -0.0000 </r>
       <r>   15.8320   -0.0000 </r>
       <r>   15.9501   -0.0000 </r>
      </set>
      <set comment="kpoint 25">
       <r>   -1.2344    1.0000 </r>
       <r>   -0.7968    1.0000 </r>
       <r>    0.6018    1.0000 </r>
       <r>    0.8492    1.0000 </r>
       <r>    1.0583    1.0000 </r>
       <r>    1.8402    1.0000 </r>
       <r>    1.9157    1.0000 </r>
       <r>    2.2998    1.0000 </r>
       <r>    2.8643    1.0000 </r>
       <r>    3.5897    1.0000 </r>
       <r>    3.6957    1.0000 </r>
       <r>    3.9960    1.0000 </r>
       <r>    4.1558    1.0000 </r>
       <r>    4.8643    1.0000 </r>
       <r>    5.3450    1.0000 </r>
       <r>    5.4600    1.0000 </r>
       <r>    5.6673    1.0000 </r>
       <r>    5.7732    1.0000 </r>
       <r>    6.5600    1.0000 </r>
       <r>    6.6740    1.0000 </r>
       <r>    6.8152    1.0000 </r>
       <r>    6.9722    1.0000 </r>
       <r>    7.0980    1.0000 </r>
       <r>    7.1843    1.0000 </r>
       <r>    7.3486    1.0000 </r>
       <r>    7.3739    1.0000 </r>
       <r>    8.1001    1.0000 </r>
       <r>    8.3473    1.0000 </r>
       <r>    8.5387    1.0000 </r>
       <r>    8.7819    1.0000 </r>
       <r>    9.2325    1.0000 </r>
       <r>    9.4343    1.0000 </r>
       <r>    9.6334    1.0000 </r>
       <r>    9.7311    1.0000 </r>
       <r>    9.8922    1.0000 </r>
       <r>   10.1498    1.0000 </r>
       <r>   10.2402    1.0000 </r>
       <r>   11.2571    1.0265 </r>
       <r>   11.4629    0.8685 </r>
       <r>   11.5634    0.4956 </r>
       <r>   11.7114    0.0253 </r>
       <r>   11.8852   -0.0224 </r>
       <r>   12.0206   -0.0028 </r>
       <r>   12.3703   -0.0000 </r>
       <r>   12.6431   -0.0000 </r>
       <r>   12.8938   -0.0000 </r>
       <r>   13.0222   -0.0000 </r>
       <r>   13.1949   -0.0000 </r>
       <r>   13.4497   -0.0000 </r>
       <r>   13.5989   -0.0000 </r>
       <r>   13.7546   -0.0000 </r>
       <r>   14.0732   -0.0000 </r>
       <r>   14.2097   -0.0000 </r>
       <r>   14.4067   -0.0000 </r>
       <r>   14.4679   -0.0000 </r>
       <r>   14.6472   -0.0000 </r>
       <r>   14.7932   -0.0000 </r>
       <r>   14.8847   -0.0000 </r>
       <r>   14.9874   -0.0000 </r>
       <r>   15.4364   -0.0000 </r>
       <r>   15.5060   -0.0000 </r>
       <r>   15.7628   -0.0000 </r>
       <r>   15.8903   -0.0000 </r>
       <r>   15.9984   -0.0000 </r>
      </set>
      <set comment="kpoint 26">
       <r>   -1.2366    1.0000 </r>
       <r>   -0.7914    1.0000 </r>
       <r>    0.5813    1.0000 </r>
       <r>    0.8139    1.0000 </r>
       <r>    1.1769    1.0000 </r>
       <r>    1.6525    1.0000 </r>
       <r>    2.0229    1.0000 </r>
       <r>    2.3117    1.0000 </r>
       <r>    2.8623    1.0000 </r>
       <r>    3.5291    1.0000 </r>
       <r>    3.8461    1.0000 </r>
       <r>    3.9335    1.0000 </r>
       <r>    4.1588    1.0000 </r>
       <r>    4.8617    1.0000 </r>
       <r>    5.2396    1.0000 </r>
       <r>    5.5226    1.0000 </r>
       <r>    5.7001    1.0000 </r>
       <r>    5.8270    1.0000 </r>
       <r>    6.5585    1.0000 </r>
       <r>    6.5757    1.0000 </r>
       <r>    6.7367    1.0000 </r>
       <r>    6.8270    1.0000 </r>
       <r>    7.0801    1.0000 </r>
       <r>    7.2314    1.0000 </r>
       <r>    7.4087    1.0000 </r>
       <r>    7.6056    1.0000 </r>
       <r>    8.1878    1.0000 </r>
       <r>    8.4038    1.0000 </r>
       <r>    8.5096    1.0000 </r>
       <r>    8.6268    1.0000 </r>
       <r>    9.1336    1.0000 </r>
       <r>    9.3144    1.0000 </r>
       <r>    9.6437    1.0000 </r>
       <r>    9.7657    1.0000 </r>
       <r>   10.0051    1.0000 </r>
       <r>   10.2451    1.0000 </r>
       <r>   10.2906    1.0000 </r>
       <r>   11.2289    1.0200 </r>
       <r>   11.3827    1.0112 </r>
       <r>   11.4999    0.7504 </r>
       <r>   11.7019    0.0409 </r>
       <r>   11.8378   -0.0326 </r>
       <r>   12.1665   -0.0001 </r>
       <r>   12.3889   -0.0000 </r>
       <r>   12.5913   -0.0000 </r>
       <r>   12.8107   -0.0000 </r>
       <r>   13.0067   -0.0000 </r>
       <r>   13.3164   -0.0000 </r>
       <r>   13.3774   -0.0000 </r>
       <r>   13.6281   -0.0000 </r>
       <r>   13.7662   -0.0000 </r>
       <r>   14.0274   -0.0000 </r>
       <r>   14.2501   -0.0000 </r>
       <r>   14.4034   -0.0000 </r>
       <r>   14.5210   -0.0000 </r>
       <r>   14.6799   -0.0000 </r>
       <r>   14.7850   -0.0000 </r>
       <r>   14.8990   -0.0000 </r>
       <r>   14.9823   -0.0000 </r>
       <r>   15.3787   -0.0000 </r>
       <r>   15.5778   -0.0000 </r>
       <r>   15.6729   -0.0000 </r>
       <r>   15.9016   -0.0000 </r>
       <r>   16.0399   -0.0000 </r>
      </set>
      <set comment="kpoint 27">
       <r>   -1.2436    1.0000 </r>
       <r>   -0.7701    1.0000 </r>
       <r>    0.5515    1.0000 </r>
       <r>    0.8070    1.0000 </r>
       <r>    1.1420    1.0000 </r>
       <r>    1.7218    1.0000 </r>
       <r>    1.9727    1.0000 </r>
       <r>    2.3827    1.0000 </r>
       <r>    2.8337    1.0000 </r>
       <r>    3.6096    1.0000 </r>
       <r>    3.7332    1.0000 </r>
       <r>    3.9499    1.0000 </r>
       <r>    4.1773    1.0000 </r>
       <r>    4.9730    1.0000 </r>
       <r>    5.3064    1.0000 </r>
       <r>    5.5042    1.0000 </r>
       <r>    5.5723    1.0000 </r>
       <r>    5.7605    1.0000 </r>
       <r>    6.4870    1.0000 </r>
       <r>    6.6011    1.0000 </r>
       <r>    6.7260    1.0000 </r>
       <r>    6.8977    1.0000 </r>
       <r>    7.0015    1.0000 </r>
       <r>    7.2185    1.0000 </r>
       <r>    7.3334    1.0000 </r>
       <r>    7.5886    1.0000 </r>
       <r>    8.2552    1.0000 </r>
       <r>    8.3960    1.0000 </r>
       <r>    8.6068    1.0000 </r>
       <r>    8.7273    1.0000 </r>
       <r>    9.1651    1.0000 </r>
       <r>    9.3363    1.0000 </r>
       <r>    9.6970    1.0000 </r>
       <r>    9.8208    1.0000 </r>
       <r>    9.8818    1.0000 </r>
       <r>   10.1558    1.0000 </r>
       <r>   10.3031    1.0000 </r>
       <r>   11.2164    1.0173 </r>
       <r>   11.3897    1.0045 </r>
       <r>   11.5203    0.6739 </r>
       <r>   11.6629    0.1283 </r>
       <r>   11.9399   -0.0113 </r>
       <r>   12.1602   -0.0001 </r>
       <r>   12.3520   -0.0000 </r>
       <r>   12.6719   -0.0000 </r>
       <r>   12.8204   -0.0000 </r>
       <r>   13.0497   -0.0000 </r>
       <r>   13.1401   -0.0000 </r>
       <r>   13.4190   -0.0000 </r>
       <r>   13.4884   -0.0000 </r>
       <r>   13.7439   -0.0000 </r>
       <r>   14.1469   -0.0000 </r>
       <r>   14.2373   -0.0000 </r>
       <r>   14.4415   -0.0000 </r>
       <r>   14.5355   -0.0000 </r>
       <r>   14.6586   -0.0000 </r>
       <r>   14.7144   -0.0000 </r>
       <r>   14.8129   -0.0000 </r>
       <r>   15.0061   -0.0000 </r>
       <r>   15.3796   -0.0000 </r>
       <r>   15.5561   -0.0000 </r>
       <r>   15.7203   -0.0000 </r>
       <r>   15.8831   -0.0000 </r>
       <r>   16.0636   -0.0000 </r>
      </set>
      <set comment="kpoint 28">
       <r>   -1.1854    1.0000 </r>
       <r>   -0.8470    1.0000 </r>
       <r>    0.4481    1.0000 </r>
       <r>    0.8383    1.0000 </r>
       <r>    1.2975    1.0000 </r>
       <r>    1.5832    1.0000 </r>
       <r>    2.2096    1.0000 </r>
       <r>    2.3679    1.0000 </r>
       <r>    2.7904    1.0000 </r>
       <r>    3.4018    1.0000 </r>
       <r>    3.7886    1.0000 </r>
       <r>    3.9302    1.0000 </r>
       <r>    4.3948    1.0000 </r>
       <r>    4.8592    1.0000 </r>
       <r>    5.0132    1.0000 </r>
       <r>    5.5855    1.0000 </r>
       <r>    5.7246    1.0000 </r>
       <r>    5.7501    1.0000 </r>
       <r>    6.3065    1.0000 </r>
       <r>    6.6218    1.0000 </r>
       <r>    6.7550    1.0000 </r>
       <r>    6.8609    1.0000 </r>
       <r>    7.0462    1.0000 </r>
       <r>    7.1989    1.0000 </r>
       <r>    7.5411    1.0000 </r>
       <r>    7.6676    1.0000 </r>
       <r>    8.0939    1.0000 </r>
       <r>    8.4543    1.0000 </r>
       <r>    8.6134    1.0000 </r>
       <r>    8.7903    1.0000 </r>
       <r>    9.1916    1.0000 </r>
       <r>    9.3647    1.0000 </r>
       <r>    9.4799    1.0000 </r>
       <r>    9.8923    1.0000 </r>
       <r>    9.9920    1.0000 </r>
       <r>   10.1660    1.0000 </r>
       <r>   10.3780    1.0000 </r>
       <r>   11.2069    1.0153 </r>
       <r>   11.3827    1.0111 </r>
       <r>   11.4434    0.9176 </r>
       <r>   11.7152    0.0197 </r>
       <r>   11.8478   -0.0307 </r>
       <r>   12.1621   -0.0001 </r>
       <r>   12.3024   -0.0000 </r>
       <r>   12.4334   -0.0000 </r>
       <r>   12.8282   -0.0000 </r>
       <r>   13.0332   -0.0000 </r>
       <r>   13.1948   -0.0000 </r>
       <r>   13.3903   -0.0000 </r>
       <r>   13.4985   -0.0000 </r>
       <r>   13.9035   -0.0000 </r>
       <r>   14.1684   -0.0000 </r>
       <r>   14.2770   -0.0000 </r>
       <r>   14.4056   -0.0000 </r>
       <r>   14.4945   -0.0000 </r>
       <r>   14.6197   -0.0000 </r>
       <r>   14.8440   -0.0000 </r>
       <r>   14.9590   -0.0000 </r>
       <r>   14.9816   -0.0000 </r>
       <r>   15.3652   -0.0000 </r>
       <r>   15.5701   -0.0000 </r>
       <r>   15.6377   -0.0000 </r>
       <r>   15.8321   -0.0000 </r>
       <r>   16.0060   -0.0000 </r>
      </set>
      <set comment="kpoint 29">
       <r>   -1.7564    1.0000 </r>
       <r>    0.2014    1.0000 </r>
       <r>    0.7699    1.0000 </r>
       <r>    0.8844    1.0000 </r>
       <r>    1.3408    1.0000 </r>
       <r>    1.7063    1.0000 </r>
       <r>    2.1408    1.0000 </r>
       <r>    2.4178    1.0000 </r>
       <r>    2.6554    1.0000 </r>
       <r>    2.8631    1.0000 </r>
       <r>    3.0279    1.0000 </r>
       <r>    3.4632    1.0000 </r>
       <r>    3.7790    1.0000 </r>
       <r>    3.9151    1.0000 </r>
       <r>    5.0356    1.0000 </r>
       <r>    5.2694    1.0000 </r>
       <r>    5.3790    1.0000 </r>
       <r>    6.3630    1.0000 </r>
       <r>    6.5462    1.0000 </r>
       <r>    6.6953    1.0000 </r>
       <r>    7.3894    1.0000 </r>
       <r>    7.5567    1.0000 </r>
       <r>    7.6619    1.0000 </r>
       <r>    8.3098    1.0000 </r>
       <r>    8.5480    1.0000 </r>
       <r>    8.6743    1.0000 </r>
       <r>    8.7938    1.0000 </r>
       <r>    8.8293    1.0000 </r>
       <r>    8.9423    1.0000 </r>
       <r>    9.1518    1.0000 </r>
       <r>    9.2318    1.0000 </r>
       <r>    9.5203    1.0000 </r>
       <r>    9.5980    1.0000 </r>
       <r>    9.7456    1.0000 </r>
       <r>    9.9014    1.0000 </r>
       <r>   10.0877    1.0000 </r>
       <r>   10.5033    1.0000 </r>
       <r>   10.6363    1.0000 </r>
       <r>   10.7022    1.0000 </r>
       <r>   10.8865    1.0000 </r>
       <r>   11.2634    1.0279 </r>
       <r>   11.2858    1.0324 </r>
       <r>   11.6008    0.3408 </r>
       <r>   11.8428   -0.0317 </r>
       <r>   11.9479   -0.0100 </r>
       <r>   12.2929   -0.0000 </r>
       <r>   12.3553   -0.0000 </r>
       <r>   12.8678   -0.0000 </r>
       <r>   13.0112   -0.0000 </r>
       <r>   13.1486   -0.0000 </r>
       <r>   13.2679   -0.0000 </r>
       <r>   13.5581   -0.0000 </r>
       <r>   13.6860   -0.0000 </r>
       <r>   13.8638   -0.0000 </r>
       <r>   14.0092   -0.0000 </r>
       <r>   14.0646   -0.0000 </r>
       <r>   14.3645   -0.0000 </r>
       <r>   14.4213   -0.0000 </r>
       <r>   14.9574   -0.0000 </r>
       <r>   15.2146   -0.0000 </r>
       <r>   15.3992   -0.0000 </r>
       <r>   15.5555   -0.0000 </r>
       <r>   15.9815   -0.0000 </r>
       <r>   16.1287   -0.0000 </r>
      </set>
      <set comment="kpoint 30">
       <r>   -1.7594    1.0000 </r>
       <r>    0.2037    1.0000 </r>
       <r>    0.7164    1.0000 </r>
       <r>    1.0551    1.0000 </r>
       <r>    1.2737    1.0000 </r>
       <r>    1.6273    1.0000 </r>
       <r>    2.2855    1.0000 </r>
       <r>    2.3319    1.0000 </r>
       <r>    2.6349    1.0000 </r>
       <r>    2.7201    1.0000 </r>
       <r>    3.1055    1.0000 </r>
       <r>    3.5117    1.0000 </r>
       <r>    3.6489    1.0000 </r>
       <r>    4.0660    1.0000 </r>
       <r>    4.9915    1.0000 </r>
       <r>    5.1205    1.0000 </r>
       <r>    5.6060    1.0000 </r>
       <r>    6.3517    1.0000 </r>
       <r>    6.5775    1.0000 </r>
       <r>    6.7196    1.0000 </r>
       <r>    7.3855    1.0000 </r>
       <r>    7.5869    1.0000 </r>
       <r>    7.6598    1.0000 </r>
       <r>    8.3148    1.0000 </r>
       <r>    8.5091    1.0000 </r>
       <r>    8.6491    1.0000 </r>
       <r>    8.7212    1.0000 </r>
       <r>    8.8278    1.0000 </r>
       <r>    8.9901    1.0000 </r>
       <r>    9.0653    1.0000 </r>
       <r>    9.3047    1.0000 </r>
       <r>    9.4153    1.0000 </r>
       <r>    9.5230    1.0000 </r>
       <r>    9.7454    1.0000 </r>
       <r>    9.9221    1.0000 </r>
       <r>   10.1256    1.0000 </r>
       <r>   10.5453    1.0000 </r>
       <r>   10.6428    1.0000 </r>
       <r>   10.6711    1.0000 </r>
       <r>   10.9155    1.0000 </r>
       <r>   11.2163    1.0173 </r>
       <r>   11.3675    1.0222 </r>
       <r>   11.6317    0.2251 </r>
       <r>   11.7725   -0.0296 </r>
       <r>   11.9527   -0.0093 </r>
       <r>   12.1271   -0.0002 </r>
       <r>   12.4151   -0.0000 </r>
       <r>   12.8370   -0.0000 </r>
       <r>   12.9935   -0.0000 </r>
       <r>   13.3066   -0.0000 </r>
       <r>   13.4412   -0.0000 </r>
       <r>   13.5248   -0.0000 </r>
       <r>   13.6671   -0.0000 </r>
       <r>   13.9239   -0.0000 </r>
       <r>   14.0221   -0.0000 </r>
       <r>   14.1470   -0.0000 </r>
       <r>   14.2598   -0.0000 </r>
       <r>   14.4849   -0.0000 </r>
       <r>   14.8997   -0.0000 </r>
       <r>   15.1737   -0.0000 </r>
       <r>   15.3537   -0.0000 </r>
       <r>   15.6893   -0.0000 </r>
       <r>   15.8260   -0.0000 </r>
       <r>   16.1889   -0.0000 </r>
      </set>
      <set comment="kpoint 31">
       <r>   -1.7612    1.0000 </r>
       <r>    0.1878    1.0000 </r>
       <r>    0.8375    1.0000 </r>
       <r>    1.0042    1.0000 </r>
       <r>    1.2099    1.0000 </r>
       <r>    1.7145    1.0000 </r>
       <r>    2.0600    1.0000 </r>
       <r>    2.3670    1.0000 </r>
       <r>    2.6189    1.0000 </r>
       <r>    2.8823    1.0000 </r>
       <r>    3.0244    1.0000 </r>
       <r>    3.5364    1.0000 </r>
       <r>    3.7760    1.0000 </r>
       <r>    3.9354    1.0000 </r>
       <r>    5.0107    1.0000 </r>
       <r>    5.2885    1.0000 </r>
       <r>    5.4238    1.0000 </r>
       <r>    6.4576    1.0000 </r>
       <r>    6.5785    1.0000 </r>
       <r>    6.7227    1.0000 </r>
       <r>    7.3612    1.0000 </r>
       <r>    7.4553    1.0000 </r>
       <r>    7.7507    1.0000 </r>
       <r>    8.2779    1.0000 </r>
       <r>    8.3871    1.0000 </r>
       <r>    8.6067    1.0000 </r>
       <r>    8.7642    1.0000 </r>
       <r>    8.8546    1.0000 </r>
       <r>    8.9562    1.0000 </r>
       <r>    9.0821    1.0000 </r>
       <r>    9.3819    1.0000 </r>
       <r>    9.5025    1.0000 </r>
       <r>    9.6011    1.0000 </r>
       <r>    9.7218    1.0000 </r>
       <r>    9.9044    1.0000 </r>
       <r>   10.1416    1.0000 </r>
       <r>   10.4489    1.0000 </r>
       <r>   10.5248    1.0000 </r>
       <r>   10.6992    1.0000 </r>
       <r>   10.8997    1.0000 </r>
       <r>   11.2571    1.0265 </r>
       <r>   11.4257    0.9540 </r>
       <r>   11.6943    0.0549 </r>
       <r>   11.7192    0.0142 </r>
       <r>   11.9284   -0.0133 </r>
       <r>   12.2461   -0.0000 </r>
       <r>   12.4031   -0.0000 </r>
       <r>   12.7819   -0.0000 </r>
       <r>   12.9941   -0.0000 </r>
       <r>   13.2613   -0.0000 </r>
       <r>   13.3886   -0.0000 </r>
       <r>   13.5829   -0.0000 </r>
       <r>   13.7202   -0.0000 </r>
       <r>   13.8766   -0.0000 </r>
       <r>   14.0198   -0.0000 </r>
       <r>   14.0927   -0.0000 </r>
       <r>   14.3534   -0.0000 </r>
       <r>   14.4112   -0.0000 </r>
       <r>   14.9307   -0.0000 </r>
       <r>   15.2492   -0.0000 </r>
       <r>   15.3359   -0.0000 </r>
       <r>   15.5121   -0.0000 </r>
       <r>   15.9555   -0.0000 </r>
       <r>   16.2158   -0.0000 </r>
      </set>
      <set comment="kpoint 32">
       <r>   -1.7629    1.0000 </r>
       <r>    0.2302    1.0000 </r>
       <r>    0.7345    1.0000 </r>
       <r>    0.9836    1.0000 </r>
       <r>    1.3561    1.0000 </r>
       <r>    1.6708    1.0000 </r>
       <r>    2.0356    1.0000 </r>
       <r>    2.3046    1.0000 </r>
       <r>    2.6708    1.0000 </r>
       <r>    2.8485    1.0000 </r>
       <r>    3.1307    1.0000 </r>
       <r>    3.4856    1.0000 </r>
       <r>    3.6141    1.0000 </r>
       <r>    4.1463    1.0000 </r>
       <r>    4.9587    1.0000 </r>
       <r>    5.1806    1.0000 </r>
       <r>    5.6502    1.0000 </r>
       <r>    6.2993    1.0000 </r>
       <r>    6.4943    1.0000 </r>
       <r>    6.7515    1.0000 </r>
       <r>    7.2181    1.0000 </r>
       <r>    7.7132    1.0000 </r>
       <r>    7.7951    1.0000 </r>
       <r>    8.2631    1.0000 </r>
       <r>    8.3832    1.0000 </r>
       <r>    8.5937    1.0000 </r>
       <r>    8.7761    1.0000 </r>
       <r>    8.8573    1.0000 </r>
       <r>    9.0003    1.0000 </r>
       <r>    9.1346    1.0000 </r>
       <r>    9.2946    1.0000 </r>
       <r>    9.4313    1.0000 </r>
       <r>    9.5693    1.0000 </r>
       <r>    9.7516    1.0000 </r>
       <r>    9.8865    1.0000 </r>
       <r>   10.1168    1.0000 </r>
       <r>   10.4712    1.0000 </r>
       <r>   10.5862    1.0000 </r>
       <r>   10.7270    1.0000 </r>
       <r>   10.9315    1.0000 </r>
       <r>   11.2072    1.0154 </r>
       <r>   11.3806    1.0129 </r>
       <r>   11.5435    0.5795 </r>
       <r>   11.7530   -0.0196 </r>
       <r>   11.9763   -0.0063 </r>
       <r>   12.1109   -0.0004 </r>
       <r>   12.4805   -0.0000 </r>
       <r>   12.8465   -0.0000 </r>
       <r>   13.0421   -0.0000 </r>
       <r>   13.3177   -0.0000 </r>
       <r>   13.4620   -0.0000 </r>
       <r>   13.5604   -0.0000 </r>
       <r>   13.6847   -0.0000 </r>
       <r>   13.8473   -0.0000 </r>
       <r>   13.9655   -0.0000 </r>
       <r>   14.2089   -0.0000 </r>
       <r>   14.2949   -0.0000 </r>
       <r>   14.5502   -0.0000 </r>
       <r>   14.7975   -0.0000 </r>
       <r>   15.1506   -0.0000 </r>
       <r>   15.3519   -0.0000 </r>
       <r>   15.7465   -0.0000 </r>
       <r>   15.9949   -0.0000 </r>
       <r>   16.2720   -0.0000 </r>
      </set>
      <set comment="kpoint 33">
       <r>   -1.7601    1.0000 </r>
       <r>    0.1999    1.0000 </r>
       <r>    0.8115    1.0000 </r>
       <r>    0.9190    1.0000 </r>
       <r>    1.3149    1.0000 </r>
       <r>    1.7585    1.0000 </r>
       <r>    2.0052    1.0000 </r>
       <r>    2.4106    1.0000 </r>
       <r>    2.5699    1.0000 </r>
       <r>    2.7964    1.0000 </r>
       <r>    3.1093    1.0000 </r>
       <r>    3.5406    1.0000 </r>
       <r>    3.8327    1.0000 </r>
       <r>    3.9382    1.0000 </r>
       <r>    4.9861    1.0000 </r>
       <r>    5.2621    1.0000 </r>
       <r>    5.4892    1.0000 </r>
       <r>    6.3934    1.0000 </r>
       <r>    6.4791    1.0000 </r>
       <r>    6.5633    1.0000 </r>
       <r>    7.4089    1.0000 </r>
       <r>    7.5758    1.0000 </r>
       <r>    7.8274    1.0000 </r>
       <r>    8.3332    1.0000 </r>
       <r>    8.4723    1.0000 </r>
       <r>    8.5799    1.0000 </r>
       <r>    8.7798    1.0000 </r>
       <r>    8.8177    1.0000 </r>
       <r>    8.9724    1.0000 </r>
       <r>    9.0933    1.0000 </r>
       <r>    9.2707    1.0000 </r>
       <r>    9.5391    1.0000 </r>
       <r>    9.6847    1.0000 </r>
       <r>    9.7609    1.0000 </r>
       <r>    9.8824    1.0000 </r>
       <r>   10.0454    1.0000 </r>
       <r>   10.4145    1.0000 </r>
       <r>   10.5757    1.0000 </r>
       <r>   10.7490    1.0000 </r>
       <r>   10.7923    1.0000 </r>
       <r>   11.2496    1.0247 </r>
       <r>   11.4068    0.9841 </r>
       <r>   11.6253    0.2478 </r>
       <r>   11.7826   -0.0327 </r>
       <r>   12.0000   -0.0042 </r>
       <r>   12.2333   -0.0000 </r>
       <r>   12.3934   -0.0000 </r>
       <r>   12.7629   -0.0000 </r>
       <r>   13.0415   -0.0000 </r>
       <r>   13.1631   -0.0000 </r>
       <r>   13.4407   -0.0000 </r>
       <r>   13.4824   -0.0000 </r>
       <r>   13.7811   -0.0000 </r>
       <r>   13.8819   -0.0000 </r>
       <r>   14.0674   -0.0000 </r>
       <r>   14.1832   -0.0000 </r>
       <r>   14.2485   -0.0000 </r>
       <r>   14.4549   -0.0000 </r>
       <r>   14.7430   -0.0000 </r>
       <r>   15.3141   -0.0000 </r>
       <r>   15.4764   -0.0000 </r>
       <r>   15.5645   -0.0000 </r>
       <r>   15.9293   -0.0000 </r>
       <r>   16.1843   -0.0000 </r>
      </set>
      <set comment="kpoint 34">
       <r>   -1.7600    1.0000 </r>
       <r>    0.1907    1.0000 </r>
       <r>    0.6829    1.0000 </r>
       <r>    1.1740    1.0000 </r>
       <r>    1.3306    1.0000 </r>
       <r>    1.5864    1.0000 </r>
       <r>    2.0891    1.0000 </r>
       <r>    2.2431    1.0000 </r>
       <r>    2.7117    1.0000 </r>
       <r>    2.8538    1.0000 </r>
       <r>    3.1487    1.0000 </r>
       <r>    3.4174    1.0000 </r>
       <r>    3.6495    1.0000 </r>
       <r>    4.0952    1.0000 </r>
       <r>    4.9903    1.0000 </r>
       <r>    5.0953    1.0000 </r>
       <r>    5.7753    1.0000 </r>
       <r>    6.2148    1.0000 </r>
       <r>    6.5031    1.0000 </r>
       <r>    6.8368    1.0000 </r>
       <r>    7.2741    1.0000 </r>
       <r>    7.7184    1.0000 </r>
       <r>    7.7655    1.0000 </r>
       <r>    8.0967    1.0000 </r>
       <r>    8.3911    1.0000 </r>
       <r>    8.5466    1.0000 </r>
       <r>    8.7968    1.0000 </r>
       <r>    8.8566    1.0000 </r>
       <r>    9.0264    1.0000 </r>
       <r>    9.2577    1.0000 </r>
       <r>    9.3315    1.0000 </r>
       <r>    9.4626    1.0000 </r>
       <r>    9.5453    1.0000 </r>
       <r>    9.7045    1.0000 </r>
       <r>    9.8706    1.0000 </r>
       <r>   10.1639    1.0000 </r>
       <r>   10.3729    1.0000 </r>
       <r>   10.5220    1.0000 </r>
       <r>   10.7467    1.0000 </r>
       <r>   11.0046    1.0003 </r>
       <r>   11.1817    1.0108 </r>
       <r>   11.4315    0.9429 </r>
       <r>   11.4775    0.8257 </r>
       <r>   11.8018   -0.0353 </r>
       <r>   12.0422   -0.0018 </r>
       <r>   12.1739   -0.0001 </r>
       <r>   12.5250   -0.0000 </r>
       <r>   12.8386   -0.0000 </r>
       <r>   12.9378   -0.0000 </r>
       <r>   13.2305   -0.0000 </r>
       <r>   13.4243   -0.0000 </r>
       <r>   13.5276   -0.0000 </r>
       <r>   13.6419   -0.0000 </r>
       <r>   13.8604   -0.0000 </r>
       <r>   13.9645   -0.0000 </r>
       <r>   14.2692   -0.0000 </r>
       <r>   14.3279   -0.0000 </r>
       <r>   14.5639   -0.0000 </r>
       <r>   14.8023   -0.0000 </r>
       <r>   15.0955   -0.0000 </r>
       <r>   15.3074   -0.0000 </r>
       <r>   15.6198   -0.0000 </r>
       <r>   15.9977   -0.0000 </r>
       <r>   16.3939   -0.0000 </r>
      </set>
      <set comment="kpoint 35">
       <r>   -1.7568    1.0000 </r>
       <r>    0.1864    1.0000 </r>
       <r>    0.7416    1.0000 </r>
       <r>    1.0152    1.0000 </r>
       <r>    1.2588    1.0000 </r>
       <r>    1.6942    1.0000 </r>
       <r>    2.1997    1.0000 </r>
       <r>    2.3993    1.0000 </r>
       <r>    2.6286    1.0000 </r>
       <r>    2.7323    1.0000 </r>
       <r>    3.1057    1.0000 </r>
       <r>    3.5492    1.0000 </r>
       <r>    3.7029    1.0000 </r>
       <r>    3.9636    1.0000 </r>
       <r>    5.0172    1.0000 </r>
       <r>    5.1401    1.0000 </r>
       <r>    5.5603    1.0000 </r>
       <r>    6.3247    1.0000 </r>
       <r>    6.5694    1.0000 </r>
       <r>    6.6673    1.0000 </r>
       <r>    7.3754    1.0000 </r>
       <r>    7.5796    1.0000 </r>
       <r>    7.6486    1.0000 </r>
       <r>    8.4148    1.0000 </r>
       <r>    8.5668    1.0000 </r>
       <r>    8.6703    1.0000 </r>
       <r>    8.7515    1.0000 </r>
       <r>    8.8469    1.0000 </r>
       <r>    8.9306    1.0000 </r>
       <r>    8.9857    1.0000 </r>
       <r>    9.2795    1.0000 </r>
       <r>    9.5199    1.0000 </r>
       <r>    9.6359    1.0000 </r>
       <r>    9.7296    1.0000 </r>
       <r>    9.9119    1.0000 </r>
       <r>   10.0615    1.0000 </r>
       <r>   10.4040    1.0000 </r>
       <r>   10.6456    1.0000 </r>
       <r>   10.7946    1.0000 </r>
       <r>   10.9302    1.0000 </r>
       <r>   11.2222    1.0185 </r>
       <r>   11.3132    1.0354 </r>
       <r>   11.6517    0.1607 </r>
       <r>   11.8286   -0.0340 </r>
       <r>   12.0122   -0.0033 </r>
       <r>   12.1474   -0.0001 </r>
       <r>   12.3673   -0.0000 </r>
       <r>   12.7725   -0.0000 </r>
       <r>   12.9411   -0.0000 </r>
       <r>   13.2310   -0.0000 </r>
       <r>   13.4272   -0.0000 </r>
       <r>   13.5453   -0.0000 </r>
       <r>   13.6281   -0.0000 </r>
       <r>   13.8919   -0.0000 </r>
       <r>   14.0323   -0.0000 </r>
       <r>   14.1561   -0.0000 </r>
       <r>   14.2738   -0.0000 </r>
       <r>   14.4212   -0.0000 </r>
       <r>   14.8859   -0.0000 </r>
       <r>   15.2842   -0.0000 </r>
       <r>   15.4505   -0.0000 </r>
       <r>   15.5753   -0.0000 </r>
       <r>   15.8870   -0.0000 </r>
       <r>   16.1394   -0.0000 </r>
      </set>
      <set comment="kpoint 36">
       <r>   -1.7586    1.0000 </r>
       <r>    0.2149    1.0000 </r>
       <r>    0.6859    1.0000 </r>
       <r>    0.9950    1.0000 </r>
       <r>    1.4283    1.0000 </r>
       <r>    1.5466    1.0000 </r>
       <r>    2.2402    1.0000 </r>
       <r>    2.3889    1.0000 </r>
       <r>    2.5892    1.0000 </r>
       <r>    2.8317    1.0000 </r>
       <r>    3.0898    1.0000 </r>
       <r>    3.4535    1.0000 </r>
       <r>    3.6008    1.0000 </r>
       <r>    4.1195    1.0000 </r>
       <r>    4.9869    1.0000 </r>
       <r>    5.1509    1.0000 </r>
       <r>    5.5705    1.0000 </r>
       <r>    6.3046    1.0000 </r>
       <r>    6.5905    1.0000 </r>
       <r>    6.7887    1.0000 </r>
       <r>    7.2273    1.0000 </r>
       <r>    7.6514    1.0000 </r>
       <r>    7.7469    1.0000 </r>
       <r>    8.3185    1.0000 </r>
       <r>    8.3959    1.0000 </r>
       <r>    8.6056    1.0000 </r>
       <r>    8.7488    1.0000 </r>
       <r>    8.8753    1.0000 </r>
       <r>    9.0114    1.0000 </r>
       <r>    9.1594    1.0000 </r>
       <r>    9.2406    1.0000 </r>
       <r>    9.5429    1.0000 </r>
       <r>    9.5813    1.0000 </r>
       <r>    9.7182    1.0000 </r>
       <r>    9.8567    1.0000 </r>
       <r>   10.1409    1.0000 </r>
       <r>   10.4001    1.0000 </r>
       <r>   10.5868    1.0000 </r>
       <r>   10.7231    1.0000 </r>
       <r>   10.9334    1.0000 </r>
       <r>   11.1530    1.0069 </r>
       <r>   11.3797    1.0136 </r>
       <r>   11.6292    0.2339 </r>
       <r>   11.8278   -0.0341 </r>
       <r>   11.9183   -0.0152 </r>
       <r>   12.1215   -0.0003 </r>
       <r>   12.4782   -0.0000 </r>
       <r>   12.9634   -0.0000 </r>
       <r>   13.0232   -0.0000 </r>
       <r>   13.2271   -0.0000 </r>
       <r>   13.3488   -0.0000 </r>
       <r>   13.5180   -0.0000 </r>
       <r>   13.6905   -0.0000 </r>
       <r>   13.8906   -0.0000 </r>
       <r>   14.0057   -0.0000 </r>
       <r>   14.2323   -0.0000 </r>
       <r>   14.2827   -0.0000 </r>
       <r>   14.5297   -0.0000 </r>
       <r>   14.8363   -0.0000 </r>
       <r>   15.1191   -0.0000 </r>
       <r>   15.3035   -0.0000 </r>
       <r>   15.6699   -0.0000 </r>
       <r>   15.9467   -0.0000 </r>
       <r>   16.1771   -0.0000 </r>
      </set>
      <set comment="kpoint 37">
       <r>   -1.7606    1.0000 </r>
       <r>    0.1703    1.0000 </r>
       <r>    0.8325    1.0000 </r>
       <r>    1.0603    1.0000 </r>
       <r>    1.1955    1.0000 </r>
       <r>    1.7052    1.0000 </r>
       <r>    2.1129    1.0000 </r>
       <r>    2.3545    1.0000 </r>
       <r>    2.5109    1.0000 </r>
       <r>    2.9205    1.0000 </r>
       <r>    3.0078    1.0000 </r>
       <r>    3.5330    1.0000 </r>
       <r>    3.8284    1.0000 </r>
       <r>    3.9396    1.0000 </r>
       <r>    4.9936    1.0000 </r>
       <r>    5.2787    1.0000 </r>
       <r>    5.4189    1.0000 </r>
       <r>    6.4549    1.0000 </r>
       <r>    6.5345    1.0000 </r>
       <r>    6.7711    1.0000 </r>
       <r>    7.4062    1.0000 </r>
       <r>    7.4320    1.0000 </r>
       <r>    7.7675    1.0000 </r>
       <r>    8.2715    1.0000 </r>
       <r>    8.4280    1.0000 </r>
       <r>    8.6159    1.0000 </r>
       <r>    8.7435    1.0000 </r>
       <r>    8.8446    1.0000 </r>
       <r>    8.9591    1.0000 </r>
       <r>    9.1926    1.0000 </r>
       <r>    9.3012    1.0000 </r>
       <r>    9.4829    1.0000 </r>
       <r>    9.6115    1.0000 </r>
       <r>    9.6958    1.0000 </r>
       <r>    9.8866    1.0000 </r>
       <r>   10.1015    1.0000 </r>
       <r>   10.3637    1.0000 </r>
       <r>   10.5071    1.0000 </r>
       <r>   10.6921    1.0000 </r>
       <r>   10.9685    1.0001 </r>
       <r>   11.2749    1.0303 </r>
       <r>   11.3974    0.9961 </r>
       <r>   11.6005    0.3419 </r>
       <r>   11.8136   -0.0353 </r>
       <r>   11.9866   -0.0053 </r>
       <r>   12.1720   -0.0001 </r>
       <r>   12.4741   -0.0000 </r>
       <r>   12.8500   -0.0000 </r>
       <r>   13.0528   -0.0000 </r>
       <r>   13.1967   -0.0000 </r>
       <r>   13.3397   -0.0000 </r>
       <r>   13.5385   -0.0000 </r>
       <r>   13.8045   -0.0000 </r>
       <r>   13.9286   -0.0000 </r>
       <r>   14.0088   -0.0000 </r>
       <r>   14.1094   -0.0000 </r>
       <r>   14.3499   -0.0000 </r>
       <r>   14.3902   -0.0000 </r>
       <r>   14.8753   -0.0000 </r>
       <r>   15.2735   -0.0000 </r>
       <r>   15.3786   -0.0000 </r>
       <r>   15.4817   -0.0000 </r>
       <r>   15.9717   -0.0000 </r>
       <r>   16.1300   -0.0000 </r>
      </set>
      <set comment="kpoint 38">
       <r>   -1.7622    1.0000 </r>
       <r>    0.2216    1.0000 </r>
       <r>    0.7185    1.0000 </r>
       <r>    1.0167    1.0000 </r>
       <r>    1.3565    1.0000 </r>
       <r>    1.6666    1.0000 </r>
       <r>    2.0216    1.0000 </r>
       <r>    2.3547    1.0000 </r>
       <r>    2.6509    1.0000 </r>
       <r>    2.8625    1.0000 </r>
       <r>    3.0254    1.0000 </r>
       <r>    3.5284    1.0000 </r>
       <r>    3.6644    1.0000 </r>
       <r>    4.1262    1.0000 </r>
       <r>    4.9523    1.0000 </r>
       <r>    5.2307    1.0000 </r>
       <r>    5.5645    1.0000 </r>
       <r>    6.3098    1.0000 </r>
       <r>    6.4477    1.0000 </r>
       <r>    6.7891    1.0000 </r>
       <r>    7.4022    1.0000 </r>
       <r>    7.5786    1.0000 </r>
       <r>    7.8117    1.0000 </r>
       <r>    8.1526    1.0000 </r>
       <r>    8.4655    1.0000 </r>
       <r>    8.6075    1.0000 </r>
       <r>    8.7370    1.0000 </r>
       <r>    8.9558    1.0000 </r>
       <r>    8.9991    1.0000 </r>
       <r>    9.1235    1.0000 </r>
       <r>    9.2661    1.0000 </r>
       <r>    9.4219    1.0000 </r>
       <r>    9.5997    1.0000 </r>
       <r>    9.6876    1.0000 </r>
       <r>    9.8980    1.0000 </r>
       <r>   10.1030    1.0000 </r>
       <r>   10.4728    1.0000 </r>
       <r>   10.6189    1.0000 </r>
       <r>   10.7355    1.0000 </r>
       <r>   10.8771    1.0000 </r>
       <r>   11.1660    1.0085 </r>
       <r>   11.3330    1.0344 </r>
       <r>   11.5303    0.6339 </r>
       <r>   11.8554   -0.0292 </r>
       <r>   11.9511   -0.0096 </r>
       <r>   12.2461   -0.0000 </r>
       <r>   12.3794   -0.0000 </r>
       <r>   12.8650   -0.0000 </r>
       <r>   13.1216   -0.0000 </r>
       <r>   13.1686   -0.0000 </r>
       <r>   13.4680   -0.0000 </r>
       <r>   13.5350   -0.0000 </r>
       <r>   13.8011   -0.0000 </r>
       <r>   13.8834   -0.0000 </r>
       <r>   14.0465   -0.0000 </r>
       <r>   14.1258   -0.0000 </r>
       <r>   14.3096   -0.0000 </r>
       <r>   14.4952   -0.0000 </r>
       <r>   14.8170   -0.0000 </r>
       <r>   15.2213   -0.0000 </r>
       <r>   15.3457   -0.0000 </r>
       <r>   15.6136   -0.0000 </r>
       <r>   15.9227   -0.0000 </r>
       <r>   16.2093   -0.0000 </r>
      </set>
      <set comment="kpoint 39">
       <r>   -1.7603    1.0000 </r>
       <r>    0.2239    1.0000 </r>
       <r>    0.7588    1.0000 </r>
       <r>    0.9101    1.0000 </r>
       <r>    1.3714    1.0000 </r>
       <r>    1.7184    1.0000 </r>
       <r>    2.0061    1.0000 </r>
       <r>    2.3274    1.0000 </r>
       <r>    2.7060    1.0000 </r>
       <r>    2.8879    1.0000 </r>
       <r>    3.0172    1.0000 </r>
       <r>    3.6087    1.0000 </r>
       <r>    3.6784    1.0000 </r>
       <r>    3.9771    1.0000 </r>
       <r>    5.0019    1.0000 </r>
       <r>    5.2723    1.0000 </r>
       <r>    5.5131    1.0000 </r>
       <r>    6.2433    1.0000 </r>
       <r>    6.5512    1.0000 </r>
       <r>    6.6203    1.0000 </r>
       <r>    7.3544    1.0000 </r>
       <r>    7.6057    1.0000 </r>
       <r>    7.8001    1.0000 </r>
       <r>    8.3164    1.0000 </r>
       <r>    8.5132    1.0000 </r>
       <r>    8.6190    1.0000 </r>
       <r>    8.7235    1.0000 </r>
       <r>    8.8410    1.0000 </r>
       <r>    8.9369    1.0000 </r>
       <r>    9.1471    1.0000 </r>
       <r>    9.2917    1.0000 </r>
       <r>    9.4988    1.0000 </r>
       <r>    9.6015    1.0000 </r>
       <r>    9.7749    1.0000 </r>
       <r>    9.9425    1.0000 </r>
       <r>   10.0579    1.0000 </r>
       <r>   10.4152    1.0000 </r>
       <r>   10.5622    1.0000 </r>
       <r>   10.7767    1.0000 </r>
       <r>   10.8868    1.0000 </r>
       <r>   11.2228    1.0186 </r>
       <r>   11.3270    1.0351 </r>
       <r>   11.6831    0.0783 </r>
       <r>   11.7854   -0.0333 </r>
       <r>   11.9984   -0.0043 </r>
       <r>   12.2088   -0.0000 </r>
       <r>   12.4090   -0.0000 </r>
       <r>   12.8239   -0.0000 </r>
       <r>   12.9804   -0.0000 </r>
       <r>   13.1575   -0.0000 </r>
       <r>   13.3417   -0.0000 </r>
       <r>   13.5647   -0.0000 </r>
       <r>   13.7191   -0.0000 </r>
       <r>   13.8313   -0.0000 </r>
       <r>   13.9947   -0.0000 </r>
       <r>   14.1496   -0.0000 </r>
       <r>   14.3045   -0.0000 </r>
       <r>   14.4560   -0.0000 </r>
       <r>   14.9284   -0.0000 </r>
       <r>   15.2438   -0.0000 </r>
       <r>   15.4051   -0.0000 </r>
       <r>   15.6549   -0.0000 </r>
       <r>   16.0052   -0.0000 </r>
       <r>   16.1669   -0.0000 </r>
      </set>
      <set comment="kpoint 40">
       <r>   -1.7592    1.0000 </r>
       <r>    0.2187    1.0000 </r>
       <r>    0.6112    1.0000 </r>
       <r>    1.2244    1.0000 </r>
       <r>    1.2992    1.0000 </r>
       <r>    1.6045    1.0000 </r>
       <r>    2.0182    1.0000 </r>
       <r>    2.3974    1.0000 </r>
       <r>    2.6457    1.0000 </r>
       <r>    2.8993    1.0000 </r>
       <r>    3.1211    1.0000 </r>
       <r>    3.3766    1.0000 </r>
       <r>    3.6934    1.0000 </r>
       <r>    4.0464    1.0000 </r>
       <r>    5.0047    1.0000 </r>
       <r>    5.1460    1.0000 </r>
       <r>    5.7162    1.0000 </r>
       <r>    6.1766    1.0000 </r>
       <r>    6.5074    1.0000 </r>
       <r>    6.8325    1.0000 </r>
       <r>    7.2975    1.0000 </r>
       <r>    7.6829    1.0000 </r>
       <r>    7.7517    1.0000 </r>
       <r>    8.1595    1.0000 </r>
       <r>    8.4056    1.0000 </r>
       <r>    8.6165    1.0000 </r>
       <r>    8.7887    1.0000 </r>
       <r>    8.8525    1.0000 </r>
       <r>    9.0199    1.0000 </r>
       <r>    9.2725    1.0000 </r>
       <r>    9.3407    1.0000 </r>
       <r>    9.4116    1.0000 </r>
       <r>    9.5102    1.0000 </r>
       <r>    9.6521    1.0000 </r>
       <r>    9.9186    1.0000 </r>
       <r>   10.1965    1.0000 </r>
       <r>   10.3685    1.0000 </r>
       <r>   10.5216    1.0000 </r>
       <r>   10.6904    1.0000 </r>
       <r>   11.0385    1.0007 </r>
       <r>   11.1730    1.0095 </r>
       <r>   11.4500    0.9022 </r>
       <r>   11.6052    0.3234 </r>
       <r>   11.8515   -0.0300 </r>
       <r>   11.9474   -0.0101 </r>
       <r>   12.0224   -0.0027 </r>
       <r>   12.5572   -0.0000 </r>
       <r>   12.8305   -0.0000 </r>
       <r>   12.9520   -0.0000 </r>
       <r>   13.2697   -0.0000 </r>
       <r>   13.4024   -0.0000 </r>
       <r>   13.5310   -0.0000 </r>
       <r>   13.7096   -0.0000 </r>
       <r>   13.8669   -0.0000 </r>
       <r>   14.0124   -0.0000 </r>
       <r>   14.1712   -0.0000 </r>
       <r>   14.2596   -0.0000 </r>
       <r>   14.5906   -0.0000 </r>
       <r>   14.8424   -0.0000 </r>
       <r>   15.1267   -0.0000 </r>
       <r>   15.2493   -0.0000 </r>
       <r>   15.6784   -0.0000 </r>
       <r>   16.1004   -0.0000 </r>
       <r>   16.1753   -0.0000 </r>
      </set>
      <set comment="kpoint 41">
       <r>   -1.4733    1.0000 </r>
       <r>   -0.1241    1.0000 </r>
       <r>    0.3539    1.0000 </r>
       <r>    0.6625    1.0000 </r>
       <r>    0.8005    1.0000 </r>
       <r>    1.4491    1.0000 </r>
       <r>    2.6274    1.0000 </r>
       <r>    2.6742    1.0000 </r>
       <r>    3.0173    1.0000 </r>
       <r>    3.6184    1.0000 </r>
       <r>    3.7409    1.0000 </r>
       <r>    4.0268    1.0000 </r>
       <r>    4.2064    1.0000 </r>
       <r>    4.4373    1.0000 </r>
       <r>    4.5785    1.0000 </r>
       <r>    4.6546    1.0000 </r>
       <r>    5.7509    1.0000 </r>
       <r>    5.8729    1.0000 </r>
       <r>    6.2997    1.0000 </r>
       <r>    6.3504    1.0000 </r>
       <r>    6.8270    1.0000 </r>
       <r>    6.9623    1.0000 </r>
       <r>    7.0639    1.0000 </r>
       <r>    8.0124    1.0000 </r>
       <r>    8.1277    1.0000 </r>
       <r>    8.2167    1.0000 </r>
       <r>    8.4368    1.0000 </r>
       <r>    8.6046    1.0000 </r>
       <r>    8.8140    1.0000 </r>
       <r>    9.0320    1.0000 </r>
       <r>    9.1155    1.0000 </r>
       <r>    9.3392    1.0000 </r>
       <r>    9.7213    1.0000 </r>
       <r>    9.8848    1.0000 </r>
       <r>    9.9263    1.0000 </r>
       <r>   10.1609    1.0000 </r>
       <r>   10.4639    1.0000 </r>
       <r>   10.7644    1.0000 </r>
       <r>   10.9664    1.0001 </r>
       <r>   11.3507    1.0302 </r>
       <r>   11.5037    0.7369 </r>
       <r>   11.5301    0.6347 </r>
       <r>   11.8003   -0.0353 </r>
       <r>   11.9365   -0.0119 </r>
       <r>   12.0055   -0.0037 </r>
       <r>   12.1283   -0.0002 </r>
       <r>   12.2522   -0.0000 </r>
       <r>   12.4873   -0.0000 </r>
       <r>   13.7669   -0.0000 </r>
       <r>   13.9940   -0.0000 </r>
       <r>   14.1284   -0.0000 </r>
       <r>   14.2755   -0.0000 </r>
       <r>   14.4940   -0.0000 </r>
       <r>   14.6761   -0.0000 </r>
       <r>   14.7479   -0.0000 </r>
       <r>   14.9230   -0.0000 </r>
       <r>   15.1132   -0.0000 </r>
       <r>   15.2064   -0.0000 </r>
       <r>   15.3443   -0.0000 </r>
       <r>   15.4854   -0.0000 </r>
       <r>   15.7716   -0.0000 </r>
       <r>   15.8641   -0.0000 </r>
       <r>   15.9356   -0.0000 </r>
       <r>   16.1052   -0.0000 </r>
      </set>
      <set comment="kpoint 42">
       <r>   -1.4683    1.0000 </r>
       <r>   -0.0678    1.0000 </r>
       <r>    0.2545    1.0000 </r>
       <r>    0.6289    1.0000 </r>
       <r>    0.8126    1.0000 </r>
       <r>    1.4814    1.0000 </r>
       <r>    2.5675    1.0000 </r>
       <r>    2.7911    1.0000 </r>
       <r>    3.1161    1.0000 </r>
       <r>    3.4761    1.0000 </r>
       <r>    3.8300    1.0000 </r>
       <r>    4.0967    1.0000 </r>
       <r>    4.1653    1.0000 </r>
       <r>    4.4600    1.0000 </r>
       <r>    4.5549    1.0000 </r>
       <r>    4.6935    1.0000 </r>
       <r>    5.5904    1.0000 </r>
       <r>    5.6921    1.0000 </r>
       <r>    6.2779    1.0000 </r>
       <r>    6.4999    1.0000 </r>
       <r>    6.7264    1.0000 </r>
       <r>    6.8855    1.0000 </r>
       <r>    7.1506    1.0000 </r>
       <r>    7.9050    1.0000 </r>
       <r>    8.1400    1.0000 </r>
       <r>    8.2239    1.0000 </r>
       <r>    8.4381    1.0000 </r>
       <r>    8.6848    1.0000 </r>
       <r>    8.8980    1.0000 </r>
       <r>    9.1426    1.0000 </r>
       <r>    9.2813    1.0000 </r>
       <r>    9.3655    1.0000 </r>
       <r>    9.7317    1.0000 </r>
       <r>    9.8829    1.0000 </r>
       <r>   10.0633    1.0000 </r>
       <r>   10.1452    1.0000 </r>
       <r>   10.4727    1.0000 </r>
       <r>   10.6137    1.0000 </r>
       <r>   10.9011    1.0000 </r>
       <r>   11.2932    1.0336 </r>
       <r>   11.4348    0.9362 </r>
       <r>   11.5722    0.4584 </r>
       <r>   11.8146   -0.0353 </r>
       <r>   11.9981   -0.0043 </r>
       <r>   12.0256   -0.0025 </r>
       <r>   12.1729   -0.0001 </r>
       <r>   12.2409   -0.0000 </r>
       <r>   12.2907   -0.0000 </r>
       <r>   13.7998   -0.0000 </r>
       <r>   13.8849   -0.0000 </r>
       <r>   14.1404   -0.0000 </r>
       <r>   14.3311   -0.0000 </r>
       <r>   14.4559   -0.0000 </r>
       <r>   14.6427   -0.0000 </r>
       <r>   14.7618   -0.0000 </r>
       <r>   14.9283   -0.0000 </r>
       <r>   15.1072   -0.0000 </r>
       <r>   15.2209   -0.0000 </r>
       <r>   15.3127   -0.0000 </r>
       <r>   15.5646   -0.0000 </r>
       <r>   15.7142   -0.0000 </r>
       <r>   15.7583   -0.0000 </r>
       <r>   15.8883   -0.0000 </r>
       <r>   16.0171   -0.0000 </r>
      </set>
      <set comment="kpoint 43">
       <r>   -1.4779    1.0000 </r>
       <r>   -0.0402    1.0000 </r>
       <r>    0.2596    1.0000 </r>
       <r>    0.5751    1.0000 </r>
       <r>    0.9385    1.0000 </r>
       <r>    1.3883    1.0000 </r>
       <r>    2.4529    1.0000 </r>
       <r>    2.9042    1.0000 </r>
       <r>    3.0971    1.0000 </r>
       <r>    3.5409    1.0000 </r>
       <r>    3.7166    1.0000 </r>
       <r>    3.9695    1.0000 </r>
       <r>    4.2484    1.0000 </r>
       <r>    4.4232    1.0000 </r>
       <r>    4.5555    1.0000 </r>
       <r>    4.8096    1.0000 </r>
       <r>    5.5276    1.0000 </r>
       <r>    5.9379    1.0000 </r>
       <r>    6.2932    1.0000 </r>
       <r>    6.4150    1.0000 </r>
       <r>    6.7723    1.0000 </r>
       <r>    6.8570    1.0000 </r>
       <r>    7.2222    1.0000 </r>
       <r>    7.8956    1.0000 </r>
       <r>    8.1134    1.0000 </r>
       <r>    8.2316    1.0000 </r>
       <r>    8.3922    1.0000 </r>
       <r>    8.6990    1.0000 </r>
       <r>    8.8227    1.0000 </r>
       <r>    9.0553    1.0000 </r>
       <r>    9.2241    1.0000 </r>
       <r>    9.3129    1.0000 </r>
       <r>    9.7761    1.0000 </r>
       <r>    9.8502    1.0000 </r>
       <r>    9.9329    1.0000 </r>
       <r>   10.2144    1.0000 </r>
       <r>   10.3970    1.0000 </r>
       <r>   10.8138    1.0000 </r>
       <r>   10.9036    1.0000 </r>
       <r>   11.2594    1.0270 </r>
       <r>   11.4995    0.7519 </r>
       <r>   11.6432    0.1869 </r>
       <r>   11.7448   -0.0135 </r>
       <r>   11.9605   -0.0082 </r>
       <r>   12.0027   -0.0039 </r>
       <r>   12.0861   -0.0007 </r>
       <r>   12.2052   -0.0000 </r>
       <r>   12.4094   -0.0000 </r>
       <r>   13.8130   -0.0000 </r>
       <r>   13.9452   -0.0000 </r>
       <r>   14.0817   -0.0000 </r>
       <r>   14.4031   -0.0000 </r>
       <r>   14.5767   -0.0000 </r>
       <r>   14.7262   -0.0000 </r>
       <r>   14.7925   -0.0000 </r>
       <r>   15.0271   -0.0000 </r>
       <r>   15.1210   -0.0000 </r>
       <r>   15.2483   -0.0000 </r>
       <r>   15.3655   -0.0000 </r>
       <r>   15.4885   -0.0000 </r>
       <r>   15.6513   -0.0000 </r>
       <r>   15.8088   -0.0000 </r>
       <r>   15.8886   -0.0000 </r>
       <r>   16.1460   -0.0000 </r>
      </set>
      <set comment="kpoint 44">
       <r>   -1.4708    1.0000 </r>
       <r>   -0.0609    1.0000 </r>
       <r>    0.1881    1.0000 </r>
       <r>    0.6314    1.0000 </r>
       <r>    1.0266    1.0000 </r>
       <r>    1.3565    1.0000 </r>
       <r>    2.3844    1.0000 </r>
       <r>    2.9717    1.0000 </r>
       <r>    3.2163    1.0000 </r>
       <r>    3.4120    1.0000 </r>
       <r>    3.6537    1.0000 </r>
       <r>    3.9817    1.0000 </r>
       <r>    4.3181    1.0000 </r>
       <r>    4.3802    1.0000 </r>
       <r>    4.4477    1.0000 </r>
       <r>    4.9694    1.0000 </r>
       <r>    5.4265    1.0000 </r>
       <r>    6.0552    1.0000 </r>
       <r>    6.2769    1.0000 </r>
       <r>    6.3851    1.0000 </r>
       <r>    6.6380    1.0000 </r>
       <r>    6.8677    1.0000 </r>
       <r>    7.3570    1.0000 </r>
       <r>    7.8711    1.0000 </r>
       <r>    8.0916    1.0000 </r>
       <r>    8.3295    1.0000 </r>
       <r>    8.4450    1.0000 </r>
       <r>    8.7006    1.0000 </r>
       <r>    8.8371    1.0000 </r>
       <r>    8.8973    1.0000 </r>
       <r>    9.1601    1.0000 </r>
       <r>    9.4308    1.0000 </r>
       <r>    9.6580    1.0000 </r>
       <r>    9.7939    1.0000 </r>
       <r>    9.9897    1.0000 </r>
       <r>   10.2248    1.0000 </r>
       <r>   10.4543    1.0000 </r>
       <r>   10.8384    1.0000 </r>
       <r>   10.9830    1.0002 </r>
       <r>   11.1772    1.0101 </r>
       <r>   11.3834    1.0105 </r>
       <r>   11.6631    0.1280 </r>
       <r>   11.7875   -0.0337 </r>
       <r>   11.8666   -0.0267 </r>
       <r>   12.0418   -0.0018 </r>
       <r>   12.1493   -0.0001 </r>
       <r>   12.2881   -0.0000 </r>
       <r>   12.5454   -0.0000 </r>
       <r>   13.6979   -0.0000 </r>
       <r>   13.9305   -0.0000 </r>
       <r>   14.0949   -0.0000 </r>
       <r>   14.2166   -0.0000 </r>
       <r>   14.4058   -0.0000 </r>
       <r>   14.7407   -0.0000 </r>
       <r>   14.8651   -0.0000 </r>
       <r>   15.0122   -0.0000 </r>
       <r>   15.1135   -0.0000 </r>
       <r>   15.2295   -0.0000 </r>
       <r>   15.4200   -0.0000 </r>
       <r>   15.5729   -0.0000 </r>
       <r>   15.6883   -0.0000 </r>
       <r>   15.7579   -0.0000 </r>
       <r>   15.9424   -0.0000 </r>
       <r>   16.1034   -0.0000 </r>
      </set>
      <set comment="kpoint 45">
       <r>   -1.4704    1.0000 </r>
       <r>   -0.0956    1.0000 </r>
       <r>    0.3514    1.0000 </r>
       <r>    0.4867    1.0000 </r>
       <r>    1.0117    1.0000 </r>
       <r>    1.3194    1.0000 </r>
       <r>    2.5697    1.0000 </r>
       <r>    2.8851    1.0000 </r>
       <r>    3.2329    1.0000 </r>
       <r>    3.3797    1.0000 </r>
       <r>    3.7750    1.0000 </r>
       <r>    3.9099    1.0000 </r>
       <r>    4.2180    1.0000 </r>
       <r>    4.3388    1.0000 </r>
       <r>    4.5904    1.0000 </r>
       <r>    4.8064    1.0000 </r>
       <r>    5.5445    1.0000 </r>
       <r>    5.9288    1.0000 </r>
       <r>    6.3107    1.0000 </r>
       <r>    6.4255    1.0000 </r>
       <r>    6.6845    1.0000 </r>
       <r>    6.9261    1.0000 </r>
       <r>    7.2394    1.0000 </r>
       <r>    7.9654    1.0000 </r>
       <r>    8.0157    1.0000 </r>
       <r>    8.2889    1.0000 </r>
       <r>    8.4393    1.0000 </r>
       <r>    8.6226    1.0000 </r>
       <r>    8.8378    1.0000 </r>
       <r>    9.0515    1.0000 </r>
       <r>    9.2513    1.0000 </r>
       <r>    9.3482    1.0000 </r>
       <r>    9.6711    1.0000 </r>
       <r>    9.8430    1.0000 </r>
       <r>    9.9942    1.0000 </r>
       <r>   10.2357    1.0000 </r>
       <r>   10.4109    1.0000 </r>
       <r>   10.7826    1.0000 </r>
       <r>   11.0245    1.0005 </r>
       <r>   11.2172    1.0174 </r>
       <r>   11.4427    0.9192 </r>
       <r>   11.6169    0.2784 </r>
       <r>   11.7783   -0.0315 </r>
       <r>   11.8606   -0.0280 </r>
       <r>   12.0209   -0.0028 </r>
       <r>   12.0835   -0.0007 </r>
       <r>   12.3057   -0.0000 </r>
       <r>   12.4180   -0.0000 </r>
       <r>   13.7456   -0.0000 </r>
       <r>   14.0094   -0.0000 </r>
       <r>   14.1403   -0.0000 </r>
       <r>   14.3039   -0.0000 </r>
       <r>   14.4133   -0.0000 </r>
       <r>   14.6976   -0.0000 </r>
       <r>   14.7823   -0.0000 </r>
       <r>   15.0090   -0.0000 </r>
       <r>   15.1991   -0.0000 </r>
       <r>   15.2965   -0.0000 </r>
       <r>   15.3377   -0.0000 </r>
       <r>   15.5711   -0.0000 </r>
       <r>   15.6389   -0.0000 </r>
       <r>   15.7259   -0.0000 </r>
       <r>   15.8597   -0.0000 </r>
       <r>   16.1341   -0.0000 </r>
      </set>
      <set comment="kpoint 46">
       <r>   -1.4605    1.0000 </r>
       <r>   -0.1138    1.0000 </r>
       <r>    0.2967    1.0000 </r>
       <r>    0.6188    1.0000 </r>
       <r>    0.7995    1.0000 </r>
       <r>    1.4640    1.0000 </r>
       <r>    2.6020    1.0000 </r>
       <r>    2.9152    1.0000 </r>
       <r>    3.1144    1.0000 </r>
       <r>    3.5724    1.0000 </r>
       <r>    3.7487    1.0000 </r>
       <r>    3.9484    1.0000 </r>
       <r>    4.1644    1.0000 </r>
       <r>    4.4447    1.0000 </r>
       <r>    4.5027    1.0000 </r>
       <r>    4.6882    1.0000 </r>
       <r>    5.5833    1.0000 </r>
       <r>    5.7659    1.0000 </r>
       <r>    6.2836    1.0000 </r>
       <r>    6.4359    1.0000 </r>
       <r>    6.7714    1.0000 </r>
       <r>    6.9014    1.0000 </r>
       <r>    7.1361    1.0000 </r>
       <r>    7.9810    1.0000 </r>
       <r>    8.1471    1.0000 </r>
       <r>    8.2250    1.0000 </r>
       <r>    8.4632    1.0000 </r>
       <r>    8.7047    1.0000 </r>
       <r>    8.7769    1.0000 </r>
       <r>    9.0997    1.0000 </r>
       <r>    9.2405    1.0000 </r>
       <r>    9.3999    1.0000 </r>
       <r>    9.7965    1.0000 </r>
       <r>    9.8552    1.0000 </r>
       <r>   10.0782    1.0000 </r>
       <r>   10.1995    1.0000 </r>
       <r>   10.4168    1.0000 </r>
       <r>   10.6277    1.0000 </r>
       <r>   11.0527    1.0009 </r>
       <r>   11.3215    1.0354 </r>
       <r>   11.4145    0.9729 </r>
       <r>   11.6121    0.2967 </r>
       <r>   11.7852   -0.0333 </r>
       <r>   11.9060   -0.0178 </r>
       <r>   11.9971   -0.0044 </r>
       <r>   12.1216   -0.0003 </r>
       <r>   12.2274   -0.0000 </r>
       <r>   12.3923   -0.0000 </r>
       <r>   13.7641   -0.0000 </r>
       <r>   13.8673   -0.0000 </r>
       <r>   14.0530   -0.0000 </r>
       <r>   14.3447   -0.0000 </r>
       <r>   14.4287   -0.0000 </r>
       <r>   14.5519   -0.0000 </r>
       <r>   14.6974   -0.0000 </r>
       <r>   14.9999   -0.0000 </r>
       <r>   15.1097   -0.0000 </r>
       <r>   15.2378   -0.0000 </r>
       <r>   15.3563   -0.0000 </r>
       <r>   15.5331   -0.0000 </r>
       <r>   15.6646   -0.0000 </r>
       <r>   15.7156   -0.0000 </r>
       <r>   15.8516   -0.0000 </r>
       <r>   16.0259   -0.0000 </r>
      </set>
      <set comment="kpoint 47">
       <r>   -1.4747    1.0000 </r>
       <r>   -0.1017    1.0000 </r>
       <r>    0.3366    1.0000 </r>
       <r>    0.6330    1.0000 </r>
       <r>    0.8174    1.0000 </r>
       <r>    1.4548    1.0000 </r>
       <r>    2.6178    1.0000 </r>
       <r>    2.6505    1.0000 </r>
       <r>    3.0760    1.0000 </r>
       <r>    3.5969    1.0000 </r>
       <r>    3.7852    1.0000 </r>
       <r>    3.9940    1.0000 </r>
       <r>    4.1828    1.0000 </r>
       <r>    4.4375    1.0000 </r>
       <r>    4.5851    1.0000 </r>
       <r>    4.6791    1.0000 </r>
       <r>    5.7227    1.0000 </r>
       <r>    5.8949    1.0000 </r>
       <r>    6.2683    1.0000 </r>
       <r>    6.3343    1.0000 </r>
       <r>    6.8271    1.0000 </r>
       <r>    6.9549    1.0000 </r>
       <r>    7.1251    1.0000 </r>
       <r>    8.0063    1.0000 </r>
       <r>    8.0986    1.0000 </r>
       <r>    8.2580    1.0000 </r>
       <r>    8.3581    1.0000 </r>
       <r>    8.5399    1.0000 </r>
       <r>    8.8826    1.0000 </r>
       <r>    9.0006    1.0000 </r>
       <r>    9.1814    1.0000 </r>
       <r>    9.3426    1.0000 </r>
       <r>    9.7332    1.0000 </r>
       <r>    9.8311    1.0000 </r>
       <r>    9.9989    1.0000 </r>
       <r>   10.0775    1.0000 </r>
       <r>   10.6360    1.0000 </r>
       <r>   10.7637    1.0000 </r>
       <r>   10.9524    1.0001 </r>
       <r>   11.2990    1.0343 </r>
       <r>   11.4753    0.8327 </r>
       <r>   11.6254    0.2476 </r>
       <r>   11.7775   -0.0313 </r>
       <r>   11.8506   -0.0302 </r>
       <r>   12.0690   -0.0010 </r>
       <r>   12.1321   -0.0002 </r>
       <r>   12.2489   -0.0000 </r>
       <r>   12.4081   -0.0000 </r>
       <r>   13.7109   -0.0000 </r>
       <r>   14.0136   -0.0000 </r>
       <r>   14.1183   -0.0000 </r>
       <r>   14.3120   -0.0000 </r>
       <r>   14.4375   -0.0000 </r>
       <r>   14.6328   -0.0000 </r>
       <r>   14.7912   -0.0000 </r>
       <r>   15.0115   -0.0000 </r>
       <r>   15.1208   -0.0000 </r>
       <r>   15.1984   -0.0000 </r>
       <r>   15.4262   -0.0000 </r>
       <r>   15.4614   -0.0000 </r>
       <r>   15.6793   -0.0000 </r>
       <r>   15.8256   -0.0000 </r>
       <r>   16.0153   -0.0000 </r>
       <r>   16.1429   -0.0000 </r>
      </set>
      <set comment="kpoint 48">
       <r>   -1.4688    1.0000 </r>
       <r>   -0.0479    1.0000 </r>
       <r>    0.2562    1.0000 </r>
       <r>    0.5429    1.0000 </r>
       <r>    0.8864    1.0000 </r>
       <r>    1.4664    1.0000 </r>
       <r>    2.5178    1.0000 </r>
       <r>    2.8096    1.0000 </r>
       <r>    3.1814    1.0000 </r>
       <r>    3.5597    1.0000 </r>
       <r>    3.7949    1.0000 </r>
       <r>    3.9757    1.0000 </r>
       <r>    4.1874    1.0000 </r>
       <r>    4.4745    1.0000 </r>
       <r>    4.5587    1.0000 </r>
       <r>    4.7262    1.0000 </r>
       <r>    5.4453    1.0000 </r>
       <r>    5.8071    1.0000 </r>
       <r>    6.2805    1.0000 </r>
       <r>    6.4776    1.0000 </r>
       <r>    6.7035    1.0000 </r>
       <r>    6.8868    1.0000 </r>
       <r>    7.1969    1.0000 </r>
       <r>    7.9281    1.0000 </r>
       <r>    8.1448    1.0000 </r>
       <r>    8.2254    1.0000 </r>
       <r>    8.4434    1.0000 </r>
       <r>    8.6262    1.0000 </r>
       <r>    8.8364    1.0000 </r>
       <r>    9.1918    1.0000 </r>
       <r>    9.2841    1.0000 </r>
       <r>    9.3881    1.0000 </r>
       <r>    9.7635    1.0000 </r>
       <r>    9.8833    1.0000 </r>
       <r>   10.0059    1.0000 </r>
       <r>   10.1349    1.0000 </r>
       <r>   10.4707    1.0000 </r>
       <r>   10.6071    1.0000 </r>
       <r>   11.0240    1.0005 </r>
       <r>   11.3049    1.0349 </r>
       <r>   11.4292    0.9474 </r>
       <r>   11.5765    0.4405 </r>
       <r>   11.7538   -0.0201 </r>
       <r>   11.9775   -0.0062 </r>
       <r>   12.0241   -0.0026 </r>
       <r>   12.1432   -0.0002 </r>
       <r>   12.2545   -0.0000 </r>
       <r>   12.3630   -0.0000 </r>
       <r>   13.7755   -0.0000 </r>
       <r>   13.8719   -0.0000 </r>
       <r>   14.0850   -0.0000 </r>
       <r>   14.2699   -0.0000 </r>
       <r>   14.4216   -0.0000 </r>
       <r>   14.6136   -0.0000 </r>
       <r>   14.7348   -0.0000 </r>
       <r>   15.0690   -0.0000 </r>
       <r>   15.1770   -0.0000 </r>
       <r>   15.2512   -0.0000 </r>
       <r>   15.3404   -0.0000 </r>
       <r>   15.4617   -0.0000 </r>
       <r>   15.6244   -0.0000 </r>
       <r>   15.7932   -0.0000 </r>
       <r>   15.8670   -0.0000 </r>
       <r>   16.0506   -0.0000 </r>
      </set>
      <set comment="kpoint 49">
       <r>   -1.4793    1.0000 </r>
       <r>   -0.0219    1.0000 </r>
       <r>    0.2751    1.0000 </r>
       <r>    0.4996    1.0000 </r>
       <r>    1.0114    1.0000 </r>
       <r>    1.3561    1.0000 </r>
       <r>    2.4811    1.0000 </r>
       <r>    2.7771    1.0000 </r>
       <r>    3.2287    1.0000 </r>
       <r>    3.4980    1.0000 </r>
       <r>    3.7665    1.0000 </r>
       <r>    3.9370    1.0000 </r>
       <r>    4.2383    1.0000 </r>
       <r>    4.3957    1.0000 </r>
       <r>    4.5709    1.0000 </r>
       <r>    4.8663    1.0000 </r>
       <r>    5.5007    1.0000 </r>
       <r>    5.9145    1.0000 </r>
       <r>    6.2811    1.0000 </r>
       <r>    6.5267    1.0000 </r>
       <r>    6.6850    1.0000 </r>
       <r>    6.7932    1.0000 </r>
       <r>    7.2655    1.0000 </r>
       <r>    7.9151    1.0000 </r>
       <r>    8.0854    1.0000 </r>
       <r>    8.3113    1.0000 </r>
       <r>    8.4125    1.0000 </r>
       <r>    8.5544    1.0000 </r>
       <r>    8.8438    1.0000 </r>
       <r>    9.0691    1.0000 </r>
       <r>    9.2557    1.0000 </r>
       <r>    9.3817    1.0000 </r>
       <r>    9.7119    1.0000 </r>
       <r>    9.8010    1.0000 </r>
       <r>    9.9419    1.0000 </r>
       <r>   10.2655    1.0000 </r>
       <r>   10.4131    1.0000 </r>
       <r>   10.7854    1.0000 </r>
       <r>   10.9230    1.0000 </r>
       <r>   11.2683    1.0290 </r>
       <r>   11.5154    0.6928 </r>
       <r>   11.6213    0.2623 </r>
       <r>   11.7141    0.0213 </r>
       <r>   11.9311   -0.0128 </r>
       <r>   12.0261   -0.0025 </r>
       <r>   12.0917   -0.0006 </r>
       <r>   12.1774   -0.0001 </r>
       <r>   12.4680   -0.0000 </r>
       <r>   13.7213   -0.0000 </r>
       <r>   14.0087   -0.0000 </r>
       <r>   14.1035   -0.0000 </r>
       <r>   14.3480   -0.0000 </r>
       <r>   14.4685   -0.0000 </r>
       <r>   14.7637   -0.0000 </r>
       <r>   14.9194   -0.0000 </r>
       <r>   15.0408   -0.0000 </r>
       <r>   15.1980   -0.0000 </r>
       <r>   15.2586   -0.0000 </r>
       <r>   15.3678   -0.0000 </r>
       <r>   15.5262   -0.0000 </r>
       <r>   15.5734   -0.0000 </r>
       <r>   15.7399   -0.0000 </r>
       <r>   15.8976   -0.0000 </r>
       <r>   16.1176   -0.0000 </r>
      </set>
      <set comment="kpoint 50">
       <r>   -1.4723    1.0000 </r>
       <r>   -0.0968    1.0000 </r>
       <r>    0.2804    1.0000 </r>
       <r>    0.5718    1.0000 </r>
       <r>    1.0380    1.0000 </r>
       <r>    1.3498    1.0000 </r>
       <r>    2.4281    1.0000 </r>
       <r>    2.9337    1.0000 </r>
       <r>    3.1284    1.0000 </r>
       <r>    3.4182    1.0000 </r>
       <r>    3.6666    1.0000 </r>
       <r>    4.0364    1.0000 </r>
       <r>    4.3003    1.0000 </r>
       <r>    4.3944    1.0000 </r>
       <r>    4.4523    1.0000 </r>
       <r>    4.9848    1.0000 </r>
       <r>    5.4516    1.0000 </r>
       <r>    6.0383    1.0000 </r>
       <r>    6.2497    1.0000 </r>
       <r>    6.3939    1.0000 </r>
       <r>    6.7247    1.0000 </r>
       <r>    6.8186    1.0000 </r>
       <r>    7.3553    1.0000 </r>
       <r>    7.8372    1.0000 </r>
       <r>    8.1631    1.0000 </r>
       <r>    8.2113    1.0000 </r>
       <r>    8.4686    1.0000 </r>
       <r>    8.6735    1.0000 </r>
       <r>    8.8324    1.0000 </r>
       <r>    8.9296    1.0000 </r>
       <r>    9.1530    1.0000 </r>
       <r>    9.4608    1.0000 </r>
       <r>    9.6397    1.0000 </r>
       <r>    9.8342    1.0000 </r>
       <r>   10.0258    1.0000 </r>
       <r>   10.2435    1.0000 </r>
       <r>   10.4232    1.0000 </r>
       <r>   10.7300    1.0000 </r>
       <r>   10.9306    1.0000 </r>
       <r>   11.2059    1.0151 </r>
       <r>   11.4692    0.8508 </r>
       <r>   11.6419    0.1912 </r>
       <r>   11.7343   -0.0037 </r>
       <r>   11.9699   -0.0071 </r>
       <r>   12.0181   -0.0029 </r>
       <r>   12.1033   -0.0004 </r>
       <r>   12.3766   -0.0000 </r>
       <r>   12.4873   -0.0000 </r>
       <r>   13.6648   -0.0000 </r>
       <r>   13.9156   -0.0000 </r>
       <r>   14.1771   -0.0000 </r>
       <r>   14.2372   -0.0000 </r>
       <r>   14.3691   -0.0000 </r>
       <r>   14.7633   -0.0000 </r>
       <r>   14.8588   -0.0000 </r>
       <r>   14.9831   -0.0000 </r>
       <r>   15.1295   -0.0000 </r>
       <r>   15.2185   -0.0000 </r>
       <r>   15.3217   -0.0000 </r>
       <r>   15.5487   -0.0000 </r>
       <r>   15.7729   -0.0000 </r>
       <r>   15.8399   -0.0000 </r>
       <r>   15.9328   -0.0000 </r>
       <r>   16.1521   -0.0000 </r>
      </set>
      <set comment="kpoint 51">
       <r>   -1.4718    1.0000 </r>
       <r>   -0.1045    1.0000 </r>
       <r>    0.3777    1.0000 </r>
       <r>    0.5177    1.0000 </r>
       <r>    0.9179    1.0000 </r>
       <r>    1.3717    1.0000 </r>
       <r>    2.6081    1.0000 </r>
       <r>    2.8673    1.0000 </r>
       <r>    3.1235    1.0000 </r>
       <r>    3.3776    1.0000 </r>
       <r>    3.7771    1.0000 </r>
       <r>    3.9925    1.0000 </r>
       <r>    4.2837    1.0000 </r>
       <r>    4.3960    1.0000 </r>
       <r>    4.4677    1.0000 </r>
       <r>    4.8135    1.0000 </r>
       <r>    5.5772    1.0000 </r>
       <r>    5.8914    1.0000 </r>
       <r>    6.2412    1.0000 </r>
       <r>    6.4001    1.0000 </r>
       <r>    6.8335    1.0000 </r>
       <r>    6.9235    1.0000 </r>
       <r>    7.2037    1.0000 </r>
       <r>    7.9724    1.0000 </r>
       <r>    8.0829    1.0000 </r>
       <r>    8.2104    1.0000 </r>
       <r>    8.5175    1.0000 </r>
       <r>    8.6199    1.0000 </r>
       <r>    8.8045    1.0000 </r>
       <r>    9.0162    1.0000 </r>
       <r>    9.1642    1.0000 </r>
       <r>    9.3039    1.0000 </r>
       <r>    9.7284    1.0000 </r>
       <r>    9.8566    1.0000 </r>
       <r>    9.9682    1.0000 </r>
       <r>   10.2231    1.0000 </r>
       <r>   10.4667    1.0000 </r>
       <r>   10.7376    1.0000 </r>
       <r>   11.0625    1.0012 </r>
       <r>   11.2715    1.0296 </r>
       <r>   11.4954    0.7664 </r>
       <r>   11.6512    0.1620 </r>
       <r>   11.7808   -0.0322 </r>
       <r>   11.8788   -0.0239 </r>
       <r>   11.9554   -0.0089 </r>
       <r>   12.0985   -0.0005 </r>
       <r>   12.2618   -0.0000 </r>
       <r>   12.3670   -0.0000 </r>
       <r>   13.6972   -0.0000 </r>
       <r>   13.9901   -0.0000 </r>
       <r>   14.1638   -0.0000 </r>
       <r>   14.2960   -0.0000 </r>
       <r>   14.4566   -0.0000 </r>
       <r>   14.7520   -0.0000 </r>
       <r>   14.8369   -0.0000 </r>
       <r>   15.0185   -0.0000 </r>
       <r>   15.1100   -0.0000 </r>
       <r>   15.1890   -0.0000 </r>
       <r>   15.4015   -0.0000 </r>
       <r>   15.4526   -0.0000 </r>
       <r>   15.7298   -0.0000 </r>
       <r>   15.8288   -0.0000 </r>
       <r>   15.9121   -0.0000 </r>
       <r>   16.0916   -0.0000 </r>
      </set>
      <set comment="kpoint 52">
       <r>   -1.4612    1.0000 </r>
       <r>   -0.1355    1.0000 </r>
       <r>    0.3827    1.0000 </r>
       <r>    0.5391    1.0000 </r>
       <r>    0.8258    1.0000 </r>
       <r>    1.4499    1.0000 </r>
       <r>    2.7312    1.0000 </r>
       <r>    2.8230    1.0000 </r>
       <r>    3.0689    1.0000 </r>
       <r>    3.4448    1.0000 </r>
       <r>    3.7725    1.0000 </r>
       <r>    4.0126    1.0000 </r>
       <r>    4.2625    1.0000 </r>
       <r>    4.3815    1.0000 </r>
       <r>    4.4894    1.0000 </r>
       <r>    4.7569    1.0000 </r>
       <r>    5.5288    1.0000 </r>
       <r>    5.7925    1.0000 </r>
       <r>    6.2893    1.0000 </r>
       <r>    6.4403    1.0000 </r>
       <r>    6.7502    1.0000 </r>
       <r>    6.8953    1.0000 </r>
       <r>    7.1572    1.0000 </r>
       <r>    7.9795    1.0000 </r>
       <r>    8.1023    1.0000 </r>
       <r>    8.2753    1.0000 </r>
       <r>    8.5207    1.0000 </r>
       <r>    8.6622    1.0000 </r>
       <r>    8.7950    1.0000 </r>
       <r>    9.0786    1.0000 </r>
       <r>    9.1145    1.0000 </r>
       <r>    9.4848    1.0000 </r>
       <r>    9.8160    1.0000 </r>
       <r>    9.8893    1.0000 </r>
       <r>   10.0323    1.0000 </r>
       <r>   10.1743    1.0000 </r>
       <r>   10.4751    1.0000 </r>
       <r>   10.6099    1.0000 </r>
       <r>   10.9853    1.0002 </r>
       <r>   11.2579    1.0266 </r>
       <r>   11.4649    0.8630 </r>
       <r>   11.6924    0.0587 </r>
       <r>   11.7745   -0.0303 </r>
       <r>   11.9394   -0.0114 </r>
       <r>   12.0251   -0.0026 </r>
       <r>   12.0795   -0.0008 </r>
       <r>   12.2186   -0.0000 </r>
       <r>   12.3430   -0.0000 </r>
       <r>   13.7830   -0.0000 </r>
       <r>   13.8730   -0.0000 </r>
       <r>   14.0998   -0.0000 </r>
       <r>   14.2458   -0.0000 </r>
       <r>   14.4534   -0.0000 </r>
       <r>   14.5740   -0.0000 </r>
       <r>   14.7679   -0.0000 </r>
       <r>   15.0040   -0.0000 </r>
       <r>   15.0777   -0.0000 </r>
       <r>   15.2498   -0.0000 </r>
       <r>   15.3846   -0.0000 </r>
       <r>   15.5582   -0.0000 </r>
       <r>   15.6258   -0.0000 </r>
       <r>   15.7324   -0.0000 </r>
       <r>   15.8586   -0.0000 </r>
       <r>   16.1498   -0.0000 </r>
      </set>
      <set comment="kpoint 53">
       <r>   -0.9433    1.0000 </r>
       <r>   -0.5723    1.0000 </r>
       <r>   -0.2505    1.0000 </r>
       <r>    0.1514    1.0000 </r>
       <r>    1.4086    1.0000 </r>
       <r>    1.8563    1.0000 </r>
       <r>    2.1033    1.0000 </r>
       <r>    2.7763    1.0000 </r>
       <r>    3.4504    1.0000 </r>
       <r>    3.6662    1.0000 </r>
       <r>    4.0790    1.0000 </r>
       <r>    4.2040    1.0000 </r>
       <r>    4.3931    1.0000 </r>
       <r>    4.8536    1.0000 </r>
       <r>    5.0485    1.0000 </r>
       <r>    5.4329    1.0000 </r>
       <r>    5.4665    1.0000 </r>
       <r>    5.7768    1.0000 </r>
       <r>    5.9751    1.0000 </r>
       <r>    6.1011    1.0000 </r>
       <r>    6.4805    1.0000 </r>
       <r>    6.6636    1.0000 </r>
       <r>    6.9409    1.0000 </r>
       <r>    7.2596    1.0000 </r>
       <r>    7.4655    1.0000 </r>
       <r>    7.5869    1.0000 </r>
       <r>    7.7242    1.0000 </r>
       <r>    7.9615    1.0000 </r>
       <r>    8.2067    1.0000 </r>
       <r>    8.3287    1.0000 </r>
       <r>    9.5879    1.0000 </r>
       <r>    9.8105    1.0000 </r>
       <r>    9.9989    1.0000 </r>
       <r>   10.1096    1.0000 </r>
       <r>   10.4132    1.0000 </r>
       <r>   10.6030    1.0000 </r>
       <r>   10.8611    1.0000 </r>
       <r>   11.0042    1.0003 </r>
       <r>   11.3920    1.0022 </r>
       <r>   11.5077    0.7219 </r>
       <r>   11.7264    0.0050 </r>
       <r>   11.8455   -0.0312 </r>
       <r>   12.0337   -0.0021 </r>
       <r>   12.1438   -0.0002 </r>
       <r>   12.2818   -0.0000 </r>
       <r>   12.6970   -0.0000 </r>
       <r>   12.7892   -0.0000 </r>
       <r>   12.8997   -0.0000 </r>
       <r>   13.1789   -0.0000 </r>
       <r>   13.6254   -0.0000 </r>
       <r>   13.8084   -0.0000 </r>
       <r>   14.0273   -0.0000 </r>
       <r>   14.1681   -0.0000 </r>
       <r>   14.3281   -0.0000 </r>
       <r>   14.5828   -0.0000 </r>
       <r>   14.9085   -0.0000 </r>
       <r>   15.0731   -0.0000 </r>
       <r>   15.3189   -0.0000 </r>
       <r>   15.5957   -0.0000 </r>
       <r>   15.7356   -0.0000 </r>
       <r>   16.0818   -0.0000 </r>
       <r>   16.1444   -0.0000 </r>
       <r>   16.3118   -0.0000 </r>
       <r>   16.4807   -0.0000 </r>
      </set>
      <set comment="kpoint 54">
       <r>   -0.9115    1.0000 </r>
       <r>   -0.6629    1.0000 </r>
       <r>   -0.1646    1.0000 </r>
       <r>    0.1785    1.0000 </r>
       <r>    1.1585    1.0000 </r>
       <r>    1.9067    1.0000 </r>
       <r>    2.3574    1.0000 </r>
       <r>    2.7888    1.0000 </r>
       <r>    3.4214    1.0000 </r>
       <r>    3.6059    1.0000 </r>
       <r>    3.9261    1.0000 </r>
       <r>    4.1873    1.0000 </r>
       <r>    4.5984    1.0000 </r>
       <r>    4.7880    1.0000 </r>
       <r>    5.1539    1.0000 </r>
       <r>    5.3598    1.0000 </r>
       <r>    5.4926    1.0000 </r>
       <r>    5.8143    1.0000 </r>
       <r>    5.9349    1.0000 </r>
       <r>    6.1812    1.0000 </r>
       <r>    6.3196    1.0000 </r>
       <r>    6.4641    1.0000 </r>
       <r>    7.0481    1.0000 </r>
       <r>    7.1452    1.0000 </r>
       <r>    7.4838    1.0000 </r>
       <r>    7.7096    1.0000 </r>
       <r>    7.8198    1.0000 </r>
       <r>    7.9452    1.0000 </r>
       <r>    8.1455    1.0000 </r>
       <r>    8.3954    1.0000 </r>
       <r>    9.6047    1.0000 </r>
       <r>    9.8883    1.0000 </r>
       <r>    9.9485    1.0000 </r>
       <r>   10.2249    1.0000 </r>
       <r>   10.3587    1.0000 </r>
       <r>   10.5782    1.0000 </r>
       <r>   10.8442    1.0000 </r>
       <r>   11.0718    1.0014 </r>
       <r>   11.3083    1.0352 </r>
       <r>   11.5566    0.5245 </r>
       <r>   11.6844    0.0754 </r>
       <r>   11.7831   -0.0328 </r>
       <r>   12.0952   -0.0005 </r>
       <r>   12.1861   -0.0000 </r>
       <r>   12.2647   -0.0000 </r>
       <r>   12.5713   -0.0000 </r>
       <r>   12.8643   -0.0000 </r>
       <r>   13.0267   -0.0000 </r>
       <r>   13.2233   -0.0000 </r>
       <r>   13.5623   -0.0000 </r>
       <r>   13.8168   -0.0000 </r>
       <r>   13.9492   -0.0000 </r>
       <r>   14.0275   -0.0000 </r>
       <r>   14.3043   -0.0000 </r>
       <r>   14.6141   -0.0000 </r>
       <r>   14.7837   -0.0000 </r>
       <r>   15.2233   -0.0000 </r>
       <r>   15.3168   -0.0000 </r>
       <r>   15.5433   -0.0000 </r>
       <r>   15.8492   -0.0000 </r>
       <r>   16.0049   -0.0000 </r>
       <r>   16.1661   -0.0000 </r>
       <r>   16.2599   -0.0000 </r>
       <r>   16.4032   -0.0000 </r>
      </set>
      <set comment="kpoint 55">
       <r>   -1.0072    1.0000 </r>
       <r>   -0.4979    1.0000 </r>
       <r>   -0.1915    1.0000 </r>
       <r>    0.1255    1.0000 </r>
       <r>    1.3321    1.0000 </r>
       <r>    1.8463    1.0000 </r>
       <r>    2.0915    1.0000 </r>
       <r>    2.8531    1.0000 </r>
       <r>    3.2711    1.0000 </r>
       <r>    3.7053    1.0000 </r>
       <r>    4.0984    1.0000 </r>
       <r>    4.2638    1.0000 </r>
       <r>    4.4908    1.0000 </r>
       <r>    4.8185    1.0000 </r>
       <r>    5.1645    1.0000 </r>
       <r>    5.4153    1.0000 </r>
       <r>    5.5678    1.0000 </r>
       <r>    5.6464    1.0000 </r>
       <r>    6.0008    1.0000 </r>
       <r>    6.1860    1.0000 </r>
       <r>    6.2725    1.0000 </r>
       <r>    6.5846    1.0000 </r>
       <r>    6.9850    1.0000 </r>
       <r>    7.2113    1.0000 </r>
       <r>    7.4277    1.0000 </r>
       <r>    7.6660    1.0000 </r>
       <r>    7.7952    1.0000 </r>
       <r>    7.9461    1.0000 </r>
       <r>    8.2216    1.0000 </r>
       <r>    8.3684    1.0000 </r>
       <r>    9.4910    1.0000 </r>
       <r>    9.7777    1.0000 </r>
       <r>   10.0822    1.0000 </r>
       <r>   10.2470    1.0000 </r>
       <r>   10.3137    1.0000 </r>
       <r>   10.4822    1.0000 </r>
       <r>   10.7173    1.0000 </r>
       <r>   11.0905    1.0021 </r>
       <r>   11.4342    0.9374 </r>
       <r>   11.4862    0.7978 </r>
       <r>   11.6236    0.2538 </r>
       <r>   11.8468   -0.0309 </r>
       <r>   12.0148   -0.0031 </r>
       <r>   12.1391   -0.0002 </r>
       <r>   12.2873   -0.0000 </r>
       <r>   12.6378   -0.0000 </r>
       <r>   12.9327   -0.0000 </r>
       <r>   13.1095   -0.0000 </r>
       <r>   13.2602   -0.0000 </r>
       <r>   13.5010   -0.0000 </r>
       <r>   13.8514   -0.0000 </r>
       <r>   14.0532   -0.0000 </r>
       <r>   14.2264   -0.0000 </r>
       <r>   14.4119   -0.0000 </r>
       <r>   14.5710   -0.0000 </r>
       <r>   14.6923   -0.0000 </r>
       <r>   15.1598   -0.0000 </r>
       <r>   15.3719   -0.0000 </r>
       <r>   15.5583   -0.0000 </r>
       <r>   15.7944   -0.0000 </r>
       <r>   16.0397   -0.0000 </r>
       <r>   16.1756   -0.0000 </r>
       <r>   16.2571   -0.0000 </r>
       <r>   16.4218   -0.0000 </r>
      </set>
      <set comment="kpoint 56">
       <r>   -0.9980    1.0000 </r>
       <r>   -0.5230    1.0000 </r>
       <r>   -0.2162    1.0000 </r>
       <r>    0.1975    1.0000 </r>
       <r>    1.2112    1.0000 </r>
       <r>    1.9779    1.0000 </r>
       <r>    2.1638    1.0000 </r>
       <r>    2.7245    1.0000 </r>
       <r>    3.2364    1.0000 </r>
       <r>    3.6942    1.0000 </r>
       <r>    4.0318    1.0000 </r>
       <r>    4.3633    1.0000 </r>
       <r>    4.6108    1.0000 </r>
       <r>    4.7663    1.0000 </r>
       <r>    5.1091    1.0000 </r>
       <r>    5.3326    1.0000 </r>
       <r>    5.5260    1.0000 </r>
       <r>    5.7644    1.0000 </r>
       <r>    6.0177    1.0000 </r>
       <r>    6.2320    1.0000 </r>
       <r>    6.3157    1.0000 </r>
       <r>    6.5527    1.0000 </r>
       <r>    6.9441    1.0000 </r>
       <r>    7.2425    1.0000 </r>
       <r>    7.4459    1.0000 </r>
       <r>    7.6373    1.0000 </r>
       <r>    7.8643    1.0000 </r>
       <r>    7.9762    1.0000 </r>
       <r>    8.1295    1.0000 </r>
       <r>    8.3227    1.0000 </r>
       <r>    9.3514    1.0000 </r>
       <r>    9.8157    1.0000 </r>
       <r>   10.0441    1.0000 </r>
       <r>   10.2711    1.0000 </r>
       <r>   10.3680    1.0000 </r>
       <r>   10.5326    1.0000 </r>
       <r>   10.8100    1.0000 </r>
       <r>   11.1324    1.0048 </r>
       <r>   11.3745    1.0176 </r>
       <r>   11.4576    0.8829 </r>
       <r>   11.5731    0.4547 </r>
       <r>   11.8806   -0.0235 </r>
       <r>   12.0165   -0.0030 </r>
       <r>   12.1334   -0.0002 </r>
       <r>   12.3324   -0.0000 </r>
       <r>   12.5850   -0.0000 </r>
       <r>   12.9315   -0.0000 </r>
       <r>   13.0725   -0.0000 </r>
       <r>   13.2276   -0.0000 </r>
       <r>   13.5946   -0.0000 </r>
       <r>   13.9324   -0.0000 </r>
       <r>   14.0704   -0.0000 </r>
       <r>   14.1666   -0.0000 </r>
       <r>   14.2601   -0.0000 </r>
       <r>   14.5791   -0.0000 </r>
       <r>   14.7659   -0.0000 </r>
       <r>   15.1217   -0.0000 </r>
       <r>   15.3787   -0.0000 </r>
       <r>   15.5628   -0.0000 </r>
       <r>   15.8512   -0.0000 </r>
       <r>   16.0520   -0.0000 </r>
       <r>   16.1981   -0.0000 </r>
       <r>   16.3081   -0.0000 </r>
       <r>   16.4554   -0.0000 </r>
      </set>
      <set comment="kpoint 57">
       <r>   -0.9747    1.0000 </r>
       <r>   -0.5490    1.0000 </r>
       <r>   -0.2195    1.0000 </r>
       <r>    0.1849    1.0000 </r>
       <r>    1.2308    1.0000 </r>
       <r>    1.8397    1.0000 </r>
       <r>    2.2748    1.0000 </r>
       <r>    2.8635    1.0000 </r>
       <r>    3.2437    1.0000 </r>
       <r>    3.6697    1.0000 </r>
       <r>    4.0450    1.0000 </r>
       <r>    4.2543    1.0000 </r>
       <r>    4.5157    1.0000 </r>
       <r>    4.8738    1.0000 </r>
       <r>    5.0853    1.0000 </r>
       <r>    5.3243    1.0000 </r>
       <r>    5.4628    1.0000 </r>
       <r>    5.7565    1.0000 </r>
       <r>    6.0247    1.0000 </r>
       <r>    6.1336    1.0000 </r>
       <r>    6.4295    1.0000 </r>
       <r>    6.5896    1.0000 </r>
       <r>    7.0549    1.0000 </r>
       <r>    7.3251    1.0000 </r>
       <r>    7.3682    1.0000 </r>
       <r>    7.6133    1.0000 </r>
       <r>    7.6811    1.0000 </r>
       <r>    7.9146    1.0000 </r>
       <r>    8.1653    1.0000 </r>
       <r>    8.3827    1.0000 </r>
       <r>    9.6192    1.0000 </r>
       <r>    9.6640    1.0000 </r>
       <r>   10.0867    1.0000 </r>
       <r>   10.2482    1.0000 </r>
       <r>   10.4322    1.0000 </r>
       <r>   10.5128    1.0000 </r>
       <r>   10.8834    1.0000 </r>
       <r>   11.0025    1.0003 </r>
       <r>   11.3732    1.0185 </r>
       <r>   11.5652    0.4879 </r>
       <r>   11.6795    0.0865 </r>
       <r>   11.7596   -0.0236 </r>
       <r>   12.0269   -0.0025 </r>
       <r>   12.1691   -0.0001 </r>
       <r>   12.3215   -0.0000 </r>
       <r>   12.5425   -0.0000 </r>
       <r>   12.8739   -0.0000 </r>
       <r>   13.0691   -0.0000 </r>
       <r>   13.1871   -0.0000 </r>
       <r>   13.4624   -0.0000 </r>
       <r>   13.8297   -0.0000 </r>
       <r>   14.0745   -0.0000 </r>
       <r>   14.1862   -0.0000 </r>
       <r>   14.3919   -0.0000 </r>
       <r>   14.5515   -0.0000 </r>
       <r>   14.8361   -0.0000 </r>
       <r>   15.1031   -0.0000 </r>
       <r>   15.3055   -0.0000 </r>
       <r>   15.5108   -0.0000 </r>
       <r>   15.9242   -0.0000 </r>
       <r>   16.0303   -0.0000 </r>
       <r>   16.1963   -0.0000 </r>
       <r>   16.2855   -0.0000 </r>
       <r>   16.5077   -0.0000 </r>
      </set>
      <set comment="kpoint 58">
       <r>   -0.8998    1.0000 </r>
       <r>   -0.6689    1.0000 </r>
       <r>   -0.1489    1.0000 </r>
       <r>    0.1138    1.0000 </r>
       <r>    1.2510    1.0000 </r>
       <r>    1.9218    1.0000 </r>
       <r>    2.2990    1.0000 </r>
       <r>    2.7350    1.0000 </r>
       <r>    3.3683    1.0000 </r>
       <r>    3.6933    1.0000 </r>
       <r>    3.9930    1.0000 </r>
       <r>    4.2504    1.0000 </r>
       <r>    4.6273    1.0000 </r>
       <r>    4.6521    1.0000 </r>
       <r>    5.1147    1.0000 </r>
       <r>    5.3123    1.0000 </r>
       <r>    5.4738    1.0000 </r>
       <r>    5.7759    1.0000 </r>
       <r>    6.0046    1.0000 </r>
       <r>    6.2036    1.0000 </r>
       <r>    6.2887    1.0000 </r>
       <r>    6.5569    1.0000 </r>
       <r>    7.0190    1.0000 </r>
       <r>    7.2534    1.0000 </r>
       <r>    7.4366    1.0000 </r>
       <r>    7.6643    1.0000 </r>
       <r>    7.8710    1.0000 </r>
       <r>    7.9708    1.0000 </r>
       <r>    8.0850    1.0000 </r>
       <r>    8.3966    1.0000 </r>
       <r>    9.5019    1.0000 </r>
       <r>    9.8204    1.0000 </r>
       <r>    9.9921    1.0000 </r>
       <r>   10.2623    1.0000 </r>
       <r>   10.4173    1.0000 </r>
       <r>   10.5339    1.0000 </r>
       <r>   10.8859    1.0000 </r>
       <r>   11.1234    1.0041 </r>
       <r>   11.4188    0.9659 </r>
       <r>   11.5538    0.5363 </r>
       <r>   11.6218    0.2605 </r>
       <r>   11.7705   -0.0289 </r>
       <r>   11.9976   -0.0043 </r>
       <r>   12.2174   -0.0000 </r>
       <r>   12.3139   -0.0000 </r>
       <r>   12.6995   -0.0000 </r>
       <r>   12.8245   -0.0000 </r>
       <r>   12.9170   -0.0000 </r>
       <r>   13.0901   -0.0000 </r>
       <r>   13.4819   -0.0000 </r>
       <r>   13.8293   -0.0000 </r>
       <r>   13.9579   -0.0000 </r>
       <r>   14.1185   -0.0000 </r>
       <r>   14.2989   -0.0000 </r>
       <r>   14.5982   -0.0000 </r>
       <r>   14.9224   -0.0000 </r>
       <r>   15.2470   -0.0000 </r>
       <r>   15.3784   -0.0000 </r>
       <r>   15.4430   -0.0000 </r>
       <r>   15.8115   -0.0000 </r>
       <r>   15.9281   -0.0000 </r>
       <r>   16.0958   -0.0000 </r>
       <r>   16.3205   -0.0000 </r>
       <r>   16.4926   -0.0000 </r>
      </set>
      <set comment="kpoint 59">
       <r>   -0.9507    1.0000 </r>
       <r>   -0.5782    1.0000 </r>
       <r>   -0.2081    1.0000 </r>
       <r>    0.1215    1.0000 </r>
       <r>    1.4119    1.0000 </r>
       <r>    1.8448    1.0000 </r>
       <r>    2.1355    1.0000 </r>
       <r>    2.7309    1.0000 </r>
       <r>    3.4442    1.0000 </r>
       <r>    3.6879    1.0000 </r>
       <r>    4.0617    1.0000 </r>
       <r>    4.2230    1.0000 </r>
       <r>    4.3763    1.0000 </r>
       <r>    4.8419    1.0000 </r>
       <r>    5.0686    1.0000 </r>
       <r>    5.4225    1.0000 </r>
       <r>    5.5616    1.0000 </r>
       <r>    5.7627    1.0000 </r>
       <r>    5.9373    1.0000 </r>
       <r>    6.1575    1.0000 </r>
       <r>    6.3939    1.0000 </r>
       <r>    6.6515    1.0000 </r>
       <r>    6.9318    1.0000 </r>
       <r>    7.3257    1.0000 </r>
       <r>    7.4553    1.0000 </r>
       <r>    7.5701    1.0000 </r>
       <r>    7.7674    1.0000 </r>
       <r>    7.9668    1.0000 </r>
       <r>    8.1143    1.0000 </r>
       <r>    8.3625    1.0000 </r>
       <r>    9.5484    1.0000 </r>
       <r>    9.7176    1.0000 </r>
       <r>   10.0779    1.0000 </r>
       <r>   10.3388    1.0000 </r>
       <r>   10.4088    1.0000 </r>
       <r>   10.4972    1.0000 </r>
       <r>   10.7022    1.0000 </r>
       <r>   11.0984    1.0025 </r>
       <r>   11.3781    1.0150 </r>
       <r>   11.5870    0.3966 </r>
       <r>   11.7270    0.0042 </r>
       <r>   11.8293   -0.0339 </r>
       <r>   11.9740   -0.0066 </r>
       <r>   12.1332   -0.0002 </r>
       <r>   12.1968   -0.0000 </r>
       <r>   12.6615   -0.0000 </r>
       <r>   12.8885   -0.0000 </r>
       <r>   13.0193   -0.0000 </r>
       <r>   13.1149   -0.0000 </r>
       <r>   13.5948   -0.0000 </r>
       <r>   13.8425   -0.0000 </r>
       <r>   14.0020   -0.0000 </r>
       <r>   14.2091   -0.0000 </r>
       <r>   14.3219   -0.0000 </r>
       <r>   14.5821   -0.0000 </r>
       <r>   14.8514   -0.0000 </r>
       <r>   15.1423   -0.0000 </r>
       <r>   15.3259   -0.0000 </r>
       <r>   15.6107   -0.0000 </r>
       <r>   15.7378   -0.0000 </r>
       <r>   16.0080   -0.0000 </r>
       <r>   16.1833   -0.0000 </r>
       <r>   16.3052   -0.0000 </r>
       <r>   16.4415   -0.0000 </r>
      </set>
      <set comment="kpoint 60">
       <r>   -0.9157    1.0000 </r>
       <r>   -0.6203    1.0000 </r>
       <r>   -0.2546    1.0000 </r>
       <r>    0.2344    1.0000 </r>
       <r>    1.1402    1.0000 </r>
       <r>    1.9729    1.0000 </r>
       <r>    2.2610    1.0000 </r>
       <r>    2.8404    1.0000 </r>
       <r>    3.3786    1.0000 </r>
       <r>    3.7014    1.0000 </r>
       <r>    3.8761    1.0000 </r>
       <r>    4.2756    1.0000 </r>
       <r>    4.6161    1.0000 </r>
       <r>    4.7113    1.0000 </r>
       <r>    5.0895    1.0000 </r>
       <r>    5.3069    1.0000 </r>
       <r>    5.5443    1.0000 </r>
       <r>    5.7036    1.0000 </r>
       <r>    6.0433    1.0000 </r>
       <r>    6.2140    1.0000 </r>
       <r>    6.3306    1.0000 </r>
       <r>    6.4616    1.0000 </r>
       <r>    6.8751    1.0000 </r>
       <r>    7.3077    1.0000 </r>
       <r>    7.4864    1.0000 </r>
       <r>    7.6515    1.0000 </r>
       <r>    7.9268    1.0000 </r>
       <r>    7.9529    1.0000 </r>
       <r>    8.1316    1.0000 </r>
       <r>    8.3278    1.0000 </r>
       <r>    9.5983    1.0000 </r>
       <r>    9.8720    1.0000 </r>
       <r>    9.9618    1.0000 </r>
       <r>   10.2371    1.0000 </r>
       <r>   10.4100    1.0000 </r>
       <r>   10.6175    1.0000 </r>
       <r>   10.8282    1.0000 </r>
       <r>   11.0436    1.0008 </r>
       <r>   11.3322    1.0345 </r>
       <r>   11.6070    0.3164 </r>
       <r>   11.7122    0.0241 </r>
       <r>   11.8559   -0.0291 </r>
       <r>   11.9558   -0.0089 </r>
       <r>   12.0943   -0.0006 </r>
       <r>   12.2587   -0.0000 </r>
       <r>   12.5859   -0.0000 </r>
       <r>   12.8547   -0.0000 </r>
       <r>   12.9566   -0.0000 </r>
       <r>   13.2883   -0.0000 </r>
       <r>   13.5731   -0.0000 </r>
       <r>   13.7902   -0.0000 </r>
       <r>   13.9391   -0.0000 </r>
       <r>   14.1091   -0.0000 </r>
       <r>   14.3355   -0.0000 </r>
       <r>   14.5731   -0.0000 </r>
       <r>   14.7700   -0.0000 </r>
       <r>   15.2545   -0.0000 </r>
       <r>   15.3565   -0.0000 </r>
       <r>   15.4805   -0.0000 </r>
       <r>   15.7968   -0.0000 </r>
       <r>   15.9105   -0.0000 </r>
       <r>   16.1705   -0.0000 </r>
       <r>   16.2915   -0.0000 </r>
       <r>   16.4091   -0.0000 </r>
      </set>
      <set comment="kpoint 61">
       <r>   -0.9962    1.0000 </r>
       <r>   -0.5573    1.0000 </r>
       <r>   -0.1112    1.0000 </r>
       <r>    0.1050    1.0000 </r>
       <r>    1.2871    1.0000 </r>
       <r>    1.9182    1.0000 </r>
       <r>    2.0612    1.0000 </r>
       <r>    2.8534    1.0000 </r>
       <r>    3.3649    1.0000 </r>
       <r>    3.5749    1.0000 </r>
       <r>    4.0428    1.0000 </r>
       <r>    4.2408    1.0000 </r>
       <r>    4.5581    1.0000 </r>
       <r>    4.8230    1.0000 </r>
       <r>    5.1771    1.0000 </r>
       <r>    5.4457    1.0000 </r>
       <r>    5.5229    1.0000 </r>
       <r>    5.7675    1.0000 </r>
       <r>    5.9805    1.0000 </r>
       <r>    6.1059    1.0000 </r>
       <r>    6.3201    1.0000 </r>
       <r>    6.5536    1.0000 </r>
       <r>    7.0147    1.0000 </r>
       <r>    7.2155    1.0000 </r>
       <r>    7.4487    1.0000 </r>
       <r>    7.6791    1.0000 </r>
       <r>    7.7749    1.0000 </r>
       <r>    7.9180    1.0000 </r>
       <r>    8.1401    1.0000 </r>
       <r>    8.4469    1.0000 </r>
       <r>    9.4912    1.0000 </r>
       <r>    9.7084    1.0000 </r>
       <r>   10.0798    1.0000 </r>
       <r>   10.2262    1.0000 </r>
       <r>   10.3651    1.0000 </r>
       <r>   10.4870    1.0000 </r>
       <r>   10.7464    1.0000 </r>
       <r>   11.0610    1.0011 </r>
       <r>   11.3305    1.0347 </r>
       <r>   11.5144    0.6967 </r>
       <r>   11.6514    0.1615 </r>
       <r>   11.8798   -0.0237 </r>
       <r>   12.0473   -0.0016 </r>
       <r>   12.1299   -0.0002 </r>
       <r>   12.4115   -0.0000 </r>
       <r>   12.5820   -0.0000 </r>
       <r>   12.9468   -0.0000 </r>
       <r>   13.0591   -0.0000 </r>
       <r>   13.2474   -0.0000 </r>
       <r>   13.4901   -0.0000 </r>
       <r>   13.8373   -0.0000 </r>
       <r>   14.0429   -0.0000 </r>
       <r>   14.1706   -0.0000 </r>
       <r>   14.3362   -0.0000 </r>
       <r>   14.5891   -0.0000 </r>
       <r>   14.8787   -0.0000 </r>
       <r>   15.2002   -0.0000 </r>
       <r>   15.3386   -0.0000 </r>
       <r>   15.5342   -0.0000 </r>
       <r>   15.8875   -0.0000 </r>
       <r>   15.9320   -0.0000 </r>
       <r>   16.1008   -0.0000 </r>
       <r>   16.3785   -0.0000 </r>
       <r>   16.4844   -0.0000 </r>
      </set>
      <set comment="kpoint 62">
       <r>   -0.9874    1.0000 </r>
       <r>   -0.5745    1.0000 </r>
       <r>   -0.1525    1.0000 </r>
       <r>    0.1785    1.0000 </r>
       <r>    1.2111    1.0000 </r>
       <r>    1.9429    1.0000 </r>
       <r>    2.2063    1.0000 </r>
       <r>    2.7166    1.0000 </r>
       <r>    3.2960    1.0000 </r>
       <r>    3.6192    1.0000 </r>
       <r>    4.0185    1.0000 </r>
       <r>    4.2950    1.0000 </r>
       <r>    4.6018    1.0000 </r>
       <r>    4.7773    1.0000 </r>
       <r>    5.2278    1.0000 </r>
       <r>    5.3851    1.0000 </r>
       <r>    5.5281    1.0000 </r>
       <r>    5.7080    1.0000 </r>
       <r>    6.0048    1.0000 </r>
       <r>    6.1960    1.0000 </r>
       <r>    6.4189    1.0000 </r>
       <r>    6.4793    1.0000 </r>
       <r>    6.9939    1.0000 </r>
       <r>    7.2247    1.0000 </r>
       <r>    7.4730    1.0000 </r>
       <r>    7.6154    1.0000 </r>
       <r>    7.7776    1.0000 </r>
       <r>    7.9753    1.0000 </r>
       <r>    8.1058    1.0000 </r>
       <r>    8.4052    1.0000 </r>
       <r>    9.3562    1.0000 </r>
       <r>    9.8516    1.0000 </r>
       <r>   10.0084    1.0000 </r>
       <r>   10.2180    1.0000 </r>
       <r>   10.4445    1.0000 </r>
       <r>   10.4923    1.0000 </r>
       <r>   10.7267    1.0000 </r>
       <r>   11.1543    1.0070 </r>
       <r>   11.3130    1.0354 </r>
       <r>   11.5401    0.5935 </r>
       <r>   11.6289    0.2349 </r>
       <r>   11.8576   -0.0287 </r>
       <r>   12.0267   -0.0025 </r>
       <r>   12.0918   -0.0006 </r>
       <r>   12.3053   -0.0000 </r>
       <r>   12.6711   -0.0000 </r>
       <r>   12.9244   -0.0000 </r>
       <r>   13.0937   -0.0000 </r>
       <r>   13.2041   -0.0000 </r>
       <r>   13.5820   -0.0000 </r>
       <r>   13.9023   -0.0000 </r>
       <r>   14.0715   -0.0000 </r>
       <r>   14.1765   -0.0000 </r>
       <r>   14.3227   -0.0000 </r>
       <r>   14.5831   -0.0000 </r>
       <r>   14.7440   -0.0000 </r>
       <r>   15.0664   -0.0000 </r>
       <r>   15.4441   -0.0000 </r>
       <r>   15.5580   -0.0000 </r>
       <r>   15.8909   -0.0000 </r>
       <r>   15.9835   -0.0000 </r>
       <r>   16.2240   -0.0000 </r>
       <r>   16.3447   -0.0000 </r>
       <r>   16.4861   -0.0000 </r>
      </set>
      <set comment="kpoint 63">
       <r>   -0.9892    1.0000 </r>
       <r>   -0.4918    1.0000 </r>
       <r>   -0.2549    1.0000 </r>
       <r>    0.1617    1.0000 </r>
       <r>    1.2877    1.0000 </r>
       <r>    1.7773    1.0000 </r>
       <r>    2.2736    1.0000 </r>
       <r>    2.8776    1.0000 </r>
       <r>    3.1947    1.0000 </r>
       <r>    3.7729    1.0000 </r>
       <r>    4.1045    1.0000 </r>
       <r>    4.2493    1.0000 </r>
       <r>    4.4532    1.0000 </r>
       <r>    4.8857    1.0000 </r>
       <r>    4.9804    1.0000 </r>
       <r>    5.4039    1.0000 </r>
       <r>    5.4937    1.0000 </r>
       <r>    5.6787    1.0000 </r>
       <r>    6.0178    1.0000 </r>
       <r>    6.1792    1.0000 </r>
       <r>    6.3549    1.0000 </r>
       <r>    6.6142    1.0000 </r>
       <r>    7.0164    1.0000 </r>
       <r>    7.3360    1.0000 </r>
       <r>    7.4320    1.0000 </r>
       <r>    7.5668    1.0000 </r>
       <r>    7.7479    1.0000 </r>
       <r>    7.9530    1.0000 </r>
       <r>    8.1013    1.0000 </r>
       <r>    8.3809    1.0000 </r>
       <r>    9.5584    1.0000 </r>
       <r>    9.7397    1.0000 </r>
       <r>   10.0903    1.0000 </r>
       <r>   10.2338    1.0000 </r>
       <r>   10.4127    1.0000 </r>
       <r>   10.5617    1.0000 </r>
       <r>   10.8384    1.0000 </r>
       <r>   11.0704    1.0014 </r>
       <r>   11.4363    0.9331 </r>
       <r>   11.4758    0.8312 </r>
       <r>   11.6953    0.0531 </r>
       <r>   11.7133    0.0225 </r>
       <r>   12.0565   -0.0013 </r>
       <r>   12.1330   -0.0002 </r>
       <r>   12.2811   -0.0000 </r>
       <r>   12.6275   -0.0000 </r>
       <r>   12.7395   -0.0000 </r>
       <r>   13.1387   -0.0000 </r>
       <r>   13.1867   -0.0000 </r>
       <r>   13.5213   -0.0000 </r>
       <r>   13.8615   -0.0000 </r>
       <r>   14.0376   -0.0000 </r>
       <r>   14.1862   -0.0000 </r>
       <r>   14.4809   -0.0000 </r>
       <r>   14.5272   -0.0000 </r>
       <r>   14.8108   -0.0000 </r>
       <r>   15.0628   -0.0000 </r>
       <r>   15.3969   -0.0000 </r>
       <r>   15.4535   -0.0000 </r>
       <r>   15.8026   -0.0000 </r>
       <r>   16.0458   -0.0000 </r>
       <r>   16.1502   -0.0000 </r>
       <r>   16.3064   -0.0000 </r>
       <r>   16.5863   -0.0000 </r>
      </set>
      <set comment="kpoint 64">
       <r>   -0.8964    1.0000 </r>
       <r>   -0.6515    1.0000 </r>
       <r>   -0.2214    1.0000 </r>
       <r>    0.1705    1.0000 </r>
       <r>    1.2355    1.0000 </r>
       <r>    1.9438    1.0000 </r>
       <r>    2.2870    1.0000 </r>
       <r>    2.7328    1.0000 </r>
       <r>    3.3962    1.0000 </r>
       <r>    3.6953    1.0000 </r>
       <r>    3.9426    1.0000 </r>
       <r>    4.3471    1.0000 </r>
       <r>    4.4954    1.0000 </r>
       <r>    4.7734    1.0000 </r>
       <r>    5.0322    1.0000 </r>
       <r>    5.2882    1.0000 </r>
       <r>    5.4921    1.0000 </r>
       <r>    5.7662    1.0000 </r>
       <r>    6.0178    1.0000 </r>
       <r>    6.2148    1.0000 </r>
       <r>    6.3328    1.0000 </r>
       <r>    6.5234    1.0000 </r>
       <r>    7.0093    1.0000 </r>
       <r>    7.1854    1.0000 </r>
       <r>    7.5152    1.0000 </r>
       <r>    7.6278    1.0000 </r>
       <r>    7.8584    1.0000 </r>
       <r>    7.9608    1.0000 </r>
       <r>    8.2203    1.0000 </r>
       <r>    8.3176    1.0000 </r>
       <r>    9.5765    1.0000 </r>
       <r>    9.7903    1.0000 </r>
       <r>    9.9274    1.0000 </r>
       <r>   10.2579    1.0000 </r>
       <r>   10.4541    1.0000 </r>
       <r>   10.6041    1.0000 </r>
       <r>   10.7627    1.0000 </r>
       <r>   11.1255    1.0042 </r>
       <r>   11.3949    0.9989 </r>
       <r>   11.5941    0.3677 </r>
       <r>   11.7159    0.0187 </r>
       <r>   11.8106   -0.0354 </r>
       <r>   11.9978   -0.0043 </r>
       <r>   12.1963   -0.0000 </r>
       <r>   12.2261   -0.0000 </r>
       <r>   12.7087   -0.0000 </r>
       <r>   12.8090   -0.0000 </r>
       <r>   12.9104   -0.0000 </r>
       <r>   13.0993   -0.0000 </r>
       <r>   13.5005   -0.0000 </r>
       <r>   13.8551   -0.0000 </r>
       <r>   13.9164   -0.0000 </r>
       <r>   14.0389   -0.0000 </r>
       <r>   14.3917   -0.0000 </r>
       <r>   14.5831   -0.0000 </r>
       <r>   14.8659   -0.0000 </r>
       <r>   15.1704   -0.0000 </r>
       <r>   15.4158   -0.0000 </r>
       <r>   15.4903   -0.0000 </r>
       <r>   15.8164   -0.0000 </r>
       <r>   15.9737   -0.0000 </r>
       <r>   16.1406   -0.0000 </r>
       <r>   16.3186   -0.0000 </r>
       <r>   16.5645   -0.0000 </r>
      </set>
      <set comment="kpoint 65">
       <r>   -0.9562    1.0000 </r>
       <r>   -0.5423    1.0000 </r>
       <r>   -0.2759    1.0000 </r>
       <r>    0.2186    1.0000 </r>
       <r>    1.1555    1.0000 </r>
       <r>    1.9342    1.0000 </r>
       <r>    2.2793    1.0000 </r>
       <r>    2.8635    1.0000 </r>
       <r>    3.2184    1.0000 </r>
       <r>    3.7424    1.0000 </r>
       <r>    4.0040    1.0000 </r>
       <r>    4.3283    1.0000 </r>
       <r>    4.6304    1.0000 </r>
       <r>    4.7239    1.0000 </r>
       <r>    4.9860    1.0000 </r>
       <r>    5.2755    1.0000 </r>
       <r>    5.5062    1.0000 </r>
       <r>    5.7685    1.0000 </r>
       <r>    6.0499    1.0000 </r>
       <r>    6.1647    1.0000 </r>
       <r>    6.3191    1.0000 </r>
       <r>    6.5367    1.0000 </r>
       <r>    6.9536    1.0000 </r>
       <r>    7.2737    1.0000 </r>
       <r>    7.3934    1.0000 </r>
       <r>    7.7065    1.0000 </r>
       <r>    7.8807    1.0000 </r>
       <r>    8.0215    1.0000 </r>
       <r>    8.1028    1.0000 </r>
       <r>    8.3218    1.0000 </r>
       <r>    9.5500    1.0000 </r>
       <r>    9.8110    1.0000 </r>
       <r>    9.9990    1.0000 </r>
       <r>   10.2577    1.0000 </r>
       <r>   10.4235    1.0000 </r>
       <r>   10.5637    1.0000 </r>
       <r>   10.8219    1.0000 </r>
       <r>   11.0794    1.0017 </r>
       <r>   11.4350    0.9359 </r>
       <r>   11.5787    0.4310 </r>
       <r>   11.6735    0.1008 </r>
       <r>   11.7932   -0.0346 </r>
       <r>   11.9553   -0.0089 </r>
       <r>   12.0874   -0.0006 </r>
       <r>   12.3524   -0.0000 </r>
       <r>   12.5682   -0.0000 </r>
       <r>   12.8538   -0.0000 </r>
       <r>   13.0950   -0.0000 </r>
       <r>   13.2100   -0.0000 </r>
       <r>   13.5652   -0.0000 </r>
       <r>   13.7563   -0.0000 </r>
       <r>   13.9587   -0.0000 </r>
       <r>   14.1125   -0.0000 </r>
       <r>   14.2789   -0.0000 </r>
       <r>   14.6093   -0.0000 </r>
       <r>   14.7624   -0.0000 </r>
       <r>   15.1312   -0.0000 </r>
       <r>   15.4311   -0.0000 </r>
       <r>   15.5997   -0.0000 </r>
       <r>   15.8442   -0.0000 </r>
       <r>   16.0225   -0.0000 </r>
       <r>   16.0658   -0.0000 </r>
       <r>   16.2190   -0.0000 </r>
       <r>   16.4469   -0.0000 </r>
      </set>
      <set comment="kpoint 66">
       <r>   -0.9449    1.0000 </r>
       <r>   -0.6470    1.0000 </r>
       <r>   -0.1049    1.0000 </r>
       <r>    0.1360    1.0000 </r>
       <r>    1.2645    1.0000 </r>
       <r>    1.9098    1.0000 </r>
       <r>    2.1464    1.0000 </r>
       <r>    2.7994    1.0000 </r>
       <r>    3.3134    1.0000 </r>
       <r>    3.6607    1.0000 </r>
       <r>    4.0822    1.0000 </r>
       <r>    4.2845    1.0000 </r>
       <r>    4.5986    1.0000 </r>
       <r>    4.7014    1.0000 </r>
       <r>    5.1640    1.0000 </r>
       <r>    5.2852    1.0000 </r>
       <r>    5.4976    1.0000 </r>
       <r>    5.7942    1.0000 </r>
       <r>    5.9106    1.0000 </r>
       <r>    6.1861    1.0000 </r>
       <r>    6.3837    1.0000 </r>
       <r>    6.6101    1.0000 </r>
       <r>    6.9679    1.0000 </r>
       <r>    7.2379    1.0000 </r>
       <r>    7.4997    1.0000 </r>
       <r>    7.7177    1.0000 </r>
       <r>    7.8021    1.0000 </r>
       <r>    7.9131    1.0000 </r>
       <r>    8.0904    1.0000 </r>
       <r>    8.4414    1.0000 </r>
       <r>    9.4618    1.0000 </r>
       <r>    9.7271    1.0000 </r>
       <r>   10.0541    1.0000 </r>
       <r>   10.2129    1.0000 </r>
       <r>   10.3360    1.0000 </r>
       <r>   10.6001    1.0000 </r>
       <r>   10.7639    1.0000 </r>
       <r>   11.0880    1.0020 </r>
       <r>   11.3246    1.0352 </r>
       <r>   11.4793    0.8202 </r>
       <r>   11.6123    0.2959 </r>
       <r>   11.8012   -0.0353 </r>
       <r>   12.0666   -0.0011 </r>
       <r>   12.2145   -0.0000 </r>
       <r>   12.4150   -0.0000 </r>
       <r>   12.5360   -0.0000 </r>
       <r>   12.9267   -0.0000 </r>
       <r>   13.1051   -0.0000 </r>
       <r>   13.1901   -0.0000 </r>
       <r>   13.4440   -0.0000 </r>
       <r>   13.8356   -0.0000 </r>
       <r>   14.0850   -0.0000 </r>
       <r>   14.1922   -0.0000 </r>
       <r>   14.3636   -0.0000 </r>
       <r>   14.6421   -0.0000 </r>
       <r>   14.7612   -0.0000 </r>
       <r>   15.2194   -0.0000 </r>
       <r>   15.4188   -0.0000 </r>
       <r>   15.5086   -0.0000 </r>
       <r>   15.8180   -0.0000 </r>
       <r>   15.8830   -0.0000 </r>
       <r>   16.0600   -0.0000 </r>
       <r>   16.3375   -0.0000 </r>
       <r>   16.4551   -0.0000 </r>
      </set>
      <set comment="kpoint 67">
       <r>   -0.9855    1.0000 </r>
       <r>   -0.5243    1.0000 </r>
       <r>   -0.2048    1.0000 </r>
       <r>    0.1256    1.0000 </r>
       <r>    1.2968    1.0000 </r>
       <r>    1.9152    1.0000 </r>
       <r>    2.1878    1.0000 </r>
       <r>    2.7892    1.0000 </r>
       <r>    3.2636    1.0000 </r>
       <r>    3.6424    1.0000 </r>
       <r>    4.0195    1.0000 </r>
       <r>    4.2517    1.0000 </r>
       <r>    4.5542    1.0000 </r>
       <r>    4.8384    1.0000 </r>
       <r>    5.1501    1.0000 </r>
       <r>    5.3806    1.0000 </r>
       <r>    5.5011    1.0000 </r>
       <r>    5.7298    1.0000 </r>
       <r>    6.0033    1.0000 </r>
       <r>    6.2430    1.0000 </r>
       <r>    6.3822    1.0000 </r>
       <r>    6.5458    1.0000 </r>
       <r>    7.0728    1.0000 </r>
       <r>    7.2902    1.0000 </r>
       <r>    7.3618    1.0000 </r>
       <r>    7.5312    1.0000 </r>
       <r>    7.8292    1.0000 </r>
       <r>    7.9660    1.0000 </r>
       <r>    8.0893    1.0000 </r>
       <r>    8.3108    1.0000 </r>
       <r>    9.4235    1.0000 </r>
       <r>    9.7633    1.0000 </r>
       <r>   10.0436    1.0000 </r>
       <r>   10.3697    1.0000 </r>
       <r>   10.3964    1.0000 </r>
       <r>   10.5325    1.0000 </r>
       <r>   10.8599    1.0000 </r>
       <r>   11.1086    1.0031 </r>
       <r>   11.4307    0.9445 </r>
       <r>   11.4868    0.7958 </r>
       <r>   11.6299    0.2316 </r>
       <r>   11.7662   -0.0270 </r>
       <r>   12.0754   -0.0009 </r>
       <r>   12.1979   -0.0000 </r>
       <r>   12.3176   -0.0000 </r>
       <r>   12.6069   -0.0000 </r>
       <r>   12.7708   -0.0000 </r>
       <r>   13.0269   -0.0000 </r>
       <r>   13.1363   -0.0000 </r>
       <r>   13.5905   -0.0000 </r>
       <r>   13.8342   -0.0000 </r>
       <r>   14.0825   -0.0000 </r>
       <r>   14.1630   -0.0000 </r>
       <r>   14.3470   -0.0000 </r>
       <r>   14.5063   -0.0000 </r>
       <r>   14.8210   -0.0000 </r>
       <r>   15.1237   -0.0000 </r>
       <r>   15.2727   -0.0000 </r>
       <r>   15.6192   -0.0000 </r>
       <r>   15.9073   -0.0000 </r>
       <r>   16.0732   -0.0000 </r>
       <r>   16.1966   -0.0000 </r>
       <r>   16.3015   -0.0000 </r>
       <r>   16.4337   -0.0000 </r>
      </set>
      <set comment="kpoint 68">
       <r>   -0.9680    1.0000 </r>
       <r>   -0.5089    1.0000 </r>
       <r>   -0.2715    1.0000 </r>
       <r>    0.1503    1.0000 </r>
       <r>    1.2636    1.0000 </r>
       <r>    1.9475    1.0000 </r>
       <r>    2.1876    1.0000 </r>
       <r>    2.8184    1.0000 </r>
       <r>    3.3390    1.0000 </r>
       <r>    3.6453    1.0000 </r>
       <r>    3.9599    1.0000 </r>
       <r>    4.2451    1.0000 </r>
       <r>    4.6153    1.0000 </r>
       <r>    4.7550    1.0000 </r>
       <r>    5.1818    1.0000 </r>
       <r>    5.4318    1.0000 </r>
       <r>    5.4725    1.0000 </r>
       <r>    5.7393    1.0000 </r>
       <r>    6.0030    1.0000 </r>
       <r>    6.1124    1.0000 </r>
       <r>    6.2710    1.0000 </r>
       <r>    6.5536    1.0000 </r>
       <r>    6.9618    1.0000 </r>
       <r>    7.2553    1.0000 </r>
       <r>    7.4753    1.0000 </r>
       <r>    7.6346    1.0000 </r>
       <r>    7.8474    1.0000 </r>
       <r>    7.9675    1.0000 </r>
       <r>    8.1004    1.0000 </r>
       <r>    8.3911    1.0000 </r>
       <r>    9.5866    1.0000 </r>
       <r>    9.8736    1.0000 </r>
       <r>    9.9545    1.0000 </r>
       <r>   10.1551    1.0000 </r>
       <r>   10.4418    1.0000 </r>
       <r>   10.5920    1.0000 </r>
       <r>   10.8906    1.0000 </r>
       <r>   10.9504    1.0001 </r>
       <r>   11.4150    0.9721 </r>
       <r>   11.5257    0.6523 </r>
       <r>   11.7507   -0.0179 </r>
       <r>   11.8274   -0.0341 </r>
       <r>   11.9580   -0.0086 </r>
       <r>   12.1388   -0.0002 </r>
       <r>   12.2886   -0.0000 </r>
       <r>   12.7479   -0.0000 </r>
       <r>   12.8348   -0.0000 </r>
       <r>   13.0150   -0.0000 </r>
       <r>   13.1197   -0.0000 </r>
       <r>   13.5434   -0.0000 </r>
       <r>   13.8061   -0.0000 </r>
       <r>   13.9999   -0.0000 </r>
       <r>   14.1345   -0.0000 </r>
       <r>   14.1950   -0.0000 </r>
       <r>   14.6121   -0.0000 </r>
       <r>   14.7881   -0.0000 </r>
       <r>   15.1608   -0.0000 </r>
       <r>   15.4028   -0.0000 </r>
       <r>   15.4796   -0.0000 </r>
       <r>   15.8003   -0.0000 </r>
       <r>   16.0106   -0.0000 </r>
       <r>   16.1779   -0.0000 </r>
       <r>   16.3282   -0.0000 </r>
       <r>   16.5026   -0.0000 </r>
      </set>
      <set comment="kpoint 69">
       <r>   -0.9503    1.0000 </r>
       <r>   -0.5958    1.0000 </r>
       <r>   -0.2283    1.0000 </r>
       <r>    0.2037    1.0000 </r>
       <r>    1.3228    1.0000 </r>
       <r>    1.9120    1.0000 </r>
       <r>    2.0958    1.0000 </r>
       <r>    2.6997    1.0000 </r>
       <r>    3.4238    1.0000 </r>
       <r>    3.7786    1.0000 </r>
       <r>    4.0475    1.0000 </r>
       <r>    4.2180    1.0000 </r>
       <r>    4.4839    1.0000 </r>
       <r>    4.8123    1.0000 </r>
       <r>    5.0228    1.0000 </r>
       <r>    5.3559    1.0000 </r>
       <r>    5.5374    1.0000 </r>
       <r>    5.7920    1.0000 </r>
       <r>    5.9738    1.0000 </r>
       <r>    6.1720    1.0000 </r>
       <r>    6.3664    1.0000 </r>
       <r>    6.6126    1.0000 </r>
       <r>    6.9174    1.0000 </r>
       <r>    7.2525    1.0000 </r>
       <r>    7.4796    1.0000 </r>
       <r>    7.6472    1.0000 </r>
       <r>    7.8313    1.0000 </r>
       <r>    7.9235    1.0000 </r>
       <r>    8.2050    1.0000 </r>
       <r>    8.3650    1.0000 </r>
       <r>    9.5548    1.0000 </r>
       <r>    9.7621    1.0000 </r>
       <r>   10.0250    1.0000 </r>
       <r>   10.2226    1.0000 </r>
       <r>   10.3851    1.0000 </r>
       <r>   10.4933    1.0000 </r>
       <r>   10.7503    1.0000 </r>
       <r>   10.9951    1.0002 </r>
       <r>   11.3320    1.0346 </r>
       <r>   11.4273    0.9510 </r>
       <r>   11.6983    0.0474 </r>
       <r>   11.8972   -0.0197 </r>
       <r>   11.9647   -0.0077 </r>
       <r>   12.2072   -0.0000 </r>
       <r>   12.2870   -0.0000 </r>
       <r>   12.7276   -0.0000 </r>
       <r>   12.8683   -0.0000 </r>
       <r>   13.0547   -0.0000 </r>
       <r>   13.2799   -0.0000 </r>
       <r>   13.6010   -0.0000 </r>
       <r>   13.9322   -0.0000 </r>
       <r>   13.9637   -0.0000 </r>
       <r>   14.1903   -0.0000 </r>
       <r>   14.3415   -0.0000 </r>
       <r>   14.5490   -0.0000 </r>
       <r>   14.7842   -0.0000 </r>
       <r>   15.0474   -0.0000 </r>
       <r>   15.3918   -0.0000 </r>
       <r>   15.6154   -0.0000 </r>
       <r>   15.7915   -0.0000 </r>
       <r>   15.9738   -0.0000 </r>
       <r>   16.1240   -0.0000 </r>
       <r>   16.3196   -0.0000 </r>
       <r>   16.4471   -0.0000 </r>
      </set>
      <set comment="kpoint 70">
       <r>   -0.9550    1.0000 </r>
       <r>   -0.6141    1.0000 </r>
       <r>   -0.1150    1.0000 </r>
       <r>    0.1133    1.0000 </r>
       <r>    1.2491    1.0000 </r>
       <r>    1.8298    1.0000 </r>
       <r>    2.2728    1.0000 </r>
       <r>    2.8536    1.0000 </r>
       <r>    3.3347    1.0000 </r>
       <r>    3.6894    1.0000 </r>
       <r>    3.9983    1.0000 </r>
       <r>    4.0996    1.0000 </r>
       <r>    4.5733    1.0000 </r>
       <r>    4.8432    1.0000 </r>
       <r>    5.1347    1.0000 </r>
       <r>    5.3783    1.0000 </r>
       <r>    5.5185    1.0000 </r>
       <r>    5.7877    1.0000 </r>
       <r>    5.8813    1.0000 </r>
       <r>    6.2205    1.0000 </r>
       <r>    6.3415    1.0000 </r>
       <r>    6.6037    1.0000 </r>
       <r>    7.0507    1.0000 </r>
       <r>    7.1998    1.0000 </r>
       <r>    7.5301    1.0000 </r>
       <r>    7.5744    1.0000 </r>
       <r>    7.7499    1.0000 </r>
       <r>    7.8661    1.0000 </r>
       <r>    8.1537    1.0000 </r>
       <r>    8.4145    1.0000 </r>
       <r>    9.6132    1.0000 </r>
       <r>    9.7411    1.0000 </r>
       <r>   10.0548    1.0000 </r>
       <r>   10.1552    1.0000 </r>
       <r>   10.4026    1.0000 </r>
       <r>   10.5939    1.0000 </r>
       <r>   10.7973    1.0000 </r>
       <r>   11.1006    1.0026 </r>
       <r>   11.3807    1.0128 </r>
       <r>   11.5258    0.6520 </r>
       <r>   11.6170    0.2780 </r>
       <r>   11.7941   -0.0347 </r>
       <r>   12.0773   -0.0008 </r>
       <r>   12.2168   -0.0000 </r>
       <r>   12.2897   -0.0000 </r>
       <r>   12.6836   -0.0000 </r>
       <r>   12.7854   -0.0000 </r>
       <r>   12.9715   -0.0000 </r>
       <r>   13.1242   -0.0000 </r>
       <r>   13.4964   -0.0000 </r>
       <r>   13.8500   -0.0000 </r>
       <r>   14.0571   -0.0000 </r>
       <r>   14.2033   -0.0000 </r>
       <r>   14.4801   -0.0000 </r>
       <r>   14.5518   -0.0000 </r>
       <r>   14.7457   -0.0000 </r>
       <r>   15.0990   -0.0000 </r>
       <r>   15.3811   -0.0000 </r>
       <r>   15.5267   -0.0000 </r>
       <r>   15.8679   -0.0000 </r>
       <r>   16.0262   -0.0000 </r>
       <r>   16.1616   -0.0000 </r>
       <r>   16.3113   -0.0000 </r>
       <r>   16.5086   -0.0000 </r>
      </set>
      <set comment="kpoint 71">
       <r>   -0.9477    1.0000 </r>
       <r>   -0.6274    1.0000 </r>
       <r>   -0.1350    1.0000 </r>
       <r>    0.1360    1.0000 </r>
       <r>    1.3074    1.0000 </r>
       <r>    1.8576    1.0000 </r>
       <r>    2.1462    1.0000 </r>
       <r>    2.8007    1.0000 </r>
       <r>    3.3228    1.0000 </r>
       <r>    3.7876    1.0000 </r>
       <r>    4.0518    1.0000 </r>
       <r>    4.2503    1.0000 </r>
       <r>    4.4927    1.0000 </r>
       <r>    4.8103    1.0000 </r>
       <r>    5.0884    1.0000 </r>
       <r>    5.2753    1.0000 </r>
       <r>    5.5055    1.0000 </r>
       <r>    5.7037    1.0000 </r>
       <r>    5.9727    1.0000 </r>
       <r>    6.2372    1.0000 </r>
       <r>    6.3959    1.0000 </r>
       <r>    6.6165    1.0000 </r>
       <r>    7.0033    1.0000 </r>
       <r>    7.1667    1.0000 </r>
       <r>    7.4585    1.0000 </r>
       <r>    7.6505    1.0000 </r>
       <r>    7.8137    1.0000 </r>
       <r>    7.9755    1.0000 </r>
       <r>    8.1970    1.0000 </r>
       <r>    8.3722    1.0000 </r>
       <r>    9.4753    1.0000 </r>
       <r>    9.7417    1.0000 </r>
       <r>   10.0830    1.0000 </r>
       <r>   10.2440    1.0000 </r>
       <r>   10.3849    1.0000 </r>
       <r>   10.5536    1.0000 </r>
       <r>   10.6753    1.0000 </r>
       <r>   11.0977    1.0025 </r>
       <r>   11.2868    1.0325 </r>
       <r>   11.5308    0.6318 </r>
       <r>   11.6539    0.1539 </r>
       <r>   11.8461   -0.0311 </r>
       <r>   12.0218   -0.0027 </r>
       <r>   12.1704   -0.0001 </r>
       <r>   12.3386   -0.0000 </r>
       <r>   12.6124   -0.0000 </r>
       <r>   12.9361   -0.0000 </r>
       <r>   13.0580   -0.0000 </r>
       <r>   13.1136   -0.0000 </r>
       <r>   13.5712   -0.0000 </r>
       <r>   13.9259   -0.0000 </r>
       <r>   14.0078   -0.0000 </r>
       <r>   14.1885   -0.0000 </r>
       <r>   14.3487   -0.0000 </r>
       <r>   14.6285   -0.0000 </r>
       <r>   14.8102   -0.0000 </r>
       <r>   15.1655   -0.0000 </r>
       <r>   15.3115   -0.0000 </r>
       <r>   15.5721   -0.0000 </r>
       <r>   15.8392   -0.0000 </r>
       <r>   15.9537   -0.0000 </r>
       <r>   16.0316   -0.0000 </r>
       <r>   16.3011   -0.0000 </r>
       <r>   16.5120   -0.0000 </r>
      </set>
      <set comment="kpoint 72">
       <r>   -0.9937    1.0000 </r>
       <r>   -0.5128    1.0000 </r>
       <r>   -0.1812    1.0000 </r>
       <r>    0.0963    1.0000 </r>
       <r>    1.2936    1.0000 </r>
       <r>    1.9202    1.0000 </r>
       <r>    2.2000    1.0000 </r>
       <r>    2.7428    1.0000 </r>
       <r>    3.3249    1.0000 </r>
       <r>    3.5993    1.0000 </r>
       <r>    4.0510    1.0000 </r>
       <r>    4.2602    1.0000 </r>
       <r>    4.5602    1.0000 </r>
       <r>    4.8282    1.0000 </r>
       <r>    5.0706    1.0000 </r>
       <r>    5.4240    1.0000 </r>
       <r>    5.5215    1.0000 </r>
       <r>    5.8195    1.0000 </r>
       <r>    5.9334    1.0000 </r>
       <r>    6.1946    1.0000 </r>
       <r>    6.3659    1.0000 </r>
       <r>    6.6061    1.0000 </r>
       <r>    7.1091    1.0000 </r>
       <r>    7.1882    1.0000 </r>
       <r>    7.3675    1.0000 </r>
       <r>    7.5738    1.0000 </r>
       <r>    7.7781    1.0000 </r>
       <r>    7.9785    1.0000 </r>
       <r>    8.1049    1.0000 </r>
       <r>    8.3388    1.0000 </r>
       <r>    9.4213    1.0000 </r>
       <r>    9.8563    1.0000 </r>
       <r>    9.9882    1.0000 </r>
       <r>   10.1749    1.0000 </r>
       <r>   10.3438    1.0000 </r>
       <r>   10.6739    1.0000 </r>
       <r>   10.9353    1.0000 </r>
       <r>   11.1913    1.0124 </r>
       <r>   11.3368    1.0338 </r>
       <r>   11.6053    0.3229 </r>
       <r>   11.6396    0.1986 </r>
       <r>   11.7734   -0.0299 </r>
       <r>   11.9989   -0.0042 </r>
       <r>   12.1594   -0.0001 </r>
       <r>   12.3139   -0.0000 </r>
       <r>   12.5297   -0.0000 </r>
       <r>   12.7714   -0.0000 </r>
       <r>   12.9851   -0.0000 </r>
       <r>   13.2096   -0.0000 </r>
       <r>   13.5860   -0.0000 </r>
       <r>   13.9031   -0.0000 </r>
       <r>   14.0359   -0.0000 </r>
       <r>   14.1303   -0.0000 </r>
       <r>   14.3620   -0.0000 </r>
       <r>   14.5755   -0.0000 </r>
       <r>   14.8341   -0.0000 </r>
       <r>   15.0862   -0.0000 </r>
       <r>   15.2810   -0.0000 </r>
       <r>   15.6048   -0.0000 </r>
       <r>   15.9093   -0.0000 </r>
       <r>   16.0212   -0.0000 </r>
       <r>   16.1579   -0.0000 </r>
       <r>   16.3912   -0.0000 </r>
       <r>   16.5136   -0.0000 </r>
      </set>
      <set comment="kpoint 73">
       <r>   -0.9445    1.0000 </r>
       <r>   -0.5652    1.0000 </r>
       <r>   -0.2860    1.0000 </r>
       <r>    0.2544    1.0000 </r>
       <r>    1.1266    1.0000 </r>
       <r>    1.9601    1.0000 </r>
       <r>    2.3214    1.0000 </r>
       <r>    2.7864    1.0000 </r>
       <r>    3.2843    1.0000 </r>
       <r>    3.6539    1.0000 </r>
       <r>    3.9890    1.0000 </r>
       <r>    4.3053    1.0000 </r>
       <r>    4.6318    1.0000 </r>
       <r>    4.7089    1.0000 </r>
       <r>    5.1374    1.0000 </r>
       <r>    5.3348    1.0000 </r>
       <r>    5.4859    1.0000 </r>
       <r>    5.7666    1.0000 </r>
       <r>    5.9743    1.0000 </r>
       <r>    6.1135    1.0000 </r>
       <r>    6.3675    1.0000 </r>
       <r>    6.4805    1.0000 </r>
       <r>    7.0428    1.0000 </r>
       <r>    7.2291    1.0000 </r>
       <r>    7.4500    1.0000 </r>
       <r>    7.7031    1.0000 </r>
       <r>    7.7850    1.0000 </r>
       <r>    8.0166    1.0000 </r>
       <r>    8.1168    1.0000 </r>
       <r>    8.3454    1.0000 </r>
       <r>    9.5687    1.0000 </r>
       <r>    9.8287    1.0000 </r>
       <r>    9.9697    1.0000 </r>
       <r>   10.3663    1.0000 </r>
       <r>   10.4158    1.0000 </r>
       <r>   10.5293    1.0000 </r>
       <r>   10.8739    1.0000 </r>
       <r>   10.9424    1.0001 </r>
       <r>   11.3993    0.9938 </r>
       <r>   11.5563    0.5259 </r>
       <r>   11.6408    0.1947 </r>
       <r>   11.8116   -0.0354 </r>
       <r>   12.0564   -0.0013 </r>
       <r>   12.0839   -0.0007 </r>
       <r>   12.2642   -0.0000 </r>
       <r>   12.6111   -0.0000 </r>
       <r>   12.8864   -0.0000 </r>
       <r>   13.0407   -0.0000 </r>
       <r>   13.2891   -0.0000 </r>
       <r>   13.5427   -0.0000 </r>
       <r>   13.8110   -0.0000 </r>
       <r>   13.9780   -0.0000 </r>
       <r>   14.0196   -0.0000 </r>
       <r>   14.2979   -0.0000 </r>
       <r>   14.5863   -0.0000 </r>
       <r>   14.8166   -0.0000 </r>
       <r>   15.1755   -0.0000 </r>
       <r>   15.3790   -0.0000 </r>
       <r>   15.5380   -0.0000 </r>
       <r>   15.8051   -0.0000 </r>
       <r>   15.9697   -0.0000 </r>
       <r>   16.0605   -0.0000 </r>
       <r>   16.3102   -0.0000 </r>
       <r>   16.6062   -0.0000 </r>
      </set>
      <set comment="kpoint 74">
       <r>   -0.9546    1.0000 </r>
       <r>   -0.5844    1.0000 </r>
       <r>   -0.1932    1.0000 </r>
       <r>    0.1517    1.0000 </r>
       <r>    1.2906    1.0000 </r>
       <r>    1.7632    1.0000 </r>
       <r>    2.3041    1.0000 </r>
       <r>    2.8582    1.0000 </r>
       <r>    3.3133    1.0000 </r>
       <r>    3.7529    1.0000 </r>
       <r>    4.0333    1.0000 </r>
       <r>    4.1197    1.0000 </r>
       <r>    4.5070    1.0000 </r>
       <r>    4.7989    1.0000 </r>
       <r>    5.1653    1.0000 </r>
       <r>    5.3562    1.0000 </r>
       <r>    5.5100    1.0000 </r>
       <r>    5.6173    1.0000 </r>
       <r>    6.0276    1.0000 </r>
       <r>    6.2664    1.0000 </r>
       <r>    6.3666    1.0000 </r>
       <r>    6.5941    1.0000 </r>
       <r>    7.0010    1.0000 </r>
       <r>    7.2047    1.0000 </r>
       <r>    7.4243    1.0000 </r>
       <r>    7.6504    1.0000 </r>
       <r>    7.7239    1.0000 </r>
       <r>    7.9396    1.0000 </r>
       <r>    8.1779    1.0000 </r>
       <r>    8.3661    1.0000 </r>
       <r>    9.5980    1.0000 </r>
       <r>    9.8215    1.0000 </r>
       <r>   10.0497    1.0000 </r>
       <r>   10.1685    1.0000 </r>
       <r>   10.4052    1.0000 </r>
       <r>   10.6292    1.0000 </r>
       <r>   10.8085    1.0000 </r>
       <r>   11.0865    1.0020 </r>
       <r>   11.4160    0.9705 </r>
       <r>   11.5288    0.6397 </r>
       <r>   11.5851    0.4046 </r>
       <r>   11.7091    0.0290 </r>
       <r>   12.0276   -0.0024 </r>
       <r>   12.1223   -0.0003 </r>
       <r>   12.3313   -0.0000 </r>
       <r>   12.6686   -0.0000 </r>
       <r>   12.8411   -0.0000 </r>
       <r>   12.9891   -0.0000 </r>
       <r>   13.1612   -0.0000 </r>
       <r>   13.5637   -0.0000 </r>
       <r>   13.8620   -0.0000 </r>
       <r>   14.0450   -0.0000 </r>
       <r>   14.2146   -0.0000 </r>
       <r>   14.4323   -0.0000 </r>
       <r>   14.5351   -0.0000 </r>
       <r>   14.7569   -0.0000 </r>
       <r>   15.0761   -0.0000 </r>
       <r>   15.3195   -0.0000 </r>
       <r>   15.4829   -0.0000 </r>
       <r>   15.8143   -0.0000 </r>
       <r>   16.0338   -0.0000 </r>
       <r>   16.2793   -0.0000 </r>
       <r>   16.3671   -0.0000 </r>
       <r>   16.5590   -0.0000 </r>
      </set>
      <set comment="kpoint 75">
       <r>   -0.9495    1.0000 </r>
       <r>   -0.6145    1.0000 </r>
       <r>   -0.1972    1.0000 </r>
       <r>    0.1951    1.0000 </r>
       <r>    1.3266    1.0000 </r>
       <r>    1.8630    1.0000 </r>
       <r>    2.1515    1.0000 </r>
       <r>    2.7107    1.0000 </r>
       <r>    3.4360    1.0000 </r>
       <r>    3.6124    1.0000 </r>
       <r>    4.0930    1.0000 </r>
       <r>    4.3005    1.0000 </r>
       <r>    4.4329    1.0000 </r>
       <r>    4.7940    1.0000 </r>
       <r>    5.1370    1.0000 </r>
       <r>    5.3933    1.0000 </r>
       <r>    5.5662    1.0000 </r>
       <r>    5.7314    1.0000 </r>
       <r>    5.9342    1.0000 </r>
       <r>    6.1356    1.0000 </r>
       <r>    6.4090    1.0000 </r>
       <r>    6.6174    1.0000 </r>
       <r>    6.9234    1.0000 </r>
       <r>    7.2782    1.0000 </r>
       <r>    7.4534    1.0000 </r>
       <r>    7.6116    1.0000 </r>
       <r>    7.7529    1.0000 </r>
       <r>    7.9890    1.0000 </r>
       <r>    8.2466    1.0000 </r>
       <r>    8.3587    1.0000 </r>
       <r>    9.5395    1.0000 </r>
       <r>    9.8046    1.0000 </r>
       <r>    9.9699    1.0000 </r>
       <r>   10.2384    1.0000 </r>
       <r>   10.3908    1.0000 </r>
       <r>   10.5288    1.0000 </r>
       <r>   10.6269    1.0000 </r>
       <r>   11.0314    1.0006 </r>
       <r>   11.2820    1.0317 </r>
       <r>   11.5433    0.5803 </r>
       <r>   11.7004    0.0437 </r>
       <r>   11.8640   -0.0273 </r>
       <r>   11.9632   -0.0079 </r>
       <r>   12.1944   -0.0000 </r>
       <r>   12.2954   -0.0000 </r>
       <r>   12.6608   -0.0000 </r>
       <r>   12.9058   -0.0000 </r>
       <r>   13.0834   -0.0000 </r>
       <r>   13.2788   -0.0000 </r>
       <r>   13.6469   -0.0000 </r>
       <r>   13.8518   -0.0000 </r>
       <r>   14.0287   -0.0000 </r>
       <r>   14.1843   -0.0000 </r>
       <r>   14.3075   -0.0000 </r>
       <r>   14.5525   -0.0000 </r>
       <r>   14.8028   -0.0000 </r>
       <r>   15.1060   -0.0000 </r>
       <r>   15.4266   -0.0000 </r>
       <r>   15.5309   -0.0000 </r>
       <r>   15.8621   -0.0000 </r>
       <r>   15.9596   -0.0000 </r>
       <r>   16.1719   -0.0000 </r>
       <r>   16.2649   -0.0000 </r>
       <r>   16.4450   -0.0000 </r>
      </set>
      <set comment="kpoint 76">
       <r>   -0.9735    1.0000 </r>
       <r>   -0.5251    1.0000 </r>
       <r>   -0.2039    1.0000 </r>
       <r>    0.0980    1.0000 </r>
       <r>    1.2745    1.0000 </r>
       <r>    1.9391    1.0000 </r>
       <r>    2.1750    1.0000 </r>
       <r>    2.8183    1.0000 </r>
       <r>    3.4005    1.0000 </r>
       <r>    3.6006    1.0000 </r>
       <r>    3.9699    1.0000 </r>
       <r>    4.2716    1.0000 </r>
       <r>    4.6224    1.0000 </r>
       <r>    4.7118    1.0000 </r>
       <r>    5.1463    1.0000 </r>
       <r>    5.4058    1.0000 </r>
       <r>    5.4907    1.0000 </r>
       <r>    5.7762    1.0000 </r>
       <r>    6.0018    1.0000 </r>
       <r>    6.1378    1.0000 </r>
       <r>    6.2378    1.0000 </r>
       <r>    6.6051    1.0000 </r>
       <r>    7.0664    1.0000 </r>
       <r>    7.1300    1.0000 </r>
       <r>    7.3866    1.0000 </r>
       <r>    7.6438    1.0000 </r>
       <r>    7.8726    1.0000 </r>
       <r>    7.9603    1.0000 </r>
       <r>    8.1567    1.0000 </r>
       <r>    8.3946    1.0000 </r>
       <r>    9.5829    1.0000 </r>
       <r>    9.8951    1.0000 </r>
       <r>    9.9206    1.0000 </r>
       <r>   10.1895    1.0000 </r>
       <r>   10.2996    1.0000 </r>
       <r>   10.6022    1.0000 </r>
       <r>   10.8825    1.0000 </r>
       <r>   11.0934    1.0023 </r>
       <r>   11.3508    1.0301 </r>
       <r>   11.6311    0.2274 </r>
       <r>   11.6993    0.0457 </r>
       <r>   11.8194   -0.0349 </r>
       <r>   12.0024   -0.0040 </r>
       <r>   12.1656   -0.0001 </r>
       <r>   12.2624   -0.0000 </r>
       <r>   12.7088   -0.0000 </r>
       <r>   12.7823   -0.0000 </r>
       <r>   12.9596   -0.0000 </r>
       <r>   13.2089   -0.0000 </r>
       <r>   13.5383   -0.0000 </r>
       <r>   13.8050   -0.0000 </r>
       <r>   14.0197   -0.0000 </r>
       <r>   14.0737   -0.0000 </r>
       <r>   14.2628   -0.0000 </r>
       <r>   14.5291   -0.0000 </r>
       <r>   14.8878   -0.0000 </r>
       <r>   15.1794   -0.0000 </r>
       <r>   15.3715   -0.0000 </r>
       <r>   15.4490   -0.0000 </r>
       <r>   15.7833   -0.0000 </r>
       <r>   16.0324   -0.0000 </r>
       <r>   16.1782   -0.0000 </r>
       <r>   16.3206   -0.0000 </r>
       <r>   16.4709   -0.0000 </r>
      </set>
      <set comment="kpoint 77">
       <r>   -1.3141    1.0000 </r>
       <r>   -0.4829    1.0000 </r>
       <r>    0.1868    1.0000 </r>
       <r>    0.5456    1.0000 </r>
       <r>    1.3332    1.0000 </r>
       <r>    1.8378    1.0000 </r>
       <r>    2.0791    1.0000 </r>
       <r>    2.6936    1.0000 </r>
       <r>    2.9853    1.0000 </r>
       <r>    3.3746    1.0000 </r>
       <r>    3.4896    1.0000 </r>
       <r>    4.0911    1.0000 </r>
       <r>    4.4723    1.0000 </r>
       <r>    4.6520    1.0000 </r>
       <r>    5.0365    1.0000 </r>
       <r>    5.3462    1.0000 </r>
       <r>    5.6278    1.0000 </r>
       <r>    5.9027    1.0000 </r>
       <r>    6.0842    1.0000 </r>
       <r>    6.4399    1.0000 </r>
       <r>    6.6794    1.0000 </r>
       <r>    6.8985    1.0000 </r>
       <r>    6.9784    1.0000 </r>
       <r>    7.3836    1.0000 </r>
       <r>    7.7620    1.0000 </r>
       <r>    7.9033    1.0000 </r>
       <r>    8.1317    1.0000 </r>
       <r>    8.2845    1.0000 </r>
       <r>    8.6062    1.0000 </r>
       <r>    8.9269    1.0000 </r>
       <r>    9.0496    1.0000 </r>
       <r>    9.3993    1.0000 </r>
       <r>    9.8547    1.0000 </r>
       <r>   10.0863    1.0000 </r>
       <r>   10.2700    1.0000 </r>
       <r>   10.4636    1.0000 </r>
       <r>   10.6114    1.0000 </r>
       <r>   10.8174    1.0000 </r>
       <r>   11.1381    1.0053 </r>
       <r>   11.1646    1.0083 </r>
       <r>   11.3949    0.9990 </r>
       <r>   11.6986    0.0469 </r>
       <r>   12.1222   -0.0003 </r>
       <r>   12.2401   -0.0000 </r>
       <r>   12.4975   -0.0000 </r>
       <r>   12.8755   -0.0000 </r>
       <r>   12.9975   -0.0000 </r>
       <r>   13.1466   -0.0000 </r>
       <r>   13.2106   -0.0000 </r>
       <r>   13.3263   -0.0000 </r>
       <r>   13.5607   -0.0000 </r>
       <r>   13.6376   -0.0000 </r>
       <r>   14.0364   -0.0000 </r>
       <r>   14.3407   -0.0000 </r>
       <r>   14.4697   -0.0000 </r>
       <r>   14.8818   -0.0000 </r>
       <r>   15.1186   -0.0000 </r>
       <r>   15.1998   -0.0000 </r>
       <r>   15.4434   -0.0000 </r>
       <r>   15.6162   -0.0000 </r>
       <r>   15.6980   -0.0000 </r>
       <r>   15.7527   -0.0000 </r>
       <r>   16.0541   -0.0000 </r>
       <r>   16.2181   -0.0000 </r>
      </set>
      <set comment="kpoint 78">
       <r>   -1.3436    1.0000 </r>
       <r>   -0.3979    1.0000 </r>
       <r>    0.1374    1.0000 </r>
       <r>    0.5787    1.0000 </r>
       <r>    1.3465    1.0000 </r>
       <r>    1.7367    1.0000 </r>
       <r>    2.1523    1.0000 </r>
       <r>    2.5225    1.0000 </r>
       <r>    3.0515    1.0000 </r>
       <r>    3.2673    1.0000 </r>
       <r>    3.6070    1.0000 </r>
       <r>    4.1127    1.0000 </r>
       <r>    4.4263    1.0000 </r>
       <r>    4.7940    1.0000 </r>
       <r>    5.0414    1.0000 </r>
       <r>    5.3880    1.0000 </r>
       <r>    5.7921    1.0000 </r>
       <r>    5.8096    1.0000 </r>
       <r>    6.1018    1.0000 </r>
       <r>    6.3994    1.0000 </r>
       <r>    6.5686    1.0000 </r>
       <r>    6.9192    1.0000 </r>
       <r>    7.1092    1.0000 </r>
       <r>    7.2655    1.0000 </r>
       <r>    7.7225    1.0000 </r>
       <r>    7.7817    1.0000 </r>
       <r>    8.1979    1.0000 </r>
       <r>    8.3043    1.0000 </r>
       <r>    8.5518    1.0000 </r>
       <r>    8.9362    1.0000 </r>
       <r>    9.1045    1.0000 </r>
       <r>    9.3331    1.0000 </r>
       <r>    9.8157    1.0000 </r>
       <r>   10.1104    1.0000 </r>
       <r>   10.2504    1.0000 </r>
       <r>   10.5134    1.0000 </r>
       <r>   10.6609    1.0000 </r>
       <r>   10.7273    1.0000 </r>
       <r>   11.0273    1.0005 </r>
       <r>   11.1759    1.0099 </r>
       <r>   11.4946    0.7694 </r>
       <r>   11.7308   -0.0001 </r>
       <r>   12.0600   -0.0012 </r>
       <r>   12.2095   -0.0000 </r>
       <r>   12.6351   -0.0000 </r>
       <r>   12.7941   -0.0000 </r>
       <r>   12.9412   -0.0000 </r>
       <r>   13.0704   -0.0000 </r>
       <r>   13.2386   -0.0000 </r>
       <r>   13.3700   -0.0000 </r>
       <r>   13.6233   -0.0000 </r>
       <r>   13.8400   -0.0000 </r>
       <r>   14.0433   -0.0000 </r>
       <r>   14.3435   -0.0000 </r>
       <r>   14.6081   -0.0000 </r>
       <r>   14.9096   -0.0000 </r>
       <r>   15.0642   -0.0000 </r>
       <r>   15.2433   -0.0000 </r>
       <r>   15.3574   -0.0000 </r>
       <r>   15.5644   -0.0000 </r>
       <r>   15.7217   -0.0000 </r>
       <r>   15.8677   -0.0000 </r>
       <r>   16.0777   -0.0000 </r>
       <r>   16.1833   -0.0000 </r>
      </set>
      <set comment="kpoint 79">
       <r>   -1.3265    1.0000 </r>
       <r>   -0.4591    1.0000 </r>
       <r>    0.1759    1.0000 </r>
       <r>    0.5600    1.0000 </r>
       <r>    1.4475    1.0000 </r>
       <r>    1.7180    1.0000 </r>
       <r>    2.0485    1.0000 </r>
       <r>    2.5387    1.0000 </r>
       <r>    3.1280    1.0000 </r>
       <r>    3.2746    1.0000 </r>
       <r>    3.6621    1.0000 </r>
       <r>    4.0520    1.0000 </r>
       <r>    4.3539    1.0000 </r>
       <r>    4.8026    1.0000 </r>
       <r>    5.0876    1.0000 </r>
       <r>    5.3104    1.0000 </r>
       <r>    5.7292    1.0000 </r>
       <r>    5.7833    1.0000 </r>
       <r>    6.1144    1.0000 </r>
       <r>    6.4643    1.0000 </r>
       <r>    6.6005    1.0000 </r>
       <r>    6.9418    1.0000 </r>
       <r>    7.0466    1.0000 </r>
       <r>    7.2770    1.0000 </r>
       <r>    7.7530    1.0000 </r>
       <r>    7.8469    1.0000 </r>
       <r>    8.1418    1.0000 </r>
       <r>    8.3735    1.0000 </r>
       <r>    8.6049    1.0000 </r>
       <r>    8.8829    1.0000 </r>
       <r>    9.0509    1.0000 </r>
       <r>    9.4308    1.0000 </r>
       <r>    9.8350    1.0000 </r>
       <r>   10.0279    1.0000 </r>
       <r>   10.3109    1.0000 </r>
       <r>   10.3943    1.0000 </r>
       <r>   10.5435    1.0000 </r>
       <r>   10.7956    1.0000 </r>
       <r>   11.0926    1.0022 </r>
       <r>   11.2798    1.0313 </r>
       <r>   11.3957    0.9981 </r>
       <r>   11.7690   -0.0282 </r>
       <r>   11.9925   -0.0048 </r>
       <r>   12.2950   -0.0000 </r>
       <r>   12.5405   -0.0000 </r>
       <r>   12.7199   -0.0000 </r>
       <r>   12.9749   -0.0000 </r>
       <r>   13.1375   -0.0000 </r>
       <r>   13.2589   -0.0000 </r>
       <r>   13.4091   -0.0000 </r>
       <r>   13.5821   -0.0000 </r>
       <r>   13.8787   -0.0000 </r>
       <r>   14.0581   -0.0000 </r>
       <r>   14.3442   -0.0000 </r>
       <r>   14.4899   -0.0000 </r>
       <r>   14.9467   -0.0000 </r>
       <r>   14.9777   -0.0000 </r>
       <r>   15.3170   -0.0000 </r>
       <r>   15.3677   -0.0000 </r>
       <r>   15.5662   -0.0000 </r>
       <r>   15.6789   -0.0000 </r>
       <r>   15.8371   -0.0000 </r>
       <r>   16.0979   -0.0000 </r>
       <r>   16.1910   -0.0000 </r>
      </set>
      <set comment="kpoint 80">
       <r>   -1.3474    1.0000 </r>
       <r>   -0.4220    1.0000 </r>
       <r>    0.2320    1.0000 </r>
       <r>    0.5185    1.0000 </r>
       <r>    1.4314    1.0000 </r>
       <r>    1.6755    1.0000 </r>
       <r>    2.0321    1.0000 </r>
       <r>    2.6296    1.0000 </r>
       <r>    2.9552    1.0000 </r>
       <r>    3.3392    1.0000 </r>
       <r>    3.5700    1.0000 </r>
       <r>    4.1208    1.0000 </r>
       <r>    4.4968    1.0000 </r>
       <r>    4.7139    1.0000 </r>
       <r>    5.0907    1.0000 </r>
       <r>    5.3994    1.0000 </r>
       <r>    5.6999    1.0000 </r>
       <r>    5.8465    1.0000 </r>
       <r>    6.2037    1.0000 </r>
       <r>    6.4422    1.0000 </r>
       <r>    6.7011    1.0000 </r>
       <r>    6.7756    1.0000 </r>
       <r>    6.9707    1.0000 </r>
       <r>    7.3317    1.0000 </r>
       <r>    7.6622    1.0000 </r>
       <r>    7.9345    1.0000 </r>
       <r>    8.0757    1.0000 </r>
       <r>    8.3237    1.0000 </r>
       <r>    8.6018    1.0000 </r>
       <r>    8.9600    1.0000 </r>
       <r>    9.0228    1.0000 </r>
       <r>    9.3350    1.0000 </r>
       <r>    9.7776    1.0000 </r>
       <r>   10.1144    1.0000 </r>
       <r>   10.2983    1.0000 </r>
       <r>   10.4332    1.0000 </r>
       <r>   10.4993    1.0000 </r>
       <r>   10.8387    1.0000 </r>
       <r>   11.0420    1.0007 </r>
       <r>   11.2112    1.0162 </r>
       <r>   11.4674    0.8559 </r>
       <r>   11.7118    0.0248 </r>
       <r>   12.0899   -0.0006 </r>
       <r>   12.2525   -0.0000 </r>
       <r>   12.5549   -0.0000 </r>
       <r>   12.7583   -0.0000 </r>
       <r>   13.0583   -0.0000 </r>
       <r>   13.1546   -0.0000 </r>
       <r>   13.2610   -0.0000 </r>
       <r>   13.4071   -0.0000 </r>
       <r>   13.5789   -0.0000 </r>
       <r>   13.7920   -0.0000 </r>
       <r>   14.0808   -0.0000 </r>
       <r>   14.2742   -0.0000 </r>
       <r>   14.5835   -0.0000 </r>
       <r>   14.9313   -0.0000 </r>
       <r>   15.1185   -0.0000 </r>
       <r>   15.3081   -0.0000 </r>
       <r>   15.3874   -0.0000 </r>
       <r>   15.5646   -0.0000 </r>
       <r>   15.7309   -0.0000 </r>
       <r>   15.8665   -0.0000 </r>
       <r>   15.9785   -0.0000 </r>
       <r>   16.2724   -0.0000 </r>
      </set>
      <set comment="kpoint 81">
       <r>   -1.3209    1.0000 </r>
       <r>   -0.4875    1.0000 </r>
       <r>    0.2685    1.0000 </r>
       <r>    0.5077    1.0000 </r>
       <r>    1.2597    1.0000 </r>
       <r>    1.8188    1.0000 </r>
       <r>    2.2004    1.0000 </r>
       <r>    2.6190    1.0000 </r>
       <r>    2.9647    1.0000 </r>
       <r>    3.3016    1.0000 </r>
       <r>    3.5582    1.0000 </r>
       <r>    4.0829    1.0000 </r>
       <r>    4.5125    1.0000 </r>
       <r>    4.6230    1.0000 </r>
       <r>    5.0802    1.0000 </r>
       <r>    5.3634    1.0000 </r>
       <r>    5.7325    1.0000 </r>
       <r>    5.9124    1.0000 </r>
       <r>    6.0348    1.0000 </r>
       <r>    6.4883    1.0000 </r>
       <r>    6.6099    1.0000 </r>
       <r>    6.8328    1.0000 </r>
       <r>    7.0748    1.0000 </r>
       <r>    7.3250    1.0000 </r>
       <r>    7.5709    1.0000 </r>
       <r>    7.9192    1.0000 </r>
       <r>    8.1430    1.0000 </r>
       <r>    8.2991    1.0000 </r>
       <r>    8.5710    1.0000 </r>
       <r>    9.0678    1.0000 </r>
       <r>    9.1038    1.0000 </r>
       <r>    9.4672    1.0000 </r>
       <r>    9.8879    1.0000 </r>
       <r>   10.0589    1.0000 </r>
       <r>   10.2178    1.0000 </r>
       <r>   10.4026    1.0000 </r>
       <r>   10.5655    1.0000 </r>
       <r>   10.7762    1.0000 </r>
       <r>   11.0020    1.0003 </r>
       <r>   11.2360    1.0216 </r>
       <r>   11.4698    0.8490 </r>
       <r>   11.7151    0.0198 </r>
       <r>   12.1182   -0.0003 </r>
       <r>   12.2710   -0.0000 </r>
       <r>   12.5519   -0.0000 </r>
       <r>   12.7652   -0.0000 </r>
       <r>   12.9543   -0.0000 </r>
       <r>   13.1667   -0.0000 </r>
       <r>   13.2781   -0.0000 </r>
       <r>   13.3849   -0.0000 </r>
       <r>   13.4789   -0.0000 </r>
       <r>   13.7093   -0.0000 </r>
       <r>   14.0928   -0.0000 </r>
       <r>   14.3261   -0.0000 </r>
       <r>   14.3868   -0.0000 </r>
       <r>   14.9134   -0.0000 </r>
       <r>   15.2023   -0.0000 </r>
       <r>   15.3313   -0.0000 </r>
       <r>   15.4319   -0.0000 </r>
       <r>   15.4955   -0.0000 </r>
       <r>   15.6981   -0.0000 </r>
       <r>   15.8150   -0.0000 </r>
       <r>   16.0243   -0.0000 </r>
       <r>   16.1728   -0.0000 </r>
      </set>
      <set comment="kpoint 82">
       <r>   -1.3416    1.0000 </r>
       <r>   -0.4188    1.0000 </r>
       <r>    0.2040    1.0000 </r>
       <r>    0.5021    1.0000 </r>
       <r>    1.4027    1.0000 </r>
       <r>    1.7388    1.0000 </r>
       <r>    2.1292    1.0000 </r>
       <r>    2.5912    1.0000 </r>
       <r>    2.9366    1.0000 </r>
       <r>    3.2313    1.0000 </r>
       <r>    3.6795    1.0000 </r>
       <r>    4.1465    1.0000 </r>
       <r>    4.3339    1.0000 </r>
       <r>    4.8212    1.0000 </r>
       <r>    5.0503    1.0000 </r>
       <r>    5.3545    1.0000 </r>
       <r>    5.7342    1.0000 </r>
       <r>    5.9538    1.0000 </r>
       <r>    6.1276    1.0000 </r>
       <r>    6.4470    1.0000 </r>
       <r>    6.6135    1.0000 </r>
       <r>    6.8369    1.0000 </r>
       <r>    7.1249    1.0000 </r>
       <r>    7.2707    1.0000 </r>
       <r>    7.6119    1.0000 </r>
       <r>    7.8120    1.0000 </r>
       <r>    8.1424    1.0000 </r>
       <r>    8.2506    1.0000 </r>
       <r>    8.6487    1.0000 </r>
       <r>    8.9010    1.0000 </r>
       <r>    9.1046    1.0000 </r>
       <r>    9.3635    1.0000 </r>
       <r>    9.8338    1.0000 </r>
       <r>   10.0875    1.0000 </r>
       <r>   10.3474    1.0000 </r>
       <r>   10.4074    1.0000 </r>
       <r>   10.5722    1.0000 </r>
       <r>   10.7987    1.0000 </r>
       <r>   11.0560    1.0010 </r>
       <r>   11.1949    1.0130 </r>
       <r>   11.4143    0.9731 </r>
       <r>   11.7645   -0.0262 </r>
       <r>   12.1378   -0.0002 </r>
       <r>   12.2689   -0.0000 </r>
       <r>   12.6399   -0.0000 </r>
       <r>   12.7798   -0.0000 </r>
       <r>   12.9774   -0.0000 </r>
       <r>   13.1008   -0.0000 </r>
       <r>   13.2370   -0.0000 </r>
       <r>   13.3743   -0.0000 </r>
       <r>   13.5226   -0.0000 </r>
       <r>   13.7418   -0.0000 </r>
       <r>   14.0563   -0.0000 </r>
       <r>   14.2283   -0.0000 </r>
       <r>   14.5648   -0.0000 </r>
       <r>   14.9233   -0.0000 </r>
       <r>   15.1261   -0.0000 </r>
       <r>   15.3046   -0.0000 </r>
       <r>   15.4626   -0.0000 </r>
       <r>   15.5701   -0.0000 </r>
       <r>   15.7580   -0.0000 </r>
       <r>   15.8250   -0.0000 </r>
       <r>   15.9708   -0.0000 </r>
       <r>   16.1906   -0.0000 </r>
      </set>
      <set comment="kpoint 83">
       <r>   -1.3117    1.0000 </r>
       <r>   -0.4806    1.0000 </r>
       <r>    0.1651    1.0000 </r>
       <r>    0.5624    1.0000 </r>
       <r>    1.3143    1.0000 </r>
       <r>    1.8391    1.0000 </r>
       <r>    2.0921    1.0000 </r>
       <r>    2.7560    1.0000 </r>
       <r>    2.8998    1.0000 </r>
       <r>    3.4156    1.0000 </r>
       <r>    3.5615    1.0000 </r>
       <r>    4.0773    1.0000 </r>
       <r>    4.3492    1.0000 </r>
       <r>    4.6695    1.0000 </r>
       <r>    5.0473    1.0000 </r>
       <r>    5.3321    1.0000 </r>
       <r>    5.6785    1.0000 </r>
       <r>    5.9423    1.0000 </r>
       <r>    6.0317    1.0000 </r>
       <r>    6.4420    1.0000 </r>
       <r>    6.6161    1.0000 </r>
       <r>    6.9210    1.0000 </r>
       <r>    7.0247    1.0000 </r>
       <r>    7.3827    1.0000 </r>
       <r>    7.6369    1.0000 </r>
       <r>    7.9570    1.0000 </r>
       <r>    8.0864    1.0000 </r>
       <r>    8.3900    1.0000 </r>
       <r>    8.6480    1.0000 </r>
       <r>    8.8919    1.0000 </r>
       <r>    9.1252    1.0000 </r>
       <r>    9.3248    1.0000 </r>
       <r>    9.9026    1.0000 </r>
       <r>   10.0811    1.0000 </r>
       <r>   10.2643    1.0000 </r>
       <r>   10.4895    1.0000 </r>
       <r>   10.5785    1.0000 </r>
       <r>   10.7413    1.0000 </r>
       <r>   11.1196    1.0038 </r>
       <r>   11.1995    1.0139 </r>
       <r>   11.4135    0.9744 </r>
       <r>   11.7263    0.0051 </r>
       <r>   12.0752   -0.0009 </r>
       <r>   12.3056   -0.0000 </r>
       <r>   12.5133   -0.0000 </r>
       <r>   12.8591   -0.0000 </r>
       <r>   13.0010   -0.0000 </r>
       <r>   13.0693   -0.0000 </r>
       <r>   13.2685   -0.0000 </r>
       <r>   13.3793   -0.0000 </r>
       <r>   13.4444   -0.0000 </r>
       <r>   13.7406   -0.0000 </r>
       <r>   14.0151   -0.0000 </r>
       <r>   14.2896   -0.0000 </r>
       <r>   14.4595   -0.0000 </r>
       <r>   14.9078   -0.0000 </r>
       <r>   15.0925   -0.0000 </r>
       <r>   15.2361   -0.0000 </r>
       <r>   15.4040   -0.0000 </r>
       <r>   15.5357   -0.0000 </r>
       <r>   15.6921   -0.0000 </r>
       <r>   15.8890   -0.0000 </r>
       <r>   16.0169   -0.0000 </r>
       <r>   16.2088   -0.0000 </r>
      </set>
      <set comment="kpoint 84">
       <r>   -1.3383    1.0000 </r>
       <r>   -0.4126    1.0000 </r>
       <r>    0.1120    1.0000 </r>
       <r>    0.6445    1.0000 </r>
       <r>    1.2738    1.0000 </r>
       <r>    1.8073    1.0000 </r>
       <r>    2.1260    1.0000 </r>
       <r>    2.5773    1.0000 </r>
       <r>    2.9769    1.0000 </r>
       <r>    3.2869    1.0000 </r>
       <r>    3.5880    1.0000 </r>
       <r>    4.1312    1.0000 </r>
       <r>    4.4598    1.0000 </r>
       <r>    4.7188    1.0000 </r>
       <r>    5.0088    1.0000 </r>
       <r>    5.4746    1.0000 </r>
       <r>    5.7375    1.0000 </r>
       <r>    5.7850    1.0000 </r>
       <r>    6.1238    1.0000 </r>
       <r>    6.4622    1.0000 </r>
       <r>    6.5824    1.0000 </r>
       <r>    6.9287    1.0000 </r>
       <r>    7.1532    1.0000 </r>
       <r>    7.2203    1.0000 </r>
       <r>    7.6679    1.0000 </r>
       <r>    7.8437    1.0000 </r>
       <r>    8.1399    1.0000 </r>
       <r>    8.3051    1.0000 </r>
       <r>    8.5023    1.0000 </r>
       <r>    9.0120    1.0000 </r>
       <r>    9.0867    1.0000 </r>
       <r>    9.3784    1.0000 </r>
       <r>    9.8564    1.0000 </r>
       <r>   10.0683    1.0000 </r>
       <r>   10.1694    1.0000 </r>
       <r>   10.4670    1.0000 </r>
       <r>   10.6599    1.0000 </r>
       <r>   10.7591    1.0000 </r>
       <r>   11.0618    1.0011 </r>
       <r>   11.2040    1.0147 </r>
       <r>   11.4956    0.7657 </r>
       <r>   11.6806    0.0839 </r>
       <r>   12.1241   -0.0003 </r>
       <r>   12.2143   -0.0000 </r>
       <r>   12.5545   -0.0000 </r>
       <r>   12.8152   -0.0000 </r>
       <r>   12.9524   -0.0000 </r>
       <r>   13.0763   -0.0000 </r>
       <r>   13.2321   -0.0000 </r>
       <r>   13.4503   -0.0000 </r>
       <r>   13.5771   -0.0000 </r>
       <r>   13.8000   -0.0000 </r>
       <r>   14.1052   -0.0000 </r>
       <r>   14.3482   -0.0000 </r>
       <r>   14.5242   -0.0000 </r>
       <r>   14.8717   -0.0000 </r>
       <r>   15.1000   -0.0000 </r>
       <r>   15.1724   -0.0000 </r>
       <r>   15.4173   -0.0000 </r>
       <r>   15.5717   -0.0000 </r>
       <r>   15.7549   -0.0000 </r>
       <r>   15.8936   -0.0000 </r>
       <r>   16.0602   -0.0000 </r>
       <r>   16.3020   -0.0000 </r>
      </set>
      <set comment="kpoint 85">
       <r>   -1.3285    1.0000 </r>
       <r>   -0.4732    1.0000 </r>
       <r>    0.2126    1.0000 </r>
       <r>    0.5595    1.0000 </r>
       <r>    1.4605    1.0000 </r>
       <r>    1.6594    1.0000 </r>
       <r>    2.1044    1.0000 </r>
       <r>    2.5578    1.0000 </r>
       <r>    3.0156    1.0000 </r>
       <r>    3.2792    1.0000 </r>
       <r>    3.6282    1.0000 </r>
       <r>    4.0119    1.0000 </r>
       <r>    4.4605    1.0000 </r>
       <r>    4.8484    1.0000 </r>
       <r>    5.0584    1.0000 </r>
       <r>    5.3814    1.0000 </r>
       <r>    5.6874    1.0000 </r>
       <r>    5.7593    1.0000 </r>
       <r>    6.2167    1.0000 </r>
       <r>    6.4527    1.0000 </r>
       <r>    6.5708    1.0000 </r>
       <r>    6.9579    1.0000 </r>
       <r>    7.1012    1.0000 </r>
       <r>    7.1880    1.0000 </r>
       <r>    7.6658    1.0000 </r>
       <r>    7.9219    1.0000 </r>
       <r>    8.1416    1.0000 </r>
       <r>    8.3139    1.0000 </r>
       <r>    8.6712    1.0000 </r>
       <r>    8.9404    1.0000 </r>
       <r>    9.0240    1.0000 </r>
       <r>    9.3557    1.0000 </r>
       <r>    9.7824    1.0000 </r>
       <r>    9.9897    1.0000 </r>
       <r>   10.3256    1.0000 </r>
       <r>   10.4840    1.0000 </r>
       <r>   10.5716    1.0000 </r>
       <r>   10.8128    1.0000 </r>
       <r>   11.0141    1.0004 </r>
       <r>   11.2411    1.0228 </r>
       <r>   11.4390    0.9273 </r>
       <r>   11.7400   -0.0092 </r>
       <r>   11.9117   -0.0166 </r>
       <r>   12.3473   -0.0000 </r>
       <r>   12.5460   -0.0000 </r>
       <r>   12.7088   -0.0000 </r>
       <r>   13.0648   -0.0000 </r>
       <r>   13.2002   -0.0000 </r>
       <r>   13.2505   -0.0000 </r>
       <r>   13.4330   -0.0000 </r>
       <r>   13.5307   -0.0000 </r>
       <r>   13.7677   -0.0000 </r>
       <r>   14.1483   -0.0000 </r>
       <r>   14.3228   -0.0000 </r>
       <r>   14.5338   -0.0000 </r>
       <r>   14.8671   -0.0000 </r>
       <r>   15.0965   -0.0000 </r>
       <r>   15.2911   -0.0000 </r>
       <r>   15.3545   -0.0000 </r>
       <r>   15.5842   -0.0000 </r>
       <r>   15.6456   -0.0000 </r>
       <r>   15.8502   -0.0000 </r>
       <r>   16.1278   -0.0000 </r>
       <r>   16.3038   -0.0000 </r>
      </set>
      <set comment="kpoint 86">
       <r>   -1.3502    1.0000 </r>
       <r>   -0.4012    1.0000 </r>
       <r>    0.1991    1.0000 </r>
       <r>    0.5217    1.0000 </r>
       <r>    1.4973    1.0000 </r>
       <r>    1.6185    1.0000 </r>
       <r>    2.0406    1.0000 </r>
       <r>    2.5590    1.0000 </r>
       <r>    3.0526    1.0000 </r>
       <r>    3.2833    1.0000 </r>
       <r>    3.6161    1.0000 </r>
       <r>    4.0950    1.0000 </r>
       <r>    4.4898    1.0000 </r>
       <r>    4.7994    1.0000 </r>
       <r>    5.0195    1.0000 </r>
       <r>    5.4166    1.0000 </r>
       <r>    5.7385    1.0000 </r>
       <r>    5.8229    1.0000 </r>
       <r>    6.1964    1.0000 </r>
       <r>    6.4386    1.0000 </r>
       <r>    6.5557    1.0000 </r>
       <r>    6.8526    1.0000 </r>
       <r>    7.0165    1.0000 </r>
       <r>    7.2449    1.0000 </r>
       <r>    7.6434    1.0000 </r>
       <r>    7.9618    1.0000 </r>
       <r>    8.1378    1.0000 </r>
       <r>    8.3600    1.0000 </r>
       <r>    8.6176    1.0000 </r>
       <r>    8.8832    1.0000 </r>
       <r>    9.0579    1.0000 </r>
       <r>    9.3510    1.0000 </r>
       <r>    9.8588    1.0000 </r>
       <r>   10.0037    1.0000 </r>
       <r>   10.3303    1.0000 </r>
       <r>   10.4473    1.0000 </r>
       <r>   10.5422    1.0000 </r>
       <r>   10.7664    1.0000 </r>
       <r>   11.0450    1.0008 </r>
       <r>   11.2278    1.0197 </r>
       <r>   11.4136    0.9742 </r>
       <r>   11.7645   -0.0262 </r>
       <r>   12.0857   -0.0007 </r>
       <r>   12.2315   -0.0000 </r>
       <r>   12.5926   -0.0000 </r>
       <r>   12.7925   -0.0000 </r>
       <r>   12.9477   -0.0000 </r>
       <r>   13.1409   -0.0000 </r>
       <r>   13.2898   -0.0000 </r>
       <r>   13.4179   -0.0000 </r>
       <r>   13.5548   -0.0000 </r>
       <r>   13.8824   -0.0000 </r>
       <r>   14.0214   -0.0000 </r>
       <r>   14.2709   -0.0000 </r>
       <r>   14.5786   -0.0000 </r>
       <r>   14.9078   -0.0000 </r>
       <r>   15.2334   -0.0000 </r>
       <r>   15.2714   -0.0000 </r>
       <r>   15.4248   -0.0000 </r>
       <r>   15.4918   -0.0000 </r>
       <r>   15.7473   -0.0000 </r>
       <r>   15.8672   -0.0000 </r>
       <r>   16.0820   -0.0000 </r>
       <r>   16.2232   -0.0000 </r>
      </set>
      <set comment="kpoint 87">
       <r>   -1.3191    1.0000 </r>
       <r>   -0.4712    1.0000 </r>
       <r>    0.2079    1.0000 </r>
       <r>    0.5336    1.0000 </r>
       <r>    1.2626    1.0000 </r>
       <r>    1.8655    1.0000 </r>
       <r>    2.1190    1.0000 </r>
       <r>    2.6162    1.0000 </r>
       <r>    3.0463    1.0000 </r>
       <r>    3.3092    1.0000 </r>
       <r>    3.6335    1.0000 </r>
       <r>    4.1216    1.0000 </r>
       <r>    4.3715    1.0000 </r>
       <r>    4.6145    1.0000 </r>
       <r>    5.0461    1.0000 </r>
       <r>    5.3301    1.0000 </r>
       <r>    5.7886    1.0000 </r>
       <r>    5.8965    1.0000 </r>
       <r>    6.0177    1.0000 </r>
       <r>    6.4627    1.0000 </r>
       <r>    6.6366    1.0000 </r>
       <r>    6.8767    1.0000 </r>
       <r>    7.0444    1.0000 </r>
       <r>    7.2008    1.0000 </r>
       <r>    7.7187    1.0000 </r>
       <r>    7.9217    1.0000 </r>
       <r>    8.1254    1.0000 </r>
       <r>    8.3080    1.0000 </r>
       <r>    8.6144    1.0000 </r>
       <r>    9.0129    1.0000 </r>
       <r>    9.1158    1.0000 </r>
       <r>    9.4264    1.0000 </r>
       <r>    9.8980    1.0000 </r>
       <r>   10.0822    1.0000 </r>
       <r>   10.2564    1.0000 </r>
       <r>   10.4340    1.0000 </r>
       <r>   10.5680    1.0000 </r>
       <r>   10.7803    1.0000 </r>
       <r>   11.0851    1.0019 </r>
       <r>   11.2542    1.0258 </r>
       <r>   11.3307    1.0347 </r>
       <r>   11.7407   -0.0100 </r>
       <r>   12.0833   -0.0007 </r>
       <r>   12.3630   -0.0000 </r>
       <r>   12.5725   -0.0000 </r>
       <r>   12.7080   -0.0000 </r>
       <r>   12.8217   -0.0000 </r>
       <r>   13.1638   -0.0000 </r>
       <r>   13.2687   -0.0000 </r>
       <r>   13.3967   -0.0000 </r>
       <r>   13.5765   -0.0000 </r>
       <r>   13.7583   -0.0000 </r>
       <r>   14.0620   -0.0000 </r>
       <r>   14.2558   -0.0000 </r>
       <r>   14.4597   -0.0000 </r>
       <r>   14.8684   -0.0000 </r>
       <r>   15.1216   -0.0000 </r>
       <r>   15.2295   -0.0000 </r>
       <r>   15.4110   -0.0000 </r>
       <r>   15.5730   -0.0000 </r>
       <r>   15.6854   -0.0000 </r>
       <r>   15.8615   -0.0000 </r>
       <r>   16.0983   -0.0000 </r>
       <r>   16.2599   -0.0000 </r>
      </set>
      <set comment="kpoint 88">
       <r>   -1.3365    1.0000 </r>
       <r>   -0.4288    1.0000 </r>
       <r>    0.1581    1.0000 </r>
       <r>    0.5631    1.0000 </r>
       <r>    1.4160    1.0000 </r>
       <r>    1.7269    1.0000 </r>
       <r>    2.1195    1.0000 </r>
       <r>    2.5861    1.0000 </r>
       <r>    2.9585    1.0000 </r>
       <r>    3.2346    1.0000 </r>
       <r>    3.6337    1.0000 </r>
       <r>    4.1417    1.0000 </r>
       <r>    4.4229    1.0000 </r>
       <r>    4.7440    1.0000 </r>
       <r>    4.9864    1.0000 </r>
       <r>    5.4336    1.0000 </r>
       <r>    5.6921    1.0000 </r>
       <r>    5.9564    1.0000 </r>
       <r>    6.1789    1.0000 </r>
       <r>    6.4658    1.0000 </r>
       <r>    6.5908    1.0000 </r>
       <r>    6.8345    1.0000 </r>
       <r>    7.0844    1.0000 </r>
       <r>    7.2715    1.0000 </r>
       <r>    7.6771    1.0000 </r>
       <r>    7.8304    1.0000 </r>
       <r>    8.1144    1.0000 </r>
       <r>    8.3034    1.0000 </r>
       <r>    8.6239    1.0000 </r>
       <r>    8.8533    1.0000 </r>
       <r>    9.1068    1.0000 </r>
       <r>    9.4045    1.0000 </r>
       <r>    9.7907    1.0000 </r>
       <r>   10.1218    1.0000 </r>
       <r>   10.2827    1.0000 </r>
       <r>   10.4561    1.0000 </r>
       <r>   10.5782    1.0000 </r>
       <r>   10.7207    1.0000 </r>
       <r>   10.9950    1.0002 </r>
       <r>   11.2158    1.0171 </r>
       <r>   11.4675    0.8557 </r>
       <r>   11.7571   -0.0222 </r>
       <r>   12.1112   -0.0004 </r>
       <r>   12.3124   -0.0000 </r>
       <r>   12.6324   -0.0000 </r>
       <r>   12.7998   -0.0000 </r>
       <r>   13.0410   -0.0000 </r>
       <r>   13.1833   -0.0000 </r>
       <r>   13.3000   -0.0000 </r>
       <r>   13.3371   -0.0000 </r>
       <r>   13.4969   -0.0000 </r>
       <r>   13.6248   -0.0000 </r>
       <r>   13.9431   -0.0000 </r>
       <r>   14.3110   -0.0000 </r>
       <r>   14.6223   -0.0000 </r>
       <r>   14.8894   -0.0000 </r>
       <r>   15.1615   -0.0000 </r>
       <r>   15.3052   -0.0000 </r>
       <r>   15.4522   -0.0000 </r>
       <r>   15.5562   -0.0000 </r>
       <r>   15.6589   -0.0000 </r>
       <r>   15.8748   -0.0000 </r>
       <r>   16.0051   -0.0000 </r>
       <r>   16.2132   -0.0000 </r>
      </set>
      <set comment="kpoint 89">
       <r>   -1.3318    1.0000 </r>
       <r>   -0.4446    1.0000 </r>
       <r>    0.1980    1.0000 </r>
       <r>    0.5304    1.0000 </r>
       <r>    1.3452    1.0000 </r>
       <r>    1.7738    1.0000 </r>
       <r>    2.1238    1.0000 </r>
       <r>    2.7023    1.0000 </r>
       <r>    2.9532    1.0000 </r>
       <r>    3.2127    1.0000 </r>
       <r>    3.5671    1.0000 </r>
       <r>    4.1049    1.0000 </r>
       <r>    4.5363    1.0000 </r>
       <r>    4.6624    1.0000 </r>
       <r>    5.0131    1.0000 </r>
       <r>    5.4142    1.0000 </r>
       <r>    5.7480    1.0000 </r>
       <r>    5.8717    1.0000 </r>
       <r>    6.1227    1.0000 </r>
       <r>    6.5050    1.0000 </r>
       <r>    6.5740    1.0000 </r>
       <r>    6.8384    1.0000 </r>
       <r>    7.1307    1.0000 </r>
       <r>    7.2483    1.0000 </r>
       <r>    7.5869    1.0000 </r>
       <r>    7.8925    1.0000 </r>
       <r>    8.1550    1.0000 </r>
       <r>    8.3234    1.0000 </r>
       <r>    8.5166    1.0000 </r>
       <r>    9.0331    1.0000 </r>
       <r>    9.1310    1.0000 </r>
       <r>    9.4097    1.0000 </r>
       <r>    9.8802    1.0000 </r>
       <r>    9.9557    1.0000 </r>
       <r>   10.2188    1.0000 </r>
       <r>   10.4618    1.0000 </r>
       <r>   10.6295    1.0000 </r>
       <r>   10.7483    1.0000 </r>
       <r>   11.0101    1.0003 </r>
       <r>   11.3126    1.0354 </r>
       <r>   11.4725    0.8409 </r>
       <r>   11.6769    0.0927 </r>
       <r>   12.1520   -0.0001 </r>
       <r>   12.2634   -0.0000 </r>
       <r>   12.5392   -0.0000 </r>
       <r>   12.7903   -0.0000 </r>
       <r>   12.8754   -0.0000 </r>
       <r>   13.1137   -0.0000 </r>
       <r>   13.2582   -0.0000 </r>
       <r>   13.3520   -0.0000 </r>
       <r>   13.5910   -0.0000 </r>
       <r>   13.7966   -0.0000 </r>
       <r>   13.9924   -0.0000 </r>
       <r>   14.3512   -0.0000 </r>
       <r>   14.6483   -0.0000 </r>
       <r>   14.8905   -0.0000 </r>
       <r>   15.1479   -0.0000 </r>
       <r>   15.2542   -0.0000 </r>
       <r>   15.3211   -0.0000 </r>
       <r>   15.5622   -0.0000 </r>
       <r>   15.6842   -0.0000 </r>
       <r>   15.7741   -0.0000 </r>
       <r>   16.1726   -0.0000 </r>
       <r>   16.3245   -0.0000 </r>
      </set>
      <set comment="kpoint 90">
       <r>   -1.3359    1.0000 </r>
       <r>   -0.4740    1.0000 </r>
       <r>    0.3085    1.0000 </r>
       <r>    0.5018    1.0000 </r>
       <r>    1.3321    1.0000 </r>
       <r>    1.7163    1.0000 </r>
       <r>    2.1733    1.0000 </r>
       <r>    2.5752    1.0000 </r>
       <r>    2.8827    1.0000 </r>
       <r>    3.3241    1.0000 </r>
       <r>    3.6351    1.0000 </r>
       <r>    4.1598    1.0000 </r>
       <r>    4.3917    1.0000 </r>
       <r>    4.7251    1.0000 </r>
       <r>    5.1081    1.0000 </r>
       <r>    5.3247    1.0000 </r>
       <r>    5.6683    1.0000 </r>
       <r>    5.8741    1.0000 </r>
       <r>    6.2360    1.0000 </r>
       <r>    6.5056    1.0000 </r>
       <r>    6.6367    1.0000 </r>
       <r>    6.9374    1.0000 </r>
       <r>    7.0331    1.0000 </r>
       <r>    7.2526    1.0000 </r>
       <r>    7.6272    1.0000 </r>
       <r>    7.9271    1.0000 </r>
       <r>    8.0621    1.0000 </r>
       <r>    8.2664    1.0000 </r>
       <r>    8.6593    1.0000 </r>
       <r>    8.9138    1.0000 </r>
       <r>    9.0164    1.0000 </r>
       <r>    9.3218    1.0000 </r>
       <r>    9.8332    1.0000 </r>
       <r>   10.0264    1.0000 </r>
       <r>   10.3479    1.0000 </r>
       <r>   10.4732    1.0000 </r>
       <r>   10.5410    1.0000 </r>
       <r>   10.7620    1.0000 </r>
       <r>   11.0889    1.0021 </r>
       <r>   11.1719    1.0093 </r>
       <r>   11.4685    0.8527 </r>
       <r>   11.6942    0.0551 </r>
       <r>   12.0962   -0.0005 </r>
       <r>   12.2615   -0.0000 </r>
       <r>   12.5865   -0.0000 </r>
       <r>   12.8044   -0.0000 </r>
       <r>   13.0678   -0.0000 </r>
       <r>   13.1577   -0.0000 </r>
       <r>   13.3203   -0.0000 </r>
       <r>   13.3825   -0.0000 </r>
       <r>   13.4774   -0.0000 </r>
       <r>   13.8079   -0.0000 </r>
       <r>   14.0320   -0.0000 </r>
       <r>   14.2776   -0.0000 </r>
       <r>   14.6169   -0.0000 </r>
       <r>   14.8717   -0.0000 </r>
       <r>   15.0971   -0.0000 </r>
       <r>   15.3418   -0.0000 </r>
       <r>   15.3687   -0.0000 </r>
       <r>   15.6018   -0.0000 </r>
       <r>   15.7333   -0.0000 </r>
       <r>   15.7894   -0.0000 </r>
       <r>   16.0410   -0.0000 </r>
       <r>   16.1277   -0.0000 </r>
      </set>
      <set comment="kpoint 91">
       <r>   -1.3427    1.0000 </r>
       <r>   -0.4073    1.0000 </r>
       <r>    0.2023    1.0000 </r>
       <r>    0.4865    1.0000 </r>
       <r>    1.4172    1.0000 </r>
       <r>    1.7256    1.0000 </r>
       <r>    2.0679    1.0000 </r>
       <r>    2.6656    1.0000 </r>
       <r>    2.8918    1.0000 </r>
       <r>    3.3625    1.0000 </r>
       <r>    3.5900    1.0000 </r>
       <r>    4.1156    1.0000 </r>
       <r>    4.4920    1.0000 </r>
       <r>    4.7275    1.0000 </r>
       <r>    5.0944    1.0000 </r>
       <r>    5.3608    1.0000 </r>
       <r>    5.6923    1.0000 </r>
       <r>    5.8589    1.0000 </r>
       <r>    6.1622    1.0000 </r>
       <r>    6.3847    1.0000 </r>
       <r>    6.5528    1.0000 </r>
       <r>    6.8642    1.0000 </r>
       <r>    7.0714    1.0000 </r>
       <r>    7.3057    1.0000 </r>
       <r>    7.6106    1.0000 </r>
       <r>    7.9203    1.0000 </r>
       <r>    8.0730    1.0000 </r>
       <r>    8.3791    1.0000 </r>
       <r>    8.5969    1.0000 </r>
       <r>    8.9873    1.0000 </r>
       <r>    9.0476    1.0000 </r>
       <r>    9.4498    1.0000 </r>
       <r>    9.8767    1.0000 </r>
       <r>   10.0733    1.0000 </r>
       <r>   10.2650    1.0000 </r>
       <r>   10.4367    1.0000 </r>
       <r>   10.5511    1.0000 </r>
       <r>   10.7827    1.0000 </r>
       <r>   11.0669    1.0013 </r>
       <r>   11.1611    1.0078 </r>
       <r>   11.3674    1.0223 </r>
       <r>   11.7638   -0.0259 </r>
       <r>   12.0904   -0.0006 </r>
       <r>   12.2744   -0.0000 </r>
       <r>   12.6594   -0.0000 </r>
       <r>   12.9211   -0.0000 </r>
       <r>   13.0166   -0.0000 </r>
       <r>   13.1475   -0.0000 </r>
       <r>   13.2632   -0.0000 </r>
       <r>   13.3076   -0.0000 </r>
       <r>   13.3987   -0.0000 </r>
       <r>   13.8002   -0.0000 </r>
       <r>   14.0126   -0.0000 </r>
       <r>   14.1871   -0.0000 </r>
       <r>   14.5422   -0.0000 </r>
       <r>   14.8809   -0.0000 </r>
       <r>   15.1432   -0.0000 </r>
       <r>   15.2952   -0.0000 </r>
       <r>   15.4585   -0.0000 </r>
       <r>   15.6021   -0.0000 </r>
       <r>   15.7374   -0.0000 </r>
       <r>   15.8539   -0.0000 </r>
       <r>   16.0236   -0.0000 </r>
       <r>   16.2450   -0.0000 </r>
      </set>
      <set comment="kpoint 92">
       <r>   -1.3266    1.0000 </r>
       <r>   -0.4261    1.0000 </r>
       <r>    0.0855    1.0000 </r>
       <r>    0.5966    1.0000 </r>
       <r>    1.4895    1.0000 </r>
       <r>    1.7220    1.0000 </r>
       <r>    2.0237    1.0000 </r>
       <r>    2.7017    1.0000 </r>
       <r>    2.9920    1.0000 </r>
       <r>    3.2067    1.0000 </r>
       <r>    3.6272    1.0000 </r>
       <r>    4.0055    1.0000 </r>
       <r>    4.4597    1.0000 </r>
       <r>    4.8265    1.0000 </r>
       <r>    5.0441    1.0000 </r>
       <r>    5.4093    1.0000 </r>
       <r>    5.7238    1.0000 </r>
       <r>    5.7739    1.0000 </r>
       <r>    6.1601    1.0000 </r>
       <r>    6.4321    1.0000 </r>
       <r>    6.4691    1.0000 </r>
       <r>    7.0217    1.0000 </r>
       <r>    7.0708    1.0000 </r>
       <r>    7.2731    1.0000 </r>
       <r>    7.7050    1.0000 </r>
       <r>    7.8065    1.0000 </r>
       <r>    8.1592    1.0000 </r>
       <r>    8.3473    1.0000 </r>
       <r>    8.5999    1.0000 </r>
       <r>    8.9138    1.0000 </r>
       <r>    9.1305    1.0000 </r>
       <r>    9.4260    1.0000 </r>
       <r>    9.8425    1.0000 </r>
       <r>   10.0178    1.0000 </r>
       <r>   10.1905    1.0000 </r>
       <r>   10.5066    1.0000 </r>
       <r>   10.6201    1.0000 </r>
       <r>   10.7592    1.0000 </r>
       <r>   11.0516    1.0009 </r>
       <r>   11.1859    1.0115 </r>
       <r>   11.4679    0.8544 </r>
       <r>   11.7103    0.0271 </r>
       <r>   12.0957   -0.0005 </r>
       <r>   12.3015   -0.0000 </r>
       <r>   12.5385   -0.0000 </r>
       <r>   12.7843   -0.0000 </r>
       <r>   13.0149   -0.0000 </r>
       <r>   13.1087   -0.0000 </r>
       <r>   13.2519   -0.0000 </r>
       <r>   13.3195   -0.0000 </r>
       <r>   13.4824   -0.0000 </r>
       <r>   13.7893   -0.0000 </r>
       <r>   14.1217   -0.0000 </r>
       <r>   14.2893   -0.0000 </r>
       <r>   14.5320   -0.0000 </r>
       <r>   14.8975   -0.0000 </r>
       <r>   15.1828   -0.0000 </r>
       <r>   15.3289   -0.0000 </r>
       <r>   15.4315   -0.0000 </r>
       <r>   15.5457   -0.0000 </r>
       <r>   15.6929   -0.0000 </r>
       <r>   15.8261   -0.0000 </r>
       <r>   16.0812   -0.0000 </r>
       <r>   16.2097   -0.0000 </r>
      </set>
      <set comment="kpoint 93">
       <r>   -1.3221    1.0000 </r>
       <r>   -0.4776    1.0000 </r>
       <r>    0.1918    1.0000 </r>
       <r>    0.5773    1.0000 </r>
       <r>    1.3506    1.0000 </r>
       <r>    1.8083    1.0000 </r>
       <r>    2.0086    1.0000 </r>
       <r>    2.7148    1.0000 </r>
       <r>    2.9548    1.0000 </r>
       <r>    3.3923    1.0000 </r>
       <r>    3.5039    1.0000 </r>
       <r>    4.0794    1.0000 </r>
       <r>    4.4650    1.0000 </r>
       <r>    4.7223    1.0000 </r>
       <r>    5.0351    1.0000 </r>
       <r>    5.3379    1.0000 </r>
       <r>    5.6420    1.0000 </r>
       <r>    5.8162    1.0000 </r>
       <r>    6.1460    1.0000 </r>
       <r>    6.4731    1.0000 </r>
       <r>    6.6448    1.0000 </r>
       <r>    6.8961    1.0000 </r>
       <r>    7.1082    1.0000 </r>
       <r>    7.3662    1.0000 </r>
       <r>    7.6874    1.0000 </r>
       <r>    7.9648    1.0000 </r>
       <r>    8.0976    1.0000 </r>
       <r>    8.2607    1.0000 </r>
       <r>    8.6696    1.0000 </r>
       <r>    8.9089    1.0000 </r>
       <r>    9.0721    1.0000 </r>
       <r>    9.2555    1.0000 </r>
       <r>    9.7701    1.0000 </r>
       <r>   10.1026    1.0000 </r>
       <r>   10.2269    1.0000 </r>
       <r>   10.4185    1.0000 </r>
       <r>   10.6329    1.0000 </r>
       <r>   10.8284    1.0000 </r>
       <r>   11.0428    1.0007 </r>
       <r>   11.3145    1.0354 </r>
       <r>   11.4784    0.8230 </r>
       <r>   11.7325   -0.0019 </r>
       <r>   12.0563   -0.0013 </r>
       <r>   12.2328   -0.0000 </r>
       <r>   12.4927   -0.0000 </r>
       <r>   12.7370   -0.0000 </r>
       <r>   12.9881   -0.0000 </r>
       <r>   13.1701   -0.0000 </r>
       <r>   13.2473   -0.0000 </r>
       <r>   13.3943   -0.0000 </r>
       <r>   13.5423   -0.0000 </r>
       <r>   13.8281   -0.0000 </r>
       <r>   14.0578   -0.0000 </r>
       <r>   14.2825   -0.0000 </r>
       <r>   14.5274   -0.0000 </r>
       <r>   14.9173   -0.0000 </r>
       <r>   15.0740   -0.0000 </r>
       <r>   15.2952   -0.0000 </r>
       <r>   15.4294   -0.0000 </r>
       <r>   15.5420   -0.0000 </r>
       <r>   15.7130   -0.0000 </r>
       <r>   15.7706   -0.0000 </r>
       <r>   16.0436   -0.0000 </r>
       <r>   16.2493   -0.0000 </r>
      </set>
      <set comment="kpoint 94">
       <r>   -1.3306    1.0000 </r>
       <r>   -0.4595    1.0000 </r>
       <r>    0.2052    1.0000 </r>
       <r>    0.6008    1.0000 </r>
       <r>    1.1997    1.0000 </r>
       <r>    1.8598    1.0000 </r>
       <r>    2.1885    1.0000 </r>
       <r>    2.5291    1.0000 </r>
       <r>    2.9409    1.0000 </r>
       <r>    3.3341    1.0000 </r>
       <r>    3.5986    1.0000 </r>
       <r>    4.1625    1.0000 </r>
       <r>    4.4504    1.0000 </r>
       <r>    4.6945    1.0000 </r>
       <r>    5.0946    1.0000 </r>
       <r>    5.3395    1.0000 </r>
       <r>    5.6266    1.0000 </r>
       <r>    5.8504    1.0000 </r>
       <r>    6.1342    1.0000 </r>
       <r>    6.4713    1.0000 </r>
       <r>    6.6293    1.0000 </r>
       <r>    6.9307    1.0000 </r>
       <r>    7.0288    1.0000 </r>
       <r>    7.2813    1.0000 </r>
       <r>    7.6862    1.0000 </r>
       <r>    7.9488    1.0000 </r>
       <r>    8.1138    1.0000 </r>
       <r>    8.1956    1.0000 </r>
       <r>    8.5963    1.0000 </r>
       <r>    8.9978    1.0000 </r>
       <r>    9.0946    1.0000 </r>
       <r>    9.3598    1.0000 </r>
       <r>    9.8889    1.0000 </r>
       <r>   10.0862    1.0000 </r>
       <r>   10.3148    1.0000 </r>
       <r>   10.4434    1.0000 </r>
       <r>   10.6172    1.0000 </r>
       <r>   10.8053    1.0000 </r>
       <r>   10.9504    1.0001 </r>
       <r>   11.1149    1.0034 </r>
       <r>   11.4507    0.9004 </r>
       <r>   11.7915   -0.0344 </r>
       <r>   12.0471   -0.0016 </r>
       <r>   12.3148   -0.0000 </r>
       <r>   12.5554   -0.0000 </r>
       <r>   12.7955   -0.0000 </r>
       <r>   12.9474   -0.0000 </r>
       <r>   13.1738   -0.0000 </r>
       <r>   13.2084   -0.0000 </r>
       <r>   13.4592   -0.0000 </r>
       <r>   13.5523   -0.0000 </r>
       <r>   13.6779   -0.0000 </r>
       <r>   14.1069   -0.0000 </r>
       <r>   14.3183   -0.0000 </r>
       <r>   14.5127   -0.0000 </r>
       <r>   14.8356   -0.0000 </r>
       <r>   15.1740   -0.0000 </r>
       <r>   15.2966   -0.0000 </r>
       <r>   15.4086   -0.0000 </r>
       <r>   15.6226   -0.0000 </r>
       <r>   15.6820   -0.0000 </r>
       <r>   15.7976   -0.0000 </r>
       <r>   16.0355   -0.0000 </r>
       <r>   16.1973   -0.0000 </r>
      </set>
      <set comment="kpoint 95">
       <r>   -1.3392    1.0000 </r>
       <r>   -0.4428    1.0000 </r>
       <r>    0.2353    1.0000 </r>
       <r>    0.5303    1.0000 </r>
       <r>    1.3373    1.0000 </r>
       <r>    1.7637    1.0000 </r>
       <r>    2.1170    1.0000 </r>
       <r>    2.4993    1.0000 </r>
       <r>    2.9997    1.0000 </r>
       <r>    3.3109    1.0000 </r>
       <r>    3.7111    1.0000 </r>
       <r>    4.1771    1.0000 </r>
       <r>    4.3167    1.0000 </r>
       <r>    4.7446    1.0000 </r>
       <r>    5.0513    1.0000 </r>
       <r>    5.3294    1.0000 </r>
       <r>    5.7487    1.0000 </r>
       <r>    5.8621    1.0000 </r>
       <r>    6.1200    1.0000 </r>
       <r>    6.5067    1.0000 </r>
       <r>    6.6783    1.0000 </r>
       <r>    6.8525    1.0000 </r>
       <r>    6.9928    1.0000 </r>
       <r>    7.2625    1.0000 </r>
       <r>    7.7240    1.0000 </r>
       <r>    7.8903    1.0000 </r>
       <r>    8.1187    1.0000 </r>
       <r>    8.3235    1.0000 </r>
       <r>    8.6555    1.0000 </r>
       <r>    8.8096    1.0000 </r>
       <r>    9.0620    1.0000 </r>
       <r>    9.3183    1.0000 </r>
       <r>    9.8567    1.0000 </r>
       <r>   10.1150    1.0000 </r>
       <r>   10.2163    1.0000 </r>
       <r>   10.4274    1.0000 </r>
       <r>   10.6604    1.0000 </r>
       <r>   10.8043    1.0000 </r>
       <r>   10.9726    1.0001 </r>
       <r>   11.2394    1.0224 </r>
       <r>   11.5759    0.4430 </r>
       <r>   11.7233    0.0088 </r>
       <r>   12.0631   -0.0011 </r>
       <r>   12.2547   -0.0000 </r>
       <r>   12.5570   -0.0000 </r>
       <r>   12.6938   -0.0000 </r>
       <r>   13.0886   -0.0000 </r>
       <r>   13.1880   -0.0000 </r>
       <r>   13.2446   -0.0000 </r>
       <r>   13.2852   -0.0000 </r>
       <r>   13.5851   -0.0000 </r>
       <r>   13.7170   -0.0000 </r>
       <r>   14.1002   -0.0000 </r>
       <r>   14.3326   -0.0000 </r>
       <r>   14.6352   -0.0000 </r>
       <r>   14.9037   -0.0000 </r>
       <r>   14.9674   -0.0000 </r>
       <r>   15.2881   -0.0000 </r>
       <r>   15.3837   -0.0000 </r>
       <r>   15.5863   -0.0000 </r>
       <r>   15.7352   -0.0000 </r>
       <r>   15.8378   -0.0000 </r>
       <r>   16.0048   -0.0000 </r>
       <r>   16.2057   -0.0000 </r>
      </set>
      <set comment="kpoint 96">
       <r>   -1.3404    1.0000 </r>
       <r>   -0.4185    1.0000 </r>
       <r>    0.1981    1.0000 </r>
       <r>    0.5069    1.0000 </r>
       <r>    1.4123    1.0000 </r>
       <r>    1.7261    1.0000 </r>
       <r>    2.0981    1.0000 </r>
       <r>    2.5885    1.0000 </r>
       <r>    2.9533    1.0000 </r>
       <r>    3.3383    1.0000 </r>
       <r>    3.5701    1.0000 </r>
       <r>    4.1371    1.0000 </r>
       <r>    4.5331    1.0000 </r>
       <r>    4.6813    1.0000 </r>
       <r>    5.0383    1.0000 </r>
       <r>    5.4150    1.0000 </r>
       <r>    5.7238    1.0000 </r>
       <r>    5.7926    1.0000 </r>
       <r>    6.2076    1.0000 </r>
       <r>    6.4471    1.0000 </r>
       <r>    6.6634    1.0000 </r>
       <r>    6.7939    1.0000 </r>
       <r>    6.9645    1.0000 </r>
       <r>    7.2145    1.0000 </r>
       <r>    7.7221    1.0000 </r>
       <r>    7.9395    1.0000 </r>
       <r>    8.1385    1.0000 </r>
       <r>    8.2899    1.0000 </r>
       <r>    8.6089    1.0000 </r>
       <r>    8.9361    1.0000 </r>
       <r>    9.0376    1.0000 </r>
       <r>    9.4630    1.0000 </r>
       <r>    9.9715    1.0000 </r>
       <r>   10.0616    1.0000 </r>
       <r>   10.2655    1.0000 </r>
       <r>   10.4059    1.0000 </r>
       <r>   10.5593    1.0000 </r>
       <r>   10.7698    1.0000 </r>
       <r>   11.0244    1.0005 </r>
       <r>   11.0757    1.0016 </r>
       <r>   11.4411    0.9229 </r>
       <r>   11.7441   -0.0129 </r>
       <r>   12.0654   -0.0011 </r>
       <r>   12.3521   -0.0000 </r>
       <r>   12.6478   -0.0000 </r>
       <r>   12.8974   -0.0000 </r>
       <r>   13.0491   -0.0000 </r>
       <r>   13.1192   -0.0000 </r>
       <r>   13.2554   -0.0000 </r>
       <r>   13.3372   -0.0000 </r>
       <r>   13.5172   -0.0000 </r>
       <r>   13.6410   -0.0000 </r>
       <r>   14.0417   -0.0000 </r>
       <r>   14.2135   -0.0000 </r>
       <r>   14.5067   -0.0000 </r>
       <r>   14.9511   -0.0000 </r>
       <r>   15.2724   -0.0000 </r>
       <r>   15.3153   -0.0000 </r>
       <r>   15.3825   -0.0000 </r>
       <r>   15.4981   -0.0000 </r>
       <r>   15.7126   -0.0000 </r>
       <r>   15.9128   -0.0000 </r>
       <r>   16.0960   -0.0000 </r>
       <r>   16.1728   -0.0000 </r>
      </set>
      <set comment="kpoint 97">
       <r>   -1.3269    1.0000 </r>
       <r>   -0.4374    1.0000 </r>
       <r>    0.1298    1.0000 </r>
       <r>    0.5862    1.0000 </r>
       <r>    1.3558    1.0000 </r>
       <r>    1.7238    1.0000 </r>
       <r>    2.1681    1.0000 </r>
       <r>    2.6917    1.0000 </r>
       <r>    3.0604    1.0000 </r>
       <r>    3.1421    1.0000 </r>
       <r>    3.5959    1.0000 </r>
       <r>    4.0602    1.0000 </r>
       <r>    4.4869    1.0000 </r>
       <r>    4.7316    1.0000 </r>
       <r>    4.9299    1.0000 </r>
       <r>    5.4379    1.0000 </r>
       <r>    5.7428    1.0000 </r>
       <r>    5.9446    1.0000 </r>
       <r>    6.1359    1.0000 </r>
       <r>    6.4277    1.0000 </r>
       <r>    6.5320    1.0000 </r>
       <r>    6.8180    1.0000 </r>
       <r>    7.1513    1.0000 </r>
       <r>    7.2720    1.0000 </r>
       <r>    7.6617    1.0000 </r>
       <r>    7.7413    1.0000 </r>
       <r>    8.2002    1.0000 </r>
       <r>    8.3530    1.0000 </r>
       <r>    8.5625    1.0000 </r>
       <r>    8.9978    1.0000 </r>
       <r>    9.1591    1.0000 </r>
       <r>    9.4576    1.0000 </r>
       <r>    9.9140    1.0000 </r>
       <r>   10.0946    1.0000 </r>
       <r>   10.1302    1.0000 </r>
       <r>   10.4601    1.0000 </r>
       <r>   10.5483    1.0000 </r>
       <r>   10.6885    1.0000 </r>
       <r>   11.0315    1.0006 </r>
       <r>   11.3317    1.0346 </r>
       <r>   11.4192    0.9653 </r>
       <r>   11.7213    0.0114 </r>
       <r>   12.1281   -0.0002 </r>
       <r>   12.1901   -0.0000 </r>
       <r>   12.5831   -0.0000 </r>
       <r>   12.7426   -0.0000 </r>
       <r>   12.8958   -0.0000 </r>
       <r>   13.1833   -0.0000 </r>
       <r>   13.2322   -0.0000 </r>
       <r>   13.4036   -0.0000 </r>
       <r>   13.5539   -0.0000 </r>
       <r>   13.7835   -0.0000 </r>
       <r>   14.1300   -0.0000 </r>
       <r>   14.2831   -0.0000 </r>
       <r>   14.6049   -0.0000 </r>
       <r>   14.8800   -0.0000 </r>
       <r>   15.0610   -0.0000 </r>
       <r>   15.2962   -0.0000 </r>
       <r>   15.3551   -0.0000 </r>
       <r>   15.5778   -0.0000 </r>
       <r>   15.7122   -0.0000 </r>
       <r>   15.9740   -0.0000 </r>
       <r>   16.0330   -0.0000 </r>
       <r>   16.2221   -0.0000 </r>
      </set>
      <set comment="kpoint 98">
       <r>   -1.3335    1.0000 </r>
       <r>   -0.4327    1.0000 </r>
       <r>    0.1777    1.0000 </r>
       <r>    0.5701    1.0000 </r>
       <r>    1.2557    1.0000 </r>
       <r>    1.8281    1.0000 </r>
       <r>    2.1543    1.0000 </r>
       <r>    2.4890    1.0000 </r>
       <r>    3.0709    1.0000 </r>
       <r>    3.3346    1.0000 </r>
       <r>    3.6317    1.0000 </r>
       <r>    4.1969    1.0000 </r>
       <r>    4.3653    1.0000 </r>
       <r>    4.6752    1.0000 </r>
       <r>    5.0821    1.0000 </r>
       <r>    5.3446    1.0000 </r>
       <r>    5.6488    1.0000 </r>
       <r>    5.8897    1.0000 </r>
       <r>    5.9863    1.0000 </r>
       <r>    6.4835    1.0000 </r>
       <r>    6.6371    1.0000 </r>
       <r>    6.9478    1.0000 </r>
       <r>    7.0904    1.0000 </r>
       <r>    7.1683    1.0000 </r>
       <r>    7.7395    1.0000 </r>
       <r>    7.9277    1.0000 </r>
       <r>    8.1353    1.0000 </r>
       <r>    8.3366    1.0000 </r>
       <r>    8.5545    1.0000 </r>
       <r>    8.9532    1.0000 </r>
       <r>    9.1118    1.0000 </r>
       <r>    9.2729    1.0000 </r>
       <r>    9.9118    1.0000 </r>
       <r>   10.1267    1.0000 </r>
       <r>   10.2768    1.0000 </r>
       <r>   10.4362    1.0000 </r>
       <r>   10.5668    1.0000 </r>
       <r>   10.8774    1.0000 </r>
       <r>   11.0532    1.0009 </r>
       <r>   11.1590    1.0076 </r>
       <r>   11.3972    0.9964 </r>
       <r>   11.7833   -0.0329 </r>
       <r>   12.1479   -0.0001 </r>
       <r>   12.3040   -0.0000 </r>
       <r>   12.5238   -0.0000 </r>
       <r>   12.7616   -0.0000 </r>
       <r>   12.8931   -0.0000 </r>
       <r>   13.1138   -0.0000 </r>
       <r>   13.2257   -0.0000 </r>
       <r>   13.3986   -0.0000 </r>
       <r>   13.5322   -0.0000 </r>
       <r>   13.7424   -0.0000 </r>
       <r>   14.1003   -0.0000 </r>
       <r>   14.3361   -0.0000 </r>
       <r>   14.5127   -0.0000 </r>
       <r>   14.8355   -0.0000 </r>
       <r>   15.0270   -0.0000 </r>
       <r>   15.3283   -0.0000 </r>
       <r>   15.4254   -0.0000 </r>
       <r>   15.5231   -0.0000 </r>
       <r>   15.7636   -0.0000 </r>
       <r>   15.8663   -0.0000 </r>
       <r>   16.0388   -0.0000 </r>
       <r>   16.2349   -0.0000 </r>
      </set>
      <set comment="kpoint 99">
       <r>   -1.3197    1.0000 </r>
       <r>   -0.4776    1.0000 </r>
       <r>    0.1906    1.0000 </r>
       <r>    0.5559    1.0000 </r>
       <r>    1.3965    1.0000 </r>
       <r>    1.7711    1.0000 </r>
       <r>    1.9898    1.0000 </r>
       <r>    2.7188    1.0000 </r>
       <r>    3.0727    1.0000 </r>
       <r>    3.3023    1.0000 </r>
       <r>    3.5650    1.0000 </r>
       <r>    4.0658    1.0000 </r>
       <r>    4.3788    1.0000 </r>
       <r>    4.7183    1.0000 </r>
       <r>    5.0216    1.0000 </r>
       <r>    5.3532    1.0000 </r>
       <r>    5.7321    1.0000 </r>
       <r>    5.8765    1.0000 </r>
       <r>    6.0602    1.0000 </r>
       <r>    6.3926    1.0000 </r>
       <r>    6.6361    1.0000 </r>
       <r>    6.9474    1.0000 </r>
       <r>    7.0933    1.0000 </r>
       <r>    7.3603    1.0000 </r>
       <r>    7.6483    1.0000 </r>
       <r>    7.9236    1.0000 </r>
       <r>    8.1961    1.0000 </r>
       <r>    8.2871    1.0000 </r>
       <r>    8.6751    1.0000 </r>
       <r>    8.8871    1.0000 </r>
       <r>    9.0355    1.0000 </r>
       <r>    9.3451    1.0000 </r>
       <r>    9.7535    1.0000 </r>
       <r>   10.0967    1.0000 </r>
       <r>   10.2685    1.0000 </r>
       <r>   10.4246    1.0000 </r>
       <r>   10.6177    1.0000 </r>
       <r>   10.7520    1.0000 </r>
       <r>   11.1193    1.0038 </r>
       <r>   11.2593    1.0270 </r>
       <r>   11.4889    0.7889 </r>
       <r>   11.7181    0.0156 </r>
       <r>   12.0325   -0.0022 </r>
       <r>   12.2350   -0.0000 </r>
       <r>   12.4843   -0.0000 </r>
       <r>   12.7348   -0.0000 </r>
       <r>   12.9203   -0.0000 </r>
       <r>   13.2641   -0.0000 </r>
       <r>   13.2879   -0.0000 </r>
       <r>   13.4104   -0.0000 </r>
       <r>   13.5467   -0.0000 </r>
       <r>   13.7790   -0.0000 </r>
       <r>   14.1074   -0.0000 </r>
       <r>   14.2942   -0.0000 </r>
       <r>   14.5375   -0.0000 </r>
       <r>   14.9507   -0.0000 </r>
       <r>   15.1118   -0.0000 </r>
       <r>   15.2047   -0.0000 </r>
       <r>   15.3618   -0.0000 </r>
       <r>   15.5041   -0.0000 </r>
       <r>   15.6860   -0.0000 </r>
       <r>   15.8636   -0.0000 </r>
       <r>   15.9466   -0.0000 </r>
       <r>   16.2157   -0.0000 </r>
      </set>
      <set comment="kpoint 100">
       <r>   -1.3316    1.0000 </r>
       <r>   -0.4330    1.0000 </r>
       <r>    0.1474    1.0000 </r>
       <r>    0.5404    1.0000 </r>
       <r>    1.5080    1.0000 </r>
       <r>    1.7323    1.0000 </r>
       <r>    2.0389    1.0000 </r>
       <r>    2.5747    1.0000 </r>
       <r>    3.0526    1.0000 </r>
       <r>    3.2099    1.0000 </r>
       <r>    3.6103    1.0000 </r>
       <r>    4.0282    1.0000 </r>
       <r>    4.4756    1.0000 </r>
       <r>    4.8677    1.0000 </r>
       <r>    4.9724    1.0000 </r>
       <r>    5.4455    1.0000 </r>
       <r>    5.6877    1.0000 </r>
       <r>    5.8120    1.0000 </r>
       <r>    6.2232    1.0000 </r>
       <r>    6.4387    1.0000 </r>
       <r>    6.5426    1.0000 </r>
       <r>    6.9609    1.0000 </r>
       <r>    7.0385    1.0000 </r>
       <r>    7.1784    1.0000 </r>
       <r>    7.6985    1.0000 </r>
       <r>    7.8739    1.0000 </r>
       <r>    8.2426    1.0000 </r>
       <r>    8.3117    1.0000 </r>
       <r>    8.5429    1.0000 </r>
       <r>    8.8978    1.0000 </r>
       <r>    9.0264    1.0000 </r>
       <r>    9.4252    1.0000 </r>
       <r>    9.9054    1.0000 </r>
       <r>   10.0506    1.0000 </r>
       <r>   10.2275    1.0000 </r>
       <r>   10.5067    1.0000 </r>
       <r>   10.6450    1.0000 </r>
       <r>   10.8129    1.0000 </r>
       <r>   11.0321    1.0006 </r>
       <r>   11.1985    1.0137 </r>
       <r>   11.3361    1.0339 </r>
       <r>   11.7406   -0.0099 </r>
       <r>   11.9770   -0.0063 </r>
       <r>   12.2815   -0.0000 </r>
       <r>   12.6216   -0.0000 </r>
       <r>   12.8063   -0.0000 </r>
       <r>   12.9810   -0.0000 </r>
       <r>   13.1043   -0.0000 </r>
       <r>   13.3080   -0.0000 </r>
       <r>   13.3978   -0.0000 </r>
       <r>   13.5640   -0.0000 </r>
       <r>   13.7228   -0.0000 </r>
       <r>   14.1066   -0.0000 </r>
       <r>   14.3120   -0.0000 </r>
       <r>   14.5336   -0.0000 </r>
       <r>   14.8628   -0.0000 </r>
       <r>   15.1382   -0.0000 </r>
       <r>   15.1661   -0.0000 </r>
       <r>   15.4060   -0.0000 </r>
       <r>   15.5143   -0.0000 </r>
       <r>   15.6174   -0.0000 </r>
       <r>   15.8840   -0.0000 </r>
       <r>   16.2025   -0.0000 </r>
       <r>   16.2817   -0.0000 </r>
      </set>
      <set comment="kpoint 101">
       <r>   -1.0845    1.0000 </r>
       <r>   -0.4043    1.0000 </r>
       <r>   -0.1304    1.0000 </r>
       <r>    0.4857    1.0000 </r>
       <r>    0.6633    1.0000 </r>
       <r>    1.3148    1.0000 </r>
       <r>    3.0111    1.0000 </r>
       <r>    3.0873    1.0000 </r>
       <r>    3.4977    1.0000 </r>
       <r>    3.8883    1.0000 </r>
       <r>    4.1588    1.0000 </r>
       <r>    4.3443    1.0000 </r>
       <r>    4.5906    1.0000 </r>
       <r>    4.6319    1.0000 </r>
       <r>    4.8486    1.0000 </r>
       <r>    4.9786    1.0000 </r>
       <r>    5.1674    1.0000 </r>
       <r>    5.3032    1.0000 </r>
       <r>    5.5773    1.0000 </r>
       <r>    5.9036    1.0000 </r>
       <r>    6.0152    1.0000 </r>
       <r>    6.4834    1.0000 </r>
       <r>    7.5164    1.0000 </r>
       <r>    7.7070    1.0000 </r>
       <r>    7.9942    1.0000 </r>
       <r>    8.1675    1.0000 </r>
       <r>    8.3236    1.0000 </r>
       <r>    8.4819    1.0000 </r>
       <r>    8.6918    1.0000 </r>
       <r>    8.8899    1.0000 </r>
       <r>    9.0990    1.0000 </r>
       <r>    9.2656    1.0000 </r>
       <r>    9.3957    1.0000 </r>
       <r>    9.6345    1.0000 </r>
       <r>    9.9612    1.0000 </r>
       <r>   10.2697    1.0000 </r>
       <r>   10.4825    1.0000 </r>
       <r>   10.7574    1.0000 </r>
       <r>   11.0457    1.0008 </r>
       <r>   11.2447    1.0236 </r>
       <r>   11.6243    0.2515 </r>
       <r>   11.8247   -0.0344 </r>
       <r>   12.2121   -0.0000 </r>
       <r>   12.4101   -0.0000 </r>
       <r>   12.7550   -0.0000 </r>
       <r>   12.8331   -0.0000 </r>
       <r>   13.0105   -0.0000 </r>
       <r>   13.1010   -0.0000 </r>
       <r>   13.3100   -0.0000 </r>
       <r>   13.5488   -0.0000 </r>
       <r>   14.0500   -0.0000 </r>
       <r>   14.1766   -0.0000 </r>
       <r>   14.5042   -0.0000 </r>
       <r>   14.7642   -0.0000 </r>
       <r>   14.9103   -0.0000 </r>
       <r>   15.0551   -0.0000 </r>
       <r>   15.3544   -0.0000 </r>
       <r>   15.4427   -0.0000 </r>
       <r>   15.5045   -0.0000 </r>
       <r>   15.5529   -0.0000 </r>
       <r>   15.6316   -0.0000 </r>
       <r>   15.7818   -0.0000 </r>
       <r>   16.0323   -0.0000 </r>
       <r>   16.2593   -0.0000 </r>
      </set>
      <set comment="kpoint 102">
       <r>   -1.0305    1.0000 </r>
       <r>   -0.4973    1.0000 </r>
       <r>   -0.1056    1.0000 </r>
       <r>    0.4841    1.0000 </r>
       <r>    0.6074    1.0000 </r>
       <r>    1.3310    1.0000 </r>
       <r>    3.0581    1.0000 </r>
       <r>    3.3286    1.0000 </r>
       <r>    3.7397    1.0000 </r>
       <r>    3.8397    1.0000 </r>
       <r>    3.9345    1.0000 </r>
       <r>    4.2923    1.0000 </r>
       <r>    4.5157    1.0000 </r>
       <r>    4.6687    1.0000 </r>
       <r>    4.7981    1.0000 </r>
       <r>    4.9567    1.0000 </r>
       <r>    5.0485    1.0000 </r>
       <r>    5.3258    1.0000 </r>
       <r>    5.5358    1.0000 </r>
       <r>    5.8029    1.0000 </r>
       <r>    5.9824    1.0000 </r>
       <r>    6.4688    1.0000 </r>
       <r>    7.5679    1.0000 </r>
       <r>    7.6643    1.0000 </r>
       <r>    7.8968    1.0000 </r>
       <r>    8.2965    1.0000 </r>
       <r>    8.4129    1.0000 </r>
       <r>    8.5750    1.0000 </r>
       <r>    8.7298    1.0000 </r>
       <r>    8.9775    1.0000 </r>
       <r>    9.1284    1.0000 </r>
       <r>    9.3373    1.0000 </r>
       <r>    9.3925    1.0000 </r>
       <r>    9.6771    1.0000 </r>
       <r>    9.8898    1.0000 </r>
       <r>   10.2118    1.0000 </r>
       <r>   10.6254    1.0000 </r>
       <r>   10.8191    1.0000 </r>
       <r>   11.0013    1.0003 </r>
       <r>   11.1363    1.0051 </r>
       <r>   11.7235    0.0086 </r>
       <r>   11.8995   -0.0192 </r>
       <r>   12.2207   -0.0000 </r>
       <r>   12.4339   -0.0000 </r>
       <r>   12.5939   -0.0000 </r>
       <r>   12.7489   -0.0000 </r>
       <r>   12.9881   -0.0000 </r>
       <r>   13.1277   -0.0000 </r>
       <r>   13.2560   -0.0000 </r>
       <r>   13.5009   -0.0000 </r>
       <r>   14.0164   -0.0000 </r>
       <r>   14.1143   -0.0000 </r>
       <r>   14.4618   -0.0000 </r>
       <r>   14.6811   -0.0000 </r>
       <r>   14.8488   -0.0000 </r>
       <r>   15.0400   -0.0000 </r>
       <r>   15.1909   -0.0000 </r>
       <r>   15.3415   -0.0000 </r>
       <r>   15.4267   -0.0000 </r>
       <r>   15.5792   -0.0000 </r>
       <r>   15.6444   -0.0000 </r>
       <r>   15.8709   -0.0000 </r>
       <r>   15.9916   -0.0000 </r>
       <r>   16.2610   -0.0000 </r>
      </set>
      <set comment="kpoint 103">
       <r>   -1.0808    1.0000 </r>
       <r>   -0.4337    1.0000 </r>
       <r>   -0.0564    1.0000 </r>
       <r>    0.3645    1.0000 </r>
       <r>    0.7678    1.0000 </r>
       <r>    1.2381    1.0000 </r>
       <r>    2.9640    1.0000 </r>
       <r>    3.2848    1.0000 </r>
       <r>    3.5983    1.0000 </r>
       <r>    3.9108    1.0000 </r>
       <r>    4.0350    1.0000 </r>
       <r>    4.1708    1.0000 </r>
       <r>    4.5473    1.0000 </r>
       <r>    4.7002    1.0000 </r>
       <r>    4.9225    1.0000 </r>
       <r>    5.0159    1.0000 </r>
       <r>    5.1613    1.0000 </r>
       <r>    5.2643    1.0000 </r>
       <r>    5.5273    1.0000 </r>
       <r>    5.7950    1.0000 </r>
       <r>    6.1174    1.0000 </r>
       <r>    6.4620    1.0000 </r>
       <r>    7.4321    1.0000 </r>
       <r>    7.7498    1.0000 </r>
       <r>    7.9904    1.0000 </r>
       <r>    8.1835    1.0000 </r>
       <r>    8.3287    1.0000 </r>
       <r>    8.5707    1.0000 </r>
       <r>    8.7229    1.0000 </r>
       <r>    8.9354    1.0000 </r>
       <r>    9.1561    1.0000 </r>
       <r>    9.2970    1.0000 </r>
       <r>    9.3642    1.0000 </r>
       <r>    9.5393    1.0000 </r>
       <r>    9.9658    1.0000 </r>
       <r>   10.2422    1.0000 </r>
       <r>   10.4575    1.0000 </r>
       <r>   10.8678    1.0000 </r>
       <r>   11.0110    1.0003 </r>
       <r>   11.2530    1.0255 </r>
       <r>   11.5174    0.6851 </r>
       <r>   11.8620   -0.0277 </r>
       <r>   12.1986   -0.0000 </r>
       <r>   12.4913   -0.0000 </r>
       <r>   12.6058   -0.0000 </r>
       <r>   12.8165   -0.0000 </r>
       <r>   13.0024   -0.0000 </r>
       <r>   13.1330   -0.0000 </r>
       <r>   13.3150   -0.0000 </r>
       <r>   13.6405   -0.0000 </r>
       <r>   13.9866   -0.0000 </r>
       <r>   14.0879   -0.0000 </r>
       <r>   14.5872   -0.0000 </r>
       <r>   14.8130   -0.0000 </r>
       <r>   14.9269   -0.0000 </r>
       <r>   15.1208   -0.0000 </r>
       <r>   15.1946   -0.0000 </r>
       <r>   15.3023   -0.0000 </r>
       <r>   15.4629   -0.0000 </r>
       <r>   15.6058   -0.0000 </r>
       <r>   15.8181   -0.0000 </r>
       <r>   15.8591   -0.0000 </r>
       <r>   15.9896   -0.0000 </r>
       <r>   16.3618   -0.0000 </r>
      </set>
      <set comment="kpoint 104">
       <r>   -1.0758    1.0000 </r>
       <r>   -0.4127    1.0000 </r>
       <r>   -0.1373    1.0000 </r>
       <r>    0.3640    1.0000 </r>
       <r>    0.8910    1.0000 </r>
       <r>    1.2191    1.0000 </r>
       <r>    2.7907    1.0000 </r>
       <r>    3.4219    1.0000 </r>
       <r>    3.5428    1.0000 </r>
       <r>    3.8528    1.0000 </r>
       <r>    4.1006    1.0000 </r>
       <r>    4.2070    1.0000 </r>
       <r>    4.4559    1.0000 </r>
       <r>    4.7330    1.0000 </r>
       <r>    4.8712    1.0000 </r>
       <r>    5.0016    1.0000 </r>
       <r>    5.2536    1.0000 </r>
       <r>    5.4381    1.0000 </r>
       <r>    5.5083    1.0000 </r>
       <r>    5.6638    1.0000 </r>
       <r>    6.1945    1.0000 </r>
       <r>    6.4707    1.0000 </r>
       <r>    7.3598    1.0000 </r>
       <r>    7.6810    1.0000 </r>
       <r>    7.9880    1.0000 </r>
       <r>    8.2267    1.0000 </r>
       <r>    8.3793    1.0000 </r>
       <r>    8.6277    1.0000 </r>
       <r>    8.7731    1.0000 </r>
       <r>    8.8424    1.0000 </r>
       <r>    9.1275    1.0000 </r>
       <r>    9.2545    1.0000 </r>
       <r>    9.3899    1.0000 </r>
       <r>    9.6015    1.0000 </r>
       <r>    9.9737    1.0000 </r>
       <r>   10.1790    1.0000 </r>
       <r>   10.4656    1.0000 </r>
       <r>   10.6580    1.0000 </r>
       <r>   10.9747    1.0001 </r>
       <r>   11.4179    0.9674 </r>
       <r>   11.4843    0.8040 </r>
       <r>   12.0511   -0.0015 </r>
       <r>   12.1380   -0.0002 </r>
       <r>   12.3668   -0.0000 </r>
       <r>   12.6125   -0.0000 </r>
       <r>   12.8485   -0.0000 </r>
       <r>   13.0925   -0.0000 </r>
       <r>   13.1339   -0.0000 </r>
       <r>   13.3319   -0.0000 </r>
       <r>   13.6990   -0.0000 </r>
       <r>   13.8947   -0.0000 </r>
       <r>   14.2732   -0.0000 </r>
       <r>   14.5693   -0.0000 </r>
       <r>   14.6893   -0.0000 </r>
       <r>   14.7910   -0.0000 </r>
       <r>   15.0803   -0.0000 </r>
       <r>   15.3052   -0.0000 </r>
       <r>   15.3816   -0.0000 </r>
       <r>   15.4642   -0.0000 </r>
       <r>   15.5932   -0.0000 </r>
       <r>   15.7079   -0.0000 </r>
       <r>   15.8865   -0.0000 </r>
       <r>   16.0596   -0.0000 </r>
       <r>   16.2287   -0.0000 </r>
      </set>
      <set comment="kpoint 105">
       <r>   -1.0950    1.0000 </r>
       <r>   -0.3476    1.0000 </r>
       <r>   -0.1380    1.0000 </r>
       <r>    0.3350    1.0000 </r>
       <r>    0.8470    1.0000 </r>
       <r>    1.2046    1.0000 </r>
       <r>    2.8818    1.0000 </r>
       <r>    3.2815    1.0000 </r>
       <r>    3.6214    1.0000 </r>
       <r>    4.0066    1.0000 </r>
       <r>    4.1000    1.0000 </r>
       <r>    4.2225    1.0000 </r>
       <r>    4.4115    1.0000 </r>
       <r>    4.6823    1.0000 </r>
       <r>    4.8464    1.0000 </r>
       <r>    4.9438    1.0000 </r>
       <r>    5.2406    1.0000 </r>
       <r>    5.4442    1.0000 </r>
       <r>    5.5349    1.0000 </r>
       <r>    5.6858    1.0000 </r>
       <r>    6.1617    1.0000 </r>
       <r>    6.4139    1.0000 </r>
       <r>    7.4231    1.0000 </r>
       <r>    7.6858    1.0000 </r>
       <r>    8.0103    1.0000 </r>
       <r>    8.1376    1.0000 </r>
       <r>    8.3491    1.0000 </r>
       <r>    8.5951    1.0000 </r>
       <r>    8.8168    1.0000 </r>
       <r>    8.8786    1.0000 </r>
       <r>    9.1580    1.0000 </r>
       <r>    9.2624    1.0000 </r>
       <r>    9.3819    1.0000 </r>
       <r>    9.5977    1.0000 </r>
       <r>   10.0193    1.0000 </r>
       <r>   10.2981    1.0000 </r>
       <r>   10.4138    1.0000 </r>
       <r>   10.6991    1.0000 </r>
       <r>   10.9698    1.0001 </r>
       <r>   11.3211    1.0354 </r>
       <r>   11.4638    0.8662 </r>
       <r>   11.9933   -0.0047 </r>
       <r>   12.2652   -0.0000 </r>
       <r>   12.3940   -0.0000 </r>
       <r>   12.5406   -0.0000 </r>
       <r>   12.7907   -0.0000 </r>
       <r>   12.9781   -0.0000 </r>
       <r>   13.1466   -0.0000 </r>
       <r>   13.3243   -0.0000 </r>
       <r>   13.7729   -0.0000 </r>
       <r>   13.9488   -0.0000 </r>
       <r>   14.2342   -0.0000 </r>
       <r>   14.5630   -0.0000 </r>
       <r>   14.7393   -0.0000 </r>
       <r>   14.9084   -0.0000 </r>
       <r>   15.0973   -0.0000 </r>
       <r>   15.2248   -0.0000 </r>
       <r>   15.3394   -0.0000 </r>
       <r>   15.4291   -0.0000 </r>
       <r>   15.5855   -0.0000 </r>
       <r>   15.7321   -0.0000 </r>
       <r>   15.8496   -0.0000 </r>
       <r>   16.0328   -0.0000 </r>
       <r>   16.3348   -0.0000 </r>
      </set>
      <set comment="kpoint 106">
       <r>   -1.0468    1.0000 </r>
       <r>   -0.4454    1.0000 </r>
       <r>   -0.1449    1.0000 </r>
       <r>    0.4854    1.0000 </r>
       <r>    0.6152    1.0000 </r>
       <r>    1.3354    1.0000 </r>
       <r>    3.0710    1.0000 </r>
       <r>    3.2228    1.0000 </r>
       <r>    3.6747    1.0000 </r>
       <r>    3.8692    1.0000 </r>
       <r>    4.0728    1.0000 </r>
       <r>    4.2320    1.0000 </r>
       <r>    4.5793    1.0000 </r>
       <r>    4.6930    1.0000 </r>
       <r>    4.7785    1.0000 </r>
       <r>    4.9441    1.0000 </r>
       <r>    5.0441    1.0000 </r>
       <r>    5.4509    1.0000 </r>
       <r>    5.5181    1.0000 </r>
       <r>    5.7510    1.0000 </r>
       <r>    5.8994    1.0000 </r>
       <r>    6.5168    1.0000 </r>
       <r>    7.4547    1.0000 </r>
       <r>    7.6912    1.0000 </r>
       <r>    7.9594    1.0000 </r>
       <r>    8.2774    1.0000 </r>
       <r>    8.3667    1.0000 </r>
       <r>    8.6072    1.0000 </r>
       <r>    8.7724    1.0000 </r>
       <r>    8.9694    1.0000 </r>
       <r>    9.1270    1.0000 </r>
       <r>    9.3030    1.0000 </r>
       <r>    9.4281    1.0000 </r>
       <r>    9.7264    1.0000 </r>
       <r>    9.8878    1.0000 </r>
       <r>   10.1547    1.0000 </r>
       <r>   10.6160    1.0000 </r>
       <r>   10.8052    1.0000 </r>
       <r>   10.9745    1.0001 </r>
       <r>   11.1999    1.0140 </r>
       <r>   11.6855    0.0730 </r>
       <r>   11.8233   -0.0346 </r>
       <r>   12.2071   -0.0000 </r>
       <r>   12.4014   -0.0000 </r>
       <r>   12.6061   -0.0000 </r>
       <r>   12.7975   -0.0000 </r>
       <r>   12.9933   -0.0000 </r>
       <r>   13.1151   -0.0000 </r>
       <r>   13.4183   -0.0000 </r>
       <r>   13.5305   -0.0000 </r>
       <r>   14.0173   -0.0000 </r>
       <r>   14.1052   -0.0000 </r>
       <r>   14.5206   -0.0000 </r>
       <r>   14.6206   -0.0000 </r>
       <r>   14.8061   -0.0000 </r>
       <r>   15.0038   -0.0000 </r>
       <r>   15.1961   -0.0000 </r>
       <r>   15.2790   -0.0000 </r>
       <r>   15.4339   -0.0000 </r>
       <r>   15.5593   -0.0000 </r>
       <r>   15.7352   -0.0000 </r>
       <r>   15.8668   -0.0000 </r>
       <r>   16.0054   -0.0000 </r>
       <r>   16.2187   -0.0000 </r>
      </set>
      <set comment="kpoint 107">
       <r>   -1.0815    1.0000 </r>
       <r>   -0.4228    1.0000 </r>
       <r>   -0.1144    1.0000 </r>
       <r>    0.4909    1.0000 </r>
       <r>    0.6602    1.0000 </r>
       <r>    1.3132    1.0000 </r>
       <r>    3.0098    1.0000 </r>
       <r>    3.0817    1.0000 </r>
       <r>    3.5372    1.0000 </r>
       <r>    3.8902    1.0000 </r>
       <r>    4.1056    1.0000 </r>
       <r>    4.3564    1.0000 </r>
       <r>    4.4931    1.0000 </r>
       <r>    4.6263    1.0000 </r>
       <r>    4.8978    1.0000 </r>
       <r>    5.0213    1.0000 </r>
       <r>    5.1495    1.0000 </r>
       <r>    5.4141    1.0000 </r>
       <r>    5.5839    1.0000 </r>
       <r>    5.8606    1.0000 </r>
       <r>    5.9522    1.0000 </r>
       <r>    6.5154    1.0000 </r>
       <r>    7.4631    1.0000 </r>
       <r>    7.7221    1.0000 </r>
       <r>    8.0565    1.0000 </r>
       <r>    8.1898    1.0000 </r>
       <r>    8.2842    1.0000 </r>
       <r>    8.4842    1.0000 </r>
       <r>    8.6838    1.0000 </r>
       <r>    8.9207    1.0000 </r>
       <r>    9.0471    1.0000 </r>
       <r>    9.2701    1.0000 </r>
       <r>    9.4013    1.0000 </r>
       <r>    9.6638    1.0000 </r>
       <r>    9.9637    1.0000 </r>
       <r>   10.1856    1.0000 </r>
       <r>   10.5530    1.0000 </r>
       <r>   10.7491    1.0000 </r>
       <r>   11.0249    1.0005 </r>
       <r>   11.2243    1.0190 </r>
       <r>   11.6326    0.2222 </r>
       <r>   11.8164   -0.0352 </r>
       <r>   12.2086   -0.0000 </r>
       <r>   12.4252   -0.0000 </r>
       <r>   12.6841   -0.0000 </r>
       <r>   12.8698   -0.0000 </r>
       <r>   13.0380   -0.0000 </r>
       <r>   13.1924   -0.0000 </r>
       <r>   13.3280   -0.0000 </r>
       <r>   13.5536   -0.0000 </r>
       <r>   13.9455   -0.0000 </r>
       <r>   14.1593   -0.0000 </r>
       <r>   14.5324   -0.0000 </r>
       <r>   14.7770   -0.0000 </r>
       <r>   14.9583   -0.0000 </r>
       <r>   15.0341   -0.0000 </r>
       <r>   15.2676   -0.0000 </r>
       <r>   15.4422   -0.0000 </r>
       <r>   15.4789   -0.0000 </r>
       <r>   15.6036   -0.0000 </r>
       <r>   15.7070   -0.0000 </r>
       <r>   15.8126   -0.0000 </r>
       <r>   15.9871   -0.0000 </r>
       <r>   16.1605   -0.0000 </r>
      </set>
      <set comment="kpoint 108">
       <r>   -1.0306    1.0000 </r>
       <r>   -0.5168    1.0000 </r>
       <r>   -0.0491    1.0000 </r>
       <r>    0.3858    1.0000 </r>
       <r>    0.6780    1.0000 </r>
       <r>    1.3192    1.0000 </r>
       <r>    3.1526    1.0000 </r>
       <r>    3.2768    1.0000 </r>
       <r>    3.5626    1.0000 </r>
       <r>    3.8909    1.0000 </r>
       <r>    4.0177    1.0000 </r>
       <r>    4.2521    1.0000 </r>
       <r>    4.4888    1.0000 </r>
       <r>    4.7026    1.0000 </r>
       <r>    4.8314    1.0000 </r>
       <r>    4.9613    1.0000 </r>
       <r>    5.1227    1.0000 </r>
       <r>    5.3288    1.0000 </r>
       <r>    5.4920    1.0000 </r>
       <r>    5.7686    1.0000 </r>
       <r>    5.9514    1.0000 </r>
       <r>    6.5130    1.0000 </r>
       <r>    7.4835    1.0000 </r>
       <r>    7.7457    1.0000 </r>
       <r>    7.9586    1.0000 </r>
       <r>    8.2390    1.0000 </r>
       <r>    8.3865    1.0000 </r>
       <r>    8.5993    1.0000 </r>
       <r>    8.7337    1.0000 </r>
       <r>    8.9173    1.0000 </r>
       <r>    9.1346    1.0000 </r>
       <r>    9.3364    1.0000 </r>
       <r>    9.3954    1.0000 </r>
       <r>    9.7308    1.0000 </r>
       <r>    9.8808    1.0000 </r>
       <r>   10.2162    1.0000 </r>
       <r>   10.6261    1.0000 </r>
       <r>   10.8522    1.0000 </r>
       <r>   10.8985    1.0000 </r>
       <r>   11.2051    1.0150 </r>
       <r>   11.6734    0.1010 </r>
       <r>   11.9127   -0.0164 </r>
       <r>   12.1318   -0.0002 </r>
       <r>   12.4342   -0.0000 </r>
       <r>   12.6342   -0.0000 </r>
       <r>   12.8502   -0.0000 </r>
       <r>   13.0428   -0.0000 </r>
       <r>   13.1021   -0.0000 </r>
       <r>   13.2494   -0.0000 </r>
       <r>   13.4563   -0.0000 </r>
       <r>   14.0175   -0.0000 </r>
       <r>   14.1245   -0.0000 </r>
       <r>   14.4932   -0.0000 </r>
       <r>   14.6748   -0.0000 </r>
       <r>   14.7871   -0.0000 </r>
       <r>   15.0380   -0.0000 </r>
       <r>   15.2026   -0.0000 </r>
       <r>   15.3133   -0.0000 </r>
       <r>   15.4082   -0.0000 </r>
       <r>   15.5820   -0.0000 </r>
       <r>   15.7272   -0.0000 </r>
       <r>   15.8613   -0.0000 </r>
       <r>   16.0760   -0.0000 </r>
       <r>   16.1667   -0.0000 </r>
      </set>
      <set comment="kpoint 109">
       <r>   -1.0799    1.0000 </r>
       <r>   -0.4230    1.0000 </r>
       <r>   -0.0699    1.0000 </r>
       <r>    0.3279    1.0000 </r>
       <r>    0.8454    1.0000 </r>
       <r>    1.1955    1.0000 </r>
       <r>    2.9273    1.0000 </r>
       <r>    3.3314    1.0000 </r>
       <r>    3.6140    1.0000 </r>
       <r>    3.9703    1.0000 </r>
       <r>    4.0286    1.0000 </r>
       <r>    4.2082    1.0000 </r>
       <r>    4.4718    1.0000 </r>
       <r>    4.5894    1.0000 </r>
       <r>    4.8623    1.0000 </r>
       <r>    5.0565    1.0000 </r>
       <r>    5.1913    1.0000 </r>
       <r>    5.3590    1.0000 </r>
       <r>    5.5038    1.0000 </r>
       <r>    5.7827    1.0000 </r>
       <r>    6.1476    1.0000 </r>
       <r>    6.4387    1.0000 </r>
       <r>    7.4678    1.0000 </r>
       <r>    7.6631    1.0000 </r>
       <r>    8.0198    1.0000 </r>
       <r>    8.0797    1.0000 </r>
       <r>    8.3820    1.0000 </r>
       <r>    8.6501    1.0000 </r>
       <r>    8.7516    1.0000 </r>
       <r>    8.9256    1.0000 </r>
       <r>    9.1267    1.0000 </r>
       <r>    9.2355    1.0000 </r>
       <r>    9.4108    1.0000 </r>
       <r>    9.5786    1.0000 </r>
       <r>   10.0128    1.0000 </r>
       <r>   10.2985    1.0000 </r>
       <r>   10.4115    1.0000 </r>
       <r>   10.7586    1.0000 </r>
       <r>   10.9419    1.0001 </r>
       <r>   11.3510    1.0301 </r>
       <r>   11.4978    0.7580 </r>
       <r>   12.0061   -0.0037 </r>
       <r>   12.1212   -0.0003 </r>
       <r>   12.3632   -0.0000 </r>
       <r>   12.5982   -0.0000 </r>
       <r>   12.8129   -0.0000 </r>
       <r>   13.0751   -0.0000 </r>
       <r>   13.1246   -0.0000 </r>
       <r>   13.3537   -0.0000 </r>
       <r>   13.6523   -0.0000 </r>
       <r>   13.9993   -0.0000 </r>
       <r>   14.1228   -0.0000 </r>
       <r>   14.6631   -0.0000 </r>
       <r>   14.7098   -0.0000 </r>
       <r>   14.9195   -0.0000 </r>
       <r>   15.0184   -0.0000 </r>
       <r>   15.2147   -0.0000 </r>
       <r>   15.3045   -0.0000 </r>
       <r>   15.4185   -0.0000 </r>
       <r>   15.6810   -0.0000 </r>
       <r>   15.7178   -0.0000 </r>
       <r>   15.8524   -0.0000 </r>
       <r>   15.9998   -0.0000 </r>
       <r>   16.3079   -0.0000 </r>
      </set>
      <set comment="kpoint 110">
       <r>   -1.0743    1.0000 </r>
       <r>   -0.3999    1.0000 </r>
       <r>   -0.1641    1.0000 </r>
       <r>    0.3777    1.0000 </r>
       <r>    0.8880    1.0000 </r>
       <r>    1.2211    1.0000 </r>
       <r>    2.7670    1.0000 </r>
       <r>    3.4178    1.0000 </r>
       <r>    3.6132    1.0000 </r>
       <r>    3.8882    1.0000 </r>
       <r>    4.0489    1.0000 </r>
       <r>    4.2634    1.0000 </r>
       <r>    4.4231    1.0000 </r>
       <r>    4.6580    1.0000 </r>
       <r>    4.8375    1.0000 </r>
       <r>    5.0558    1.0000 </r>
       <r>    5.2197    1.0000 </r>
       <r>    5.3835    1.0000 </r>
       <r>    5.5122    1.0000 </r>
       <r>    5.7563    1.0000 </r>
       <r>    6.2466    1.0000 </r>
       <r>    6.3969    1.0000 </r>
       <r>    7.4001    1.0000 </r>
       <r>    7.6409    1.0000 </r>
       <r>    8.0208    1.0000 </r>
       <r>    8.1687    1.0000 </r>
       <r>    8.4571    1.0000 </r>
       <r>    8.5997    1.0000 </r>
       <r>    8.7546    1.0000 </r>
       <r>    8.8837    1.0000 </r>
       <r>    9.0967    1.0000 </r>
       <r>    9.2997    1.0000 </r>
       <r>    9.3743    1.0000 </r>
       <r>    9.5462    1.0000 </r>
       <r>    9.9492    1.0000 </r>
       <r>   10.2219    1.0000 </r>
       <r>   10.4243    1.0000 </r>
       <r>   10.7455    1.0000 </r>
       <r>   11.0029    1.0003 </r>
       <r>   11.3668    1.0227 </r>
       <r>   11.4735    0.8379 </r>
       <r>   11.9887   -0.0051 </r>
       <r>   12.1939   -0.0000 </r>
       <r>   12.3548   -0.0000 </r>
       <r>   12.6843   -0.0000 </r>
       <r>   12.8309   -0.0000 </r>
       <r>   13.0131   -0.0000 </r>
       <r>   13.2116   -0.0000 </r>
       <r>   13.2836   -0.0000 </r>
       <r>   13.6931   -0.0000 </r>
       <r>   13.9930   -0.0000 </r>
       <r>   14.2437   -0.0000 </r>
       <r>   14.4361   -0.0000 </r>
       <r>   14.7815   -0.0000 </r>
       <r>   14.8759   -0.0000 </r>
       <r>   15.1073   -0.0000 </r>
       <r>   15.1985   -0.0000 </r>
       <r>   15.3200   -0.0000 </r>
       <r>   15.3765   -0.0000 </r>
       <r>   15.5263   -0.0000 </r>
       <r>   15.7766   -0.0000 </r>
       <r>   15.9025   -0.0000 </r>
       <r>   16.0563   -0.0000 </r>
       <r>   16.2076   -0.0000 </r>
      </set>
      <set comment="kpoint 111">
       <r>   -1.0915    1.0000 </r>
       <r>   -0.3794    1.0000 </r>
       <r>   -0.1148    1.0000 </r>
       <r>    0.3799    1.0000 </r>
       <r>    0.7716    1.0000 </r>
       <r>    1.2425    1.0000 </r>
       <r>    2.8747    1.0000 </r>
       <r>    3.3244    1.0000 </r>
       <r>    3.6759    1.0000 </r>
       <r>    3.8671    1.0000 </r>
       <r>    4.0786    1.0000 </r>
       <r>    4.2038    1.0000 </r>
       <r>    4.4509    1.0000 </r>
       <r>    4.6245    1.0000 </r>
       <r>    4.9445    1.0000 </r>
       <r>    5.0357    1.0000 </r>
       <r>    5.1731    1.0000 </r>
       <r>    5.3567    1.0000 </r>
       <r>    5.5786    1.0000 </r>
       <r>    5.7744    1.0000 </r>
       <r>    6.1204    1.0000 </r>
       <r>    6.3895    1.0000 </r>
       <r>    7.3849    1.0000 </r>
       <r>    7.7512    1.0000 </r>
       <r>    8.0633    1.0000 </r>
       <r>    8.1220    1.0000 </r>
       <r>    8.3745    1.0000 </r>
       <r>    8.4844    1.0000 </r>
       <r>    8.7736    1.0000 </r>
       <r>    8.9785    1.0000 </r>
       <r>    9.0729    1.0000 </r>
       <r>    9.3331    1.0000 </r>
       <r>    9.3794    1.0000 </r>
       <r>    9.6183    1.0000 </r>
       <r>    9.9777    1.0000 </r>
       <r>   10.1468    1.0000 </r>
       <r>   10.5146    1.0000 </r>
       <r>   10.8108    1.0000 </r>
       <r>   10.9407    1.0001 </r>
       <r>   11.2410    1.0228 </r>
       <r>   11.5607    0.5071 </r>
       <r>   11.9058   -0.0178 </r>
       <r>   12.2079   -0.0000 </r>
       <r>   12.5491   -0.0000 </r>
       <r>   12.6017   -0.0000 </r>
       <r>   12.7649   -0.0000 </r>
       <r>   12.9532   -0.0000 </r>
       <r>   13.0857   -0.0000 </r>
       <r>   13.3882   -0.0000 </r>
       <r>   13.6587   -0.0000 </r>
       <r>   13.9997   -0.0000 </r>
       <r>   14.1250   -0.0000 </r>
       <r>   14.5971   -0.0000 </r>
       <r>   14.7661   -0.0000 </r>
       <r>   14.9197   -0.0000 </r>
       <r>   15.1479   -0.0000 </r>
       <r>   15.1607   -0.0000 </r>
       <r>   15.2548   -0.0000 </r>
       <r>   15.5862   -0.0000 </r>
       <r>   15.6433   -0.0000 </r>
       <r>   15.7507   -0.0000 </r>
       <r>   15.8495   -0.0000 </r>
       <r>   15.9605   -0.0000 </r>
       <r>   16.3989   -0.0000 </r>
      </set>
      <set comment="kpoint 112">
       <r>   -1.0483    1.0000 </r>
       <r>   -0.4527    1.0000 </r>
       <r>   -0.1094    1.0000 </r>
       <r>    0.3903    1.0000 </r>
       <r>    0.6918    1.0000 </r>
       <r>    1.3242    1.0000 </r>
       <r>    2.9909    1.0000 </r>
       <r>    3.3232    1.0000 </r>
       <r>    3.6838    1.0000 </r>
       <r>    3.9225    1.0000 </r>
       <r>    3.9799    1.0000 </r>
       <r>    4.4089    1.0000 </r>
       <r>    4.4446    1.0000 </r>
       <r>    4.6709    1.0000 </r>
       <r>    4.7686    1.0000 </r>
       <r>    4.9010    1.0000 </r>
       <r>    5.0783    1.0000 </r>
       <r>    5.3522    1.0000 </r>
       <r>    5.5273    1.0000 </r>
       <r>    5.7948    1.0000 </r>
       <r>    6.0154    1.0000 </r>
       <r>    6.4430    1.0000 </r>
       <r>    7.4658    1.0000 </r>
       <r>    7.7531    1.0000 </r>
       <r>    7.9520    1.0000 </r>
       <r>    8.2636    1.0000 </r>
       <r>    8.3337    1.0000 </r>
       <r>    8.5445    1.0000 </r>
       <r>    8.7704    1.0000 </r>
       <r>    9.0603    1.0000 </r>
       <r>    9.1245    1.0000 </r>
       <r>    9.2526    1.0000 </r>
       <r>    9.4398    1.0000 </r>
       <r>    9.7435    1.0000 </r>
       <r>    9.8547    1.0000 </r>
       <r>   10.1981    1.0000 </r>
       <r>   10.5960    1.0000 </r>
       <r>   10.8164    1.0000 </r>
       <r>   10.9090    1.0000 </r>
       <r>   11.2447    1.0236 </r>
       <r>   11.6321    0.2238 </r>
       <r>   11.9394   -0.0114 </r>
       <r>   12.2589   -0.0000 </r>
       <r>   12.4026   -0.0000 </r>
       <r>   12.5721   -0.0000 </r>
       <r>   12.7358   -0.0000 </r>
       <r>   12.9787   -0.0000 </r>
       <r>   13.1689   -0.0000 </r>
       <r>   13.3358   -0.0000 </r>
       <r>   13.5949   -0.0000 </r>
       <r>   14.0298   -0.0000 </r>
       <r>   14.0495   -0.0000 </r>
       <r>   14.4001   -0.0000 </r>
       <r>   14.6689   -0.0000 </r>
       <r>   14.8066   -0.0000 </r>
       <r>   15.1073   -0.0000 </r>
       <r>   15.1954   -0.0000 </r>
       <r>   15.3371   -0.0000 </r>
       <r>   15.4485   -0.0000 </r>
       <r>   15.5494   -0.0000 </r>
       <r>   15.6580   -0.0000 </r>
       <r>   15.8663   -0.0000 </r>
       <r>   16.0296   -0.0000 </r>
       <r>   16.2540   -0.0000 </r>
      </set>
      <set comment="kpoint 113">
       <r>   -1.4805    1.0000 </r>
       <r>   -0.5530    1.0000 </r>
       <r>    0.9462    1.0000 </r>
       <r>    1.1274    1.0000 </r>
       <r>    1.2851    1.0000 </r>
       <r>    1.5332    1.0000 </r>
       <r>    1.6893    1.0000 </r>
       <r>    1.9989    1.0000 </r>
       <r>    2.9548    1.0000 </r>
       <r>    3.1373    1.0000 </r>
       <r>    3.3695    1.0000 </r>
       <r>    4.3560    1.0000 </r>
       <r>    4.5317    1.0000 </r>
       <r>    4.7488    1.0000 </r>
       <r>    4.8803    1.0000 </r>
       <r>    5.0305    1.0000 </r>
       <r>    5.2712    1.0000 </r>
       <r>    5.5028    1.0000 </r>
       <r>    6.7828    1.0000 </r>
       <r>    6.9735    1.0000 </r>
       <r>    7.2302    1.0000 </r>
       <r>    7.4617    1.0000 </r>
       <r>    7.5668    1.0000 </r>
       <r>    7.6435    1.0000 </r>
       <r>    7.7878    1.0000 </r>
       <r>    7.9156    1.0000 </r>
       <r>    7.9982    1.0000 </r>
       <r>    8.1637    1.0000 </r>
       <r>    8.8003    1.0000 </r>
       <r>    8.8771    1.0000 </r>
       <r>    9.0763    1.0000 </r>
       <r>    9.1946    1.0000 </r>
       <r>    9.2511    1.0000 </r>
       <r>    9.4382    1.0000 </r>
       <r>   10.3413    1.0000 </r>
       <r>   10.4398    1.0000 </r>
       <r>   10.6422    1.0000 </r>
       <r>   10.8885    1.0000 </r>
       <r>   10.9829    1.0002 </r>
       <r>   11.0929    1.0022 </r>
       <r>   11.1592    1.0076 </r>
       <r>   11.3083    1.0352 </r>
       <r>   11.6109    0.3011 </r>
       <r>   12.6485   -0.0000 </r>
       <r>   12.8158   -0.0000 </r>
       <r>   12.9370   -0.0000 </r>
       <r>   13.2239   -0.0000 </r>
       <r>   13.4472   -0.0000 </r>
       <r>   13.6299   -0.0000 </r>
       <r>   13.8600   -0.0000 </r>
       <r>   13.9429   -0.0000 </r>
       <r>   14.0421   -0.0000 </r>
       <r>   14.0694   -0.0000 </r>
       <r>   14.1745   -0.0000 </r>
       <r>   14.2890   -0.0000 </r>
       <r>   14.4358   -0.0000 </r>
       <r>   14.4957   -0.0000 </r>
       <r>   14.5610   -0.0000 </r>
       <r>   14.7798   -0.0000 </r>
       <r>   14.8615   -0.0000 </r>
       <r>   15.1514   -0.0000 </r>
       <r>   15.8368   -0.0000 </r>
       <r>   15.9289   -0.0000 </r>
       <r>   16.0722   -0.0000 </r>
      </set>
      <set comment="kpoint 114">
       <r>   -1.4622    1.0000 </r>
       <r>   -0.5728    1.0000 </r>
       <r>    0.7889    1.0000 </r>
       <r>    1.0033    1.0000 </r>
       <r>    1.4426    1.0000 </r>
       <r>    1.6144    1.0000 </r>
       <r>    1.7705    1.0000 </r>
       <r>    2.1599    1.0000 </r>
       <r>    2.8093    1.0000 </r>
       <r>    3.0634    1.0000 </r>
       <r>    3.5190    1.0000 </r>
       <r>    4.2319    1.0000 </r>
       <r>    4.4959    1.0000 </r>
       <r>    4.6606    1.0000 </r>
       <r>    4.8777    1.0000 </r>
       <r>    5.0616    1.0000 </r>
       <r>    5.2688    1.0000 </r>
       <r>    5.6411    1.0000 </r>
       <r>    6.6254    1.0000 </r>
       <r>    6.9093    1.0000 </r>
       <r>    7.1250    1.0000 </r>
       <r>    7.3096    1.0000 </r>
       <r>    7.5076    1.0000 </r>
       <r>    7.6784    1.0000 </r>
       <r>    7.7740    1.0000 </r>
       <r>    8.0362    1.0000 </r>
       <r>    8.2988    1.0000 </r>
       <r>    8.3724    1.0000 </r>
       <r>    8.7819    1.0000 </r>
       <r>    8.8336    1.0000 </r>
       <r>    8.9670    1.0000 </r>
       <r>    9.1161    1.0000 </r>
       <r>    9.4349    1.0000 </r>
       <r>    9.6545    1.0000 </r>
       <r>   10.2550    1.0000 </r>
       <r>   10.4481    1.0000 </r>
       <r>   10.6696    1.0000 </r>
       <r>   10.7693    1.0000 </r>
       <r>   10.8962    1.0000 </r>
       <r>   11.0368    1.0006 </r>
       <r>   11.1407    1.0055 </r>
       <r>   11.3785    1.0146 </r>
       <r>   11.7047    0.0362 </r>
       <r>   12.6714   -0.0000 </r>
       <r>   12.7669   -0.0000 </r>
       <r>   12.9572   -0.0000 </r>
       <r>   13.0728   -0.0000 </r>
       <r>   13.3584   -0.0000 </r>
       <r>   13.6330   -0.0000 </r>
       <r>   13.7125   -0.0000 </r>
       <r>   13.8608   -0.0000 </r>
       <r>   13.9998   -0.0000 </r>
       <r>   14.0669   -0.0000 </r>
       <r>   14.2535   -0.0000 </r>
       <r>   14.2727   -0.0000 </r>
       <r>   14.4076   -0.0000 </r>
       <r>   14.6308   -0.0000 </r>
       <r>   14.7376   -0.0000 </r>
       <r>   14.7719   -0.0000 </r>
       <r>   14.9283   -0.0000 </r>
       <r>   15.2127   -0.0000 </r>
       <r>   15.6643   -0.0000 </r>
       <r>   15.7993   -0.0000 </r>
       <r>   16.0168   -0.0000 </r>
      </set>
      <set comment="kpoint 115">
       <r>   -1.4844    1.0000 </r>
       <r>   -0.5359    1.0000 </r>
       <r>    0.9194    1.0000 </r>
       <r>    1.1287    1.0000 </r>
       <r>    1.3106    1.0000 </r>
       <r>    1.4318    1.0000 </r>
       <r>    1.7000    1.0000 </r>
       <r>    2.1029    1.0000 </r>
       <r>    2.9212    1.0000 </r>
       <r>    3.1141    1.0000 </r>
       <r>    3.4124    1.0000 </r>
       <r>    4.3256    1.0000 </r>
       <r>    4.5826    1.0000 </r>
       <r>    4.7886    1.0000 </r>
       <r>    4.9061    1.0000 </r>
       <r>    4.9590    1.0000 </r>
       <r>    5.2416    1.0000 </r>
       <r>    5.5631    1.0000 </r>
       <r>    6.7170    1.0000 </r>
       <r>    6.9772    1.0000 </r>
       <r>    7.1637    1.0000 </r>
       <r>    7.4282    1.0000 </r>
       <r>    7.4643    1.0000 </r>
       <r>    7.5221    1.0000 </r>
       <r>    7.8222    1.0000 </r>
       <r>    8.0034    1.0000 </r>
       <r>    8.1367    1.0000 </r>
       <r>    8.2399    1.0000 </r>
       <r>    8.7845    1.0000 </r>
       <r>    8.9118    1.0000 </r>
       <r>    9.0747    1.0000 </r>
       <r>    9.1557    1.0000 </r>
       <r>    9.2817    1.0000 </r>
       <r>    9.4682    1.0000 </r>
       <r>   10.3312    1.0000 </r>
       <r>   10.4717    1.0000 </r>
       <r>   10.6097    1.0000 </r>
       <r>   10.8860    1.0000 </r>
       <r>   10.9611    1.0001 </r>
       <r>   11.0786    1.0017 </r>
       <r>   11.2079    1.0155 </r>
       <r>   11.3151    1.0354 </r>
       <r>   11.6180    0.2743 </r>
       <r>   12.6595   -0.0000 </r>
       <r>   12.8256   -0.0000 </r>
       <r>   12.8730   -0.0000 </r>
       <r>   13.2776   -0.0000 </r>
       <r>   13.4070   -0.0000 </r>
       <r>   13.6735   -0.0000 </r>
       <r>   13.7403   -0.0000 </r>
       <r>   13.8779   -0.0000 </r>
       <r>   13.9438   -0.0000 </r>
       <r>   14.0235   -0.0000 </r>
       <r>   14.2296   -0.0000 </r>
       <r>   14.2842   -0.0000 </r>
       <r>   14.3813   -0.0000 </r>
       <r>   14.5121   -0.0000 </r>
       <r>   14.6302   -0.0000 </r>
       <r>   14.8423   -0.0000 </r>
       <r>   15.0812   -0.0000 </r>
       <r>   15.1686   -0.0000 </r>
       <r>   15.6697   -0.0000 </r>
       <r>   15.9321   -0.0000 </r>
       <r>   16.0077   -0.0000 </r>
      </set>
      <set comment="kpoint 116">
       <r>   -1.4666    1.0000 </r>
       <r>   -0.5711    1.0000 </r>
       <r>    0.7547    1.0000 </r>
       <r>    1.1340    1.0000 </r>
       <r>    1.4314    1.0000 </r>
       <r>    1.6652    1.0000 </r>
       <r>    1.7059    1.0000 </r>
       <r>    2.0378    1.0000 </r>
       <r>    2.7029    1.0000 </r>
       <r>    3.2638    1.0000 </r>
       <r>    3.4661    1.0000 </r>
       <r>    4.1033    1.0000 </r>
       <r>    4.6402    1.0000 </r>
       <r>    4.6900    1.0000 </r>
       <r>    4.8982    1.0000 </r>
       <r>    5.0117    1.0000 </r>
       <r>    5.3285    1.0000 </r>
       <r>    5.5818    1.0000 </r>
       <r>    6.5485    1.0000 </r>
       <r>    7.0767    1.0000 </r>
       <r>    7.2783    1.0000 </r>
       <r>    7.3847    1.0000 </r>
       <r>    7.4707    1.0000 </r>
       <r>    7.5450    1.0000 </r>
       <r>    7.7909    1.0000 </r>
       <r>    7.9507    1.0000 </r>
       <r>    8.1836    1.0000 </r>
       <r>    8.3696    1.0000 </r>
       <r>    8.6031    1.0000 </r>
       <r>    8.8620    1.0000 </r>
       <r>    9.1290    1.0000 </r>
       <r>    9.2122    1.0000 </r>
       <r>    9.3667    1.0000 </r>
       <r>    9.5636    1.0000 </r>
       <r>   10.3011    1.0000 </r>
       <r>   10.4419    1.0000 </r>
       <r>   10.6277    1.0000 </r>
       <r>   10.7455    1.0000 </r>
       <r>   10.9058    1.0000 </r>
       <r>   11.0551    1.0010 </r>
       <r>   11.2619    1.0275 </r>
       <r>   11.4561    0.8868 </r>
       <r>   11.6181    0.2742 </r>
       <r>   12.6141   -0.0000 </r>
       <r>   12.7107   -0.0000 </r>
       <r>   12.9810   -0.0000 </r>
       <r>   13.0752   -0.0000 </r>
       <r>   13.4589   -0.0000 </r>
       <r>   13.5455   -0.0000 </r>
       <r>   13.7303   -0.0000 </r>
       <r>   13.7783   -0.0000 </r>
       <r>   13.9481   -0.0000 </r>
       <r>   14.1219   -0.0000 </r>
       <r>   14.2455   -0.0000 </r>
       <r>   14.3294   -0.0000 </r>
       <r>   14.4652   -0.0000 </r>
       <r>   14.5786   -0.0000 </r>
       <r>   14.7054   -0.0000 </r>
       <r>   14.7547   -0.0000 </r>
       <r>   15.0215   -0.0000 </r>
       <r>   15.2498   -0.0000 </r>
       <r>   15.4889   -0.0000 </r>
       <r>   15.9090   -0.0000 </r>
       <r>   16.0043   -0.0000 </r>
      </set>
      <set comment="kpoint 117">
       <r>   -1.0922    1.0000 </r>
       <r>   -0.6491    1.0000 </r>
       <r>   -0.1232    1.0000 </r>
       <r>    0.7889    1.0000 </r>
       <r>    0.8944    1.0000 </r>
       <r>    2.2201    1.0000 </r>
       <r>    2.3306    1.0000 </r>
       <r>    2.6802    1.0000 </r>
       <r>    2.9050    1.0000 </r>
       <r>    3.1689    1.0000 </r>
       <r>    3.2994    1.0000 </r>
       <r>    4.4103    1.0000 </r>
       <r>    4.8096    1.0000 </r>
       <r>    5.0206    1.0000 </r>
       <r>    5.3392    1.0000 </r>
       <r>    5.6547    1.0000 </r>
       <r>    5.8228    1.0000 </r>
       <r>    5.9114    1.0000 </r>
       <r>    5.9814    1.0000 </r>
       <r>    6.1779    1.0000 </r>
       <r>    6.3967    1.0000 </r>
       <r>    6.5916    1.0000 </r>
       <r>    6.7169    1.0000 </r>
       <r>    6.8481    1.0000 </r>
       <r>    7.1657    1.0000 </r>
       <r>    7.8687    1.0000 </r>
       <r>    8.0457    1.0000 </r>
       <r>    8.3406    1.0000 </r>
       <r>    8.4262    1.0000 </r>
       <r>    8.8792    1.0000 </r>
       <r>    9.0189    1.0000 </r>
       <r>    9.4303    1.0000 </r>
       <r>    9.4956    1.0000 </r>
       <r>   10.0293    1.0000 </r>
       <r>   10.4232    1.0000 </r>
       <r>   10.5701    1.0000 </r>
       <r>   10.8021    1.0000 </r>
       <r>   11.0801    1.0017 </r>
       <r>   11.5399    0.5943 </r>
       <r>   11.7613   -0.0246 </r>
       <r>   11.8177   -0.0351 </r>
       <r>   11.8936   -0.0205 </r>
       <r>   12.0690   -0.0010 </r>
       <r>   12.3988   -0.0000 </r>
       <r>   12.5189   -0.0000 </r>
       <r>   12.6259   -0.0000 </r>
       <r>   12.7338   -0.0000 </r>
       <r>   12.8741   -0.0000 </r>
       <r>   13.3207   -0.0000 </r>
       <r>   13.3992   -0.0000 </r>
       <r>   13.6541   -0.0000 </r>
       <r>   13.9110   -0.0000 </r>
       <r>   14.1760   -0.0000 </r>
       <r>   14.2337   -0.0000 </r>
       <r>   14.5493   -0.0000 </r>
       <r>   14.6198   -0.0000 </r>
       <r>   14.7954   -0.0000 </r>
       <r>   14.9562   -0.0000 </r>
       <r>   15.2029   -0.0000 </r>
       <r>   15.2348   -0.0000 </r>
       <r>   16.1146   -0.0000 </r>
       <r>   16.2806   -0.0000 </r>
       <r>   16.4669   -0.0000 </r>
       <r>   16.6588   -0.0000 </r>
      </set>
      <set comment="kpoint 118">
       <r>   -1.0893    1.0000 </r>
       <r>   -0.7045    1.0000 </r>
       <r>    0.0017    1.0000 </r>
       <r>    0.6297    1.0000 </r>
       <r>    1.0321    1.0000 </r>
       <r>    2.0334    1.0000 </r>
       <r>    2.3630    1.0000 </r>
       <r>    2.7814    1.0000 </r>
       <r>    2.8686    1.0000 </r>
       <r>    3.1059    1.0000 </r>
       <r>    3.4078    1.0000 </r>
       <r>    4.4612    1.0000 </r>
       <r>    4.7961    1.0000 </r>
       <r>    5.0114    1.0000 </r>
       <r>    5.2899    1.0000 </r>
       <r>    5.4677    1.0000 </r>
       <r>    5.7814    1.0000 </r>
       <r>    5.9890    1.0000 </r>
       <r>    6.0640    1.0000 </r>
       <r>    6.2793    1.0000 </r>
       <r>    6.4455    1.0000 </r>
       <r>    6.5429    1.0000 </r>
       <r>    6.7426    1.0000 </r>
       <r>    6.9668    1.0000 </r>
       <r>    7.1779    1.0000 </r>
       <r>    7.8416    1.0000 </r>
       <r>    8.1002    1.0000 </r>
       <r>    8.2519    1.0000 </r>
       <r>    8.3674    1.0000 </r>
       <r>    8.7763    1.0000 </r>
       <r>    8.8538    1.0000 </r>
       <r>    9.5192    1.0000 </r>
       <r>    9.5520    1.0000 </r>
       <r>   10.1499    1.0000 </r>
       <r>   10.2473    1.0000 </r>
       <r>   10.7130    1.0000 </r>
       <r>   10.8198    1.0000 </r>
       <r>   11.0561    1.0010 </r>
       <r>   11.4936    0.7726 </r>
       <r>   11.5972    0.3549 </r>
       <r>   11.8187   -0.0350 </r>
       <r>   11.9087   -0.0172 </r>
       <r>   12.2360   -0.0000 </r>
       <r>   12.3407   -0.0000 </r>
       <r>   12.4519   -0.0000 </r>
       <r>   12.5607   -0.0000 </r>
       <r>   12.8547   -0.0000 </r>
       <r>   12.9148   -0.0000 </r>
       <r>   13.2315   -0.0000 </r>
       <r>   13.4660   -0.0000 </r>
       <r>   13.7379   -0.0000 </r>
       <r>   13.9741   -0.0000 </r>
       <r>   14.0524   -0.0000 </r>
       <r>   14.3031   -0.0000 </r>
       <r>   14.5161   -0.0000 </r>
       <r>   14.6778   -0.0000 </r>
       <r>   14.8652   -0.0000 </r>
       <r>   14.9380   -0.0000 </r>
       <r>   15.1702   -0.0000 </r>
       <r>   15.3855   -0.0000 </r>
       <r>   16.1576   -0.0000 </r>
       <r>   16.2299   -0.0000 </r>
       <r>   16.4994   -0.0000 </r>
       <r>   16.5942   -0.0000 </r>
      </set>
      <set comment="kpoint 119">
       <r>   -1.1160    1.0000 </r>
       <r>   -0.6489    1.0000 </r>
       <r>   -0.0428    1.0000 </r>
       <r>    0.7205    1.0000 </r>
       <r>    0.9226    1.0000 </r>
       <r>    2.2234    1.0000 </r>
       <r>    2.2883    1.0000 </r>
       <r>    2.6846    1.0000 </r>
       <r>    2.8331    1.0000 </r>
       <r>    3.1078    1.0000 </r>
       <r>    3.4085    1.0000 </r>
       <r>    4.4181    1.0000 </r>
       <r>    4.8597    1.0000 </r>
       <r>    5.0149    1.0000 </r>
       <r>    5.3049    1.0000 </r>
       <r>    5.6524    1.0000 </r>
       <r>    5.8131    1.0000 </r>
       <r>    5.8704    1.0000 </r>
       <r>    6.1125    1.0000 </r>
       <r>    6.2278    1.0000 </r>
       <r>    6.4137    1.0000 </r>
       <r>    6.6250    1.0000 </r>
       <r>    6.6968    1.0000 </r>
       <r>    6.8390    1.0000 </r>
       <r>    7.2064    1.0000 </r>
       <r>    7.9013    1.0000 </r>
       <r>    8.0339    1.0000 </r>
       <r>    8.2157    1.0000 </r>
       <r>    8.3444    1.0000 </r>
       <r>    8.7795    1.0000 </r>
       <r>    8.9805    1.0000 </r>
       <r>    9.3965    1.0000 </r>
       <r>    9.4969    1.0000 </r>
       <r>   10.1699    1.0000 </r>
       <r>   10.4681    1.0000 </r>
       <r>   10.6622    1.0000 </r>
       <r>   10.7092    1.0000 </r>
       <r>   11.0059    1.0003 </r>
       <r>   11.5555    0.5291 </r>
       <r>   11.7084    0.0300 </r>
       <r>   11.8220   -0.0347 </r>
       <r>   11.9678   -0.0073 </r>
       <r>   12.1010   -0.0005 </r>
       <r>   12.3853   -0.0000 </r>
       <r>   12.4664   -0.0000 </r>
       <r>   12.5806   -0.0000 </r>
       <r>   12.7407   -0.0000 </r>
       <r>   12.8864   -0.0000 </r>
       <r>   13.3445   -0.0000 </r>
       <r>   13.4409   -0.0000 </r>
       <r>   13.5871   -0.0000 </r>
       <r>   14.0087   -0.0000 </r>
       <r>   14.1309   -0.0000 </r>
       <r>   14.3175   -0.0000 </r>
       <r>   14.6069   -0.0000 </r>
       <r>   14.6721   -0.0000 </r>
       <r>   14.7809   -0.0000 </r>
       <r>   14.9112   -0.0000 </r>
       <r>   15.1785   -0.0000 </r>
       <r>   15.4215   -0.0000 </r>
       <r>   16.0568   -0.0000 </r>
       <r>   16.2983   -0.0000 </r>
       <r>   16.5311   -0.0000 </r>
       <r>   16.6875   -0.0000 </r>
      </set>
      <set comment="kpoint 120">
       <r>   -1.0596    1.0000 </r>
       <r>   -0.7307    1.0000 </r>
       <r>   -0.0194    1.0000 </r>
       <r>    0.5693    1.0000 </r>
       <r>    1.1208    1.0000 </r>
       <r>    2.0110    1.0000 </r>
       <r>    2.3810    1.0000 </r>
       <r>    2.7094    1.0000 </r>
       <r>    2.8921    1.0000 </r>
       <r>    3.2229    1.0000 </r>
       <r>    3.4586    1.0000 </r>
       <r>    4.3876    1.0000 </r>
       <r>    4.6781    1.0000 </r>
       <r>    5.0636    1.0000 </r>
       <r>    5.3158    1.0000 </r>
       <r>    5.5393    1.0000 </r>
       <r>    5.7197    1.0000 </r>
       <r>    5.8671    1.0000 </r>
       <r>    5.9952    1.0000 </r>
       <r>    6.3214    1.0000 </r>
       <r>    6.4433    1.0000 </r>
       <r>    6.5102    1.0000 </r>
       <r>    6.8339    1.0000 </r>
       <r>    6.9529    1.0000 </r>
       <r>    7.1608    1.0000 </r>
       <r>    7.8756    1.0000 </r>
       <r>    8.0813    1.0000 </r>
       <r>    8.1907    1.0000 </r>
       <r>    8.5154    1.0000 </r>
       <r>    8.7415    1.0000 </r>
       <r>    9.0221    1.0000 </r>
       <r>    9.3793    1.0000 </r>
       <r>    9.5816    1.0000 </r>
       <r>   10.1712    1.0000 </r>
       <r>   10.4699    1.0000 </r>
       <r>   10.5327    1.0000 </r>
       <r>   10.8298    1.0000 </r>
       <r>   11.1522    1.0068 </r>
       <r>   11.3687    1.0215 </r>
       <r>   11.6034    0.3305 </r>
       <r>   11.8446   -0.0314 </r>
       <r>   11.9056   -0.0178 </r>
       <r>   12.1380   -0.0002 </r>
       <r>   12.3253   -0.0000 </r>
       <r>   12.4050   -0.0000 </r>
       <r>   12.5923   -0.0000 </r>
       <r>   12.7315   -0.0000 </r>
       <r>   13.0050   -0.0000 </r>
       <r>   13.3809   -0.0000 </r>
       <r>   13.5197   -0.0000 </r>
       <r>   13.6252   -0.0000 </r>
       <r>   13.8298   -0.0000 </r>
       <r>   14.0868   -0.0000 </r>
       <r>   14.3524   -0.0000 </r>
       <r>   14.5283   -0.0000 </r>
       <r>   14.6606   -0.0000 </r>
       <r>   14.8656   -0.0000 </r>
       <r>   15.0154   -0.0000 </r>
       <r>   15.1515   -0.0000 </r>
       <r>   15.2916   -0.0000 </r>
       <r>   16.1542   -0.0000 </r>
       <r>   16.3269   -0.0000 </r>
       <r>   16.4750   -0.0000 </r>
       <r>   16.5704   -0.0000 </r>
      </set>
      <set comment="kpoint 121">
       <r>   -1.0572    1.0000 </r>
       <r>   -0.7008    1.0000 </r>
       <r>   -0.1177    1.0000 </r>
       <r>    0.7812    1.0000 </r>
       <r>    0.8869    1.0000 </r>
       <r>    2.2396    1.0000 </r>
       <r>    2.4156    1.0000 </r>
       <r>    2.6512    1.0000 </r>
       <r>    2.9309    1.0000 </r>
       <r>    3.1016    1.0000 </r>
       <r>    3.3487    1.0000 </r>
       <r>    4.3257    1.0000 </r>
       <r>    4.8753    1.0000 </r>
       <r>    4.9608    1.0000 </r>
       <r>    5.4201    1.0000 </r>
       <r>    5.6323    1.0000 </r>
       <r>    5.7016    1.0000 </r>
       <r>    5.8506    1.0000 </r>
       <r>    6.0127    1.0000 </r>
       <r>    6.2157    1.0000 </r>
       <r>    6.4544    1.0000 </r>
       <r>    6.5698    1.0000 </r>
       <r>    6.7145    1.0000 </r>
       <r>    6.8522    1.0000 </r>
       <r>    7.1001    1.0000 </r>
       <r>    7.9340    1.0000 </r>
       <r>    8.0630    1.0000 </r>
       <r>    8.3772    1.0000 </r>
       <r>    8.4673    1.0000 </r>
       <r>    8.8849    1.0000 </r>
       <r>    8.9772    1.0000 </r>
       <r>    9.3770    1.0000 </r>
       <r>    9.5314    1.0000 </r>
       <r>   10.0413    1.0000 </r>
       <r>   10.4690    1.0000 </r>
       <r>   10.6591    1.0000 </r>
       <r>   10.9122    1.0000 </r>
       <r>   11.0144    1.0004 </r>
       <r>   11.4363    0.9331 </r>
       <r>   11.6680    0.1149 </r>
       <r>   11.7996   -0.0352 </r>
       <r>   11.8579   -0.0286 </r>
       <r>   12.1524   -0.0001 </r>
       <r>   12.4018   -0.0000 </r>
       <r>   12.4487   -0.0000 </r>
       <r>   12.6001   -0.0000 </r>
       <r>   12.7416   -0.0000 </r>
       <r>   12.9035   -0.0000 </r>
       <r>   13.3366   -0.0000 </r>
       <r>   13.4358   -0.0000 </r>
       <r>   13.5403   -0.0000 </r>
       <r>   13.9342   -0.0000 </r>
       <r>   14.0685   -0.0000 </r>
       <r>   14.4011   -0.0000 </r>
       <r>   14.5241   -0.0000 </r>
       <r>   14.6859   -0.0000 </r>
       <r>   14.7325   -0.0000 </r>
       <r>   15.0057   -0.0000 </r>
       <r>   15.1896   -0.0000 </r>
       <r>   15.2710   -0.0000 </r>
       <r>   16.0801   -0.0000 </r>
       <r>   16.2425   -0.0000 </r>
       <r>   16.4382   -0.0000 </r>
       <r>   16.6992   -0.0000 </r>
      </set>
      <set comment="kpoint 122">
       <r>   -1.0372    1.0000 </r>
       <r>   -0.7475    1.0000 </r>
       <r>   -0.0766    1.0000 </r>
       <r>    0.6095    1.0000 </r>
       <r>    1.1859    1.0000 </r>
       <r>    1.9191    1.0000 </r>
       <r>    2.5129    1.0000 </r>
       <r>    2.6532    1.0000 </r>
       <r>    2.8251    1.0000 </r>
       <r>    3.2613    1.0000 </r>
       <r>    3.4542    1.0000 </r>
       <r>    4.3886    1.0000 </r>
       <r>    4.6465    1.0000 </r>
       <r>    5.1648    1.0000 </r>
       <r>    5.2712    1.0000 </r>
       <r>    5.4302    1.0000 </r>
       <r>    5.7146    1.0000 </r>
       <r>    5.8599    1.0000 </r>
       <r>    6.0283    1.0000 </r>
       <r>    6.2686    1.0000 </r>
       <r>    6.4469    1.0000 </r>
       <r>    6.5649    1.0000 </r>
       <r>    6.8122    1.0000 </r>
       <r>    7.0870    1.0000 </r>
       <r>    7.1530    1.0000 </r>
       <r>    7.8995    1.0000 </r>
       <r>    8.0858    1.0000 </r>
       <r>    8.1433    1.0000 </r>
       <r>    8.5010    1.0000 </r>
       <r>    8.7814    1.0000 </r>
       <r>    9.0658    1.0000 </r>
       <r>    9.3375    1.0000 </r>
       <r>    9.6097    1.0000 </r>
       <r>    9.9986    1.0000 </r>
       <r>   10.4137    1.0000 </r>
       <r>   10.5221    1.0000 </r>
       <r>   10.9775    1.0001 </r>
       <r>   11.2004    1.0141 </r>
       <r>   11.2938    1.0336 </r>
       <r>   11.5858    0.4014 </r>
       <r>   11.8271   -0.0341 </r>
       <r>   11.9735   -0.0066 </r>
       <r>   12.1958   -0.0000 </r>
       <r>   12.2326   -0.0000 </r>
       <r>   12.3739   -0.0000 </r>
       <r>   12.6680   -0.0000 </r>
       <r>   12.7958   -0.0000 </r>
       <r>   13.0761   -0.0000 </r>
       <r>   13.2545   -0.0000 </r>
       <r>   13.4261   -0.0000 </r>
       <r>   13.5563   -0.0000 </r>
       <r>   13.8570   -0.0000 </r>
       <r>   14.1923   -0.0000 </r>
       <r>   14.4459   -0.0000 </r>
       <r>   14.5334   -0.0000 </r>
       <r>   14.6871   -0.0000 </r>
       <r>   14.7833   -0.0000 </r>
       <r>   14.9779   -0.0000 </r>
       <r>   15.0888   -0.0000 </r>
       <r>   15.3454   -0.0000 </r>
       <r>   15.9926   -0.0000 </r>
       <r>   16.2688   -0.0000 </r>
       <r>   16.5430   -0.0000 </r>
       <r>   16.6116   -0.0000 </r>
      </set>
      <set comment="kpoint 123">
       <r>   -1.1044    1.0000 </r>
       <r>   -0.6363    1.0000 </r>
       <r>   -0.0909    1.0000 </r>
       <r>    0.6615    1.0000 </r>
       <r>    0.9950    1.0000 </r>
       <r>    2.1340    1.0000 </r>
       <r>    2.4076    1.0000 </r>
       <r>    2.6125    1.0000 </r>
       <r>    2.9971    1.0000 </r>
       <r>    3.1472    1.0000 </r>
       <r>    3.3236    1.0000 </r>
       <r>    4.3919    1.0000 </r>
       <r>    4.7599    1.0000 </r>
       <r>    5.0891    1.0000 </r>
       <r>    5.4020    1.0000 </r>
       <r>    5.6387    1.0000 </r>
       <r>    5.7359    1.0000 </r>
       <r>    5.8362    1.0000 </r>
       <r>    6.0217    1.0000 </r>
       <r>    6.1707    1.0000 </r>
       <r>    6.4633    1.0000 </r>
       <r>    6.6343    1.0000 </r>
       <r>    6.6808    1.0000 </r>
       <r>    6.8724    1.0000 </r>
       <r>    7.1240    1.0000 </r>
       <r>    7.8165    1.0000 </r>
       <r>    8.1034    1.0000 </r>
       <r>    8.2960    1.0000 </r>
       <r>    8.4892    1.0000 </r>
       <r>    8.8707    1.0000 </r>
       <r>    9.0032    1.0000 </r>
       <r>    9.3782    1.0000 </r>
       <r>    9.5448    1.0000 </r>
       <r>   10.0092    1.0000 </r>
       <r>   10.3156    1.0000 </r>
       <r>   10.7517    1.0000 </r>
       <r>   10.8835    1.0000 </r>
       <r>   10.9740    1.0001 </r>
       <r>   11.5337    0.6201 </r>
       <r>   11.6950    0.0536 </r>
       <r>   11.7925   -0.0345 </r>
       <r>   11.8590   -0.0284 </r>
       <r>   12.2648   -0.0000 </r>
       <r>   12.4103   -0.0000 </r>
       <r>   12.4671   -0.0000 </r>
       <r>   12.5616   -0.0000 </r>
       <r>   12.7654   -0.0000 </r>
       <r>   12.9446   -0.0000 </r>
       <r>   13.3236   -0.0000 </r>
       <r>   13.3556   -0.0000 </r>
       <r>   13.5920   -0.0000 </r>
       <r>   13.8760   -0.0000 </r>
       <r>   14.1411   -0.0000 </r>
       <r>   14.3778   -0.0000 </r>
       <r>   14.4746   -0.0000 </r>
       <r>   14.6709   -0.0000 </r>
       <r>   14.8117   -0.0000 </r>
       <r>   14.9580   -0.0000 </r>
       <r>   15.1303   -0.0000 </r>
       <r>   15.2725   -0.0000 </r>
       <r>   16.1203   -0.0000 </r>
       <r>   16.2989   -0.0000 </r>
       <r>   16.5035   -0.0000 </r>
       <r>   16.5958   -0.0000 </r>
      </set>
      <set comment="kpoint 124">
       <r>   -1.1042    1.0000 </r>
       <r>   -0.6588    1.0000 </r>
       <r>   -0.0392    1.0000 </r>
       <r>    0.5813    1.0000 </r>
       <r>    1.1239    1.0000 </r>
       <r>    1.9840    1.0000 </r>
       <r>    2.3278    1.0000 </r>
       <r>    2.7143    1.0000 </r>
       <r>    2.8722    1.0000 </r>
       <r>    3.2875    1.0000 </r>
       <r>    3.4076    1.0000 </r>
       <r>    4.4725    1.0000 </r>
       <r>    4.7187    1.0000 </r>
       <r>    5.0521    1.0000 </r>
       <r>    5.3623    1.0000 </r>
       <r>    5.5043    1.0000 </r>
       <r>    5.6749    1.0000 </r>
       <r>    5.8292    1.0000 </r>
       <r>    6.0835    1.0000 </r>
       <r>    6.2544    1.0000 </r>
       <r>    6.4274    1.0000 </r>
       <r>    6.5562    1.0000 </r>
       <r>    6.7749    1.0000 </r>
       <r>    7.0021    1.0000 </r>
       <r>    7.1956    1.0000 </r>
       <r>    7.8833    1.0000 </r>
       <r>    8.0659    1.0000 </r>
       <r>    8.1451    1.0000 </r>
       <r>    8.4932    1.0000 </r>
       <r>    8.7253    1.0000 </r>
       <r>    9.0249    1.0000 </r>
       <r>    9.4041    1.0000 </r>
       <r>    9.5740    1.0000 </r>
       <r>   10.0925    1.0000 </r>
       <r>   10.3343    1.0000 </r>
       <r>   10.6470    1.0000 </r>
       <r>   10.8441    1.0000 </r>
       <r>   11.1262    1.0043 </r>
       <r>   11.4440    0.9163 </r>
       <r>   11.6023    0.3346 </r>
       <r>   11.8467   -0.0310 </r>
       <r>   12.0106   -0.0034 </r>
       <r>   12.1816   -0.0001 </r>
       <r>   12.2803   -0.0000 </r>
       <r>   12.4656   -0.0000 </r>
       <r>   12.4990   -0.0000 </r>
       <r>   12.7534   -0.0000 </r>
       <r>   13.0399   -0.0000 </r>
       <r>   13.2504   -0.0000 </r>
       <r>   13.4938   -0.0000 </r>
       <r>   13.6420   -0.0000 </r>
       <r>   13.8875   -0.0000 </r>
       <r>   14.1257   -0.0000 </r>
       <r>   14.3433   -0.0000 </r>
       <r>   14.5429   -0.0000 </r>
       <r>   14.7179   -0.0000 </r>
       <r>   14.8690   -0.0000 </r>
       <r>   14.9708   -0.0000 </r>
       <r>   15.0998   -0.0000 </r>
       <r>   15.2630   -0.0000 </r>
       <r>   16.1475   -0.0000 </r>
       <r>   16.2985   -0.0000 </r>
       <r>   16.5054   -0.0000 </r>
       <r>   16.6079   -0.0000 </r>
      </set>
      <set comment="kpoint 125">
       <r>   -1.1240    1.0000 </r>
       <r>   -0.6264    1.0000 </r>
       <r>   -0.0591    1.0000 </r>
       <r>    0.7166    1.0000 </r>
       <r>    0.9225    1.0000 </r>
       <r>    2.2318    1.0000 </r>
       <r>    2.3043    1.0000 </r>
       <r>    2.6566    1.0000 </r>
       <r>    2.7998    1.0000 </r>
       <r>    3.1349    1.0000 </r>
       <r>    3.4351    1.0000 </r>
       <r>    4.3974    1.0000 </r>
       <r>    4.9049    1.0000 </r>
       <r>    5.0549    1.0000 </r>
       <r>    5.3443    1.0000 </r>
       <r>    5.5922    1.0000 </r>
       <r>    5.7293    1.0000 </r>
       <r>    5.8718    1.0000 </r>
       <r>    6.0343    1.0000 </r>
       <r>    6.2628    1.0000 </r>
       <r>    6.4571    1.0000 </r>
       <r>    6.6290    1.0000 </r>
       <r>    6.7178    1.0000 </r>
       <r>    6.8376    1.0000 </r>
       <r>    7.1611    1.0000 </r>
       <r>    7.9044    1.0000 </r>
       <r>    8.1191    1.0000 </r>
       <r>    8.2034    1.0000 </r>
       <r>    8.3220    1.0000 </r>
       <r>    8.8149    1.0000 </r>
       <r>    8.9308    1.0000 </r>
       <r>    9.4090    1.0000 </r>
       <r>    9.5087    1.0000 </r>
       <r>   10.0868    1.0000 </r>
       <r>   10.5166    1.0000 </r>
       <r>   10.6645    1.0000 </r>
       <r>   10.7913    1.0000 </r>
       <r>   11.0584    1.0011 </r>
       <r>   11.4284    0.9489 </r>
       <r>   11.6126    0.2946 </r>
       <r>   11.8940   -0.0204 </r>
       <r>   12.0173   -0.0030 </r>
       <r>   12.1596   -0.0001 </r>
       <r>   12.3725   -0.0000 </r>
       <r>   12.4853   -0.0000 </r>
       <r>   12.5596   -0.0000 </r>
       <r>   12.7039   -0.0000 </r>
       <r>   12.8464   -0.0000 </r>
       <r>   13.3099   -0.0000 </r>
       <r>   13.4580   -0.0000 </r>
       <r>   13.6021   -0.0000 </r>
       <r>   13.9256   -0.0000 </r>
       <r>   14.1491   -0.0000 </r>
       <r>   14.4540   -0.0000 </r>
       <r>   14.5462   -0.0000 </r>
       <r>   14.6413   -0.0000 </r>
       <r>   14.8590   -0.0000 </r>
       <r>   14.9631   -0.0000 </r>
       <r>   15.1025   -0.0000 </r>
       <r>   15.3977   -0.0000 </r>
       <r>   16.1791   -0.0000 </r>
       <r>   16.2799   -0.0000 </r>
       <r>   16.4440   -0.0000 </r>
       <r>   16.6486   -0.0000 </r>
      </set>
      <set comment="kpoint 126">
       <r>   -1.0593    1.0000 </r>
       <r>   -0.7476    1.0000 </r>
       <r>    0.0091    1.0000 </r>
       <r>    0.6128    1.0000 </r>
       <r>    1.0369    1.0000 </r>
       <r>    2.1208    1.0000 </r>
       <r>    2.3624    1.0000 </r>
       <r>    2.7025    1.0000 </r>
       <r>    2.8327    1.0000 </r>
       <r>    3.1598    1.0000 </r>
       <r>    3.4546    1.0000 </r>
       <r>    4.3586    1.0000 </r>
       <r>    4.7243    1.0000 </r>
       <r>    5.0685    1.0000 </r>
       <r>    5.3725    1.0000 </r>
       <r>    5.5835    1.0000 </r>
       <r>    5.7705    1.0000 </r>
       <r>    5.9075    1.0000 </r>
       <r>    5.9973    1.0000 </r>
       <r>    6.2018    1.0000 </r>
       <r>    6.4505    1.0000 </r>
       <r>    6.5747    1.0000 </r>
       <r>    6.7540    1.0000 </r>
       <r>    6.9680    1.0000 </r>
       <r>    7.1319    1.0000 </r>
       <r>    7.9725    1.0000 </r>
       <r>    8.0902    1.0000 </r>
       <r>    8.2512    1.0000 </r>
       <r>    8.3470    1.0000 </r>
       <r>    8.7793    1.0000 </r>
       <r>    8.9101    1.0000 </r>
       <r>    9.4888    1.0000 </r>
       <r>    9.5337    1.0000 </r>
       <r>   10.1509    1.0000 </r>
       <r>   10.4097    1.0000 </r>
       <r>   10.6428    1.0000 </r>
       <r>   10.7571    1.0000 </r>
       <r>   11.0844    1.0019 </r>
       <r>   11.4169    0.9691 </r>
       <r>   11.5768    0.4393 </r>
       <r>   11.8179   -0.0351 </r>
       <r>   11.9610   -0.0082 </r>
       <r>   12.2215   -0.0000 </r>
       <r>   12.3310   -0.0000 </r>
       <r>   12.4449   -0.0000 </r>
       <r>   12.5749   -0.0000 </r>
       <r>   12.7674   -0.0000 </r>
       <r>   12.8816   -0.0000 </r>
       <r>   13.3879   -0.0000 </r>
       <r>   13.5223   -0.0000 </r>
       <r>   13.6553   -0.0000 </r>
       <r>   13.9239   -0.0000 </r>
       <r>   14.0230   -0.0000 </r>
       <r>   14.2603   -0.0000 </r>
       <r>   14.5125   -0.0000 </r>
       <r>   14.7261   -0.0000 </r>
       <r>   14.8582   -0.0000 </r>
       <r>   15.0022   -0.0000 </r>
       <r>   15.1901   -0.0000 </r>
       <r>   15.3643   -0.0000 </r>
       <r>   16.0906   -0.0000 </r>
       <r>   16.3353   -0.0000 </r>
       <r>   16.4258   -0.0000 </r>
       <r>   16.5679   -0.0000 </r>
      </set>
      <set comment="kpoint 127">
       <r>   -1.0681    1.0000 </r>
       <r>   -0.7045    1.0000 </r>
       <r>   -0.0625    1.0000 </r>
       <r>    0.6485    1.0000 </r>
       <r>    0.9971    1.0000 </r>
       <r>    2.1972    1.0000 </r>
       <r>    2.4311    1.0000 </r>
       <r>    2.6633    1.0000 </r>
       <r>    2.8605    1.0000 </r>
       <r>    3.1385    1.0000 </r>
       <r>    3.3618    1.0000 </r>
       <r>    4.3410    1.0000 </r>
       <r>    4.7704    1.0000 </r>
       <r>    5.0328    1.0000 </r>
       <r>    5.4229    1.0000 </r>
       <r>    5.5962    1.0000 </r>
       <r>    5.7800    1.0000 </r>
       <r>    5.9622    1.0000 </r>
       <r>    6.0650    1.0000 </r>
       <r>    6.1702    1.0000 </r>
       <r>    6.3189    1.0000 </r>
       <r>    6.6297    1.0000 </r>
       <r>    6.6635    1.0000 </r>
       <r>    6.8822    1.0000 </r>
       <r>    7.1196    1.0000 </r>
       <r>    7.9226    1.0000 </r>
       <r>    8.0944    1.0000 </r>
       <r>    8.3028    1.0000 </r>
       <r>    8.4158    1.0000 </r>
       <r>    8.8314    1.0000 </r>
       <r>    9.0855    1.0000 </r>
       <r>    9.3967    1.0000 </r>
       <r>    9.5231    1.0000 </r>
       <r>   10.0144    1.0000 </r>
       <r>   10.5211    1.0000 </r>
       <r>   10.5874    1.0000 </r>
       <r>   10.7836    1.0000 </r>
       <r>   11.1185    1.0037 </r>
       <r>   11.4282    0.9493 </r>
       <r>   11.6899    0.0637 </r>
       <r>   11.7832   -0.0328 </r>
       <r>   11.9423   -0.0109 </r>
       <r>   12.1804   -0.0001 </r>
       <r>   12.3538   -0.0000 </r>
       <r>   12.4146   -0.0000 </r>
       <r>   12.5790   -0.0000 </r>
       <r>   12.7960   -0.0000 </r>
       <r>   12.8757   -0.0000 </r>
       <r>   13.3194   -0.0000 </r>
       <r>   13.5004   -0.0000 </r>
       <r>   13.6824   -0.0000 </r>
       <r>   13.7693   -0.0000 </r>
       <r>   14.1816   -0.0000 </r>
       <r>   14.3275   -0.0000 </r>
       <r>   14.4529   -0.0000 </r>
       <r>   14.7172   -0.0000 </r>
       <r>   14.7869   -0.0000 </r>
       <r>   14.9902   -0.0000 </r>
       <r>   15.1628   -0.0000 </r>
       <r>   15.2658   -0.0000 </r>
       <r>   15.9548   -0.0000 </r>
       <r>   16.2116   -0.0000 </r>
       <r>   16.4746   -0.0000 </r>
       <r>   16.6718   -0.0000 </r>
      </set>
      <set comment="kpoint 128">
       <r>   -1.0454    1.0000 </r>
       <r>   -0.7409    1.0000 </r>
       <r>   -0.0697    1.0000 </r>
       <r>    0.6075    1.0000 </r>
       <r>    1.1916    1.0000 </r>
       <r>    1.9226    1.0000 </r>
       <r>    2.5152    1.0000 </r>
       <r>    2.6665    1.0000 </r>
       <r>    2.7889    1.0000 </r>
       <r>    3.2241    1.0000 </r>
       <r>    3.4452    1.0000 </r>
       <r>    4.4310    1.0000 </r>
       <r>    4.6974    1.0000 </r>
       <r>    5.1652    1.0000 </r>
       <r>    5.2413    1.0000 </r>
       <r>    5.4070    1.0000 </r>
       <r>    5.7146    1.0000 </r>
       <r>    5.8879    1.0000 </r>
       <r>    6.0824    1.0000 </r>
       <r>    6.2206    1.0000 </r>
       <r>    6.4162    1.0000 </r>
       <r>    6.5891    1.0000 </r>
       <r>    6.8326    1.0000 </r>
       <r>    7.0807    1.0000 </r>
       <r>    7.1683    1.0000 </r>
       <r>    7.8624    1.0000 </r>
       <r>    8.0786    1.0000 </r>
       <r>    8.1415    1.0000 </r>
       <r>    8.4989    1.0000 </r>
       <r>    8.7842    1.0000 </r>
       <r>    9.0402    1.0000 </r>
       <r>    9.3389    1.0000 </r>
       <r>    9.6022    1.0000 </r>
       <r>   10.1285    1.0000 </r>
       <r>   10.2853    1.0000 </r>
       <r>   10.5730    1.0000 </r>
       <r>   10.9104    1.0000 </r>
       <r>   11.1732    1.0095 </r>
       <r>   11.3574    1.0275 </r>
       <r>   11.5561    0.5266 </r>
       <r>   11.7978   -0.0351 </r>
       <r>   12.0655   -0.0011 </r>
       <r>   12.0880   -0.0006 </r>
       <r>   12.3341   -0.0000 </r>
       <r>   12.4013   -0.0000 </r>
       <r>   12.6061   -0.0000 </r>
       <r>   12.8173   -0.0000 </r>
       <r>   13.0552   -0.0000 </r>
       <r>   13.2933   -0.0000 </r>
       <r>   13.3759   -0.0000 </r>
       <r>   13.5924   -0.0000 </r>
       <r>   13.8758   -0.0000 </r>
       <r>   14.0641   -0.0000 </r>
       <r>   14.4328   -0.0000 </r>
       <r>   14.6000   -0.0000 </r>
       <r>   14.7127   -0.0000 </r>
       <r>   14.8202   -0.0000 </r>
       <r>   14.9798   -0.0000 </r>
       <r>   15.1269   -0.0000 </r>
       <r>   15.3207   -0.0000 </r>
       <r>   16.1346   -0.0000 </r>
       <r>   16.2330   -0.0000 </r>
       <r>   16.3341   -0.0000 </r>
       <r>   16.5559   -0.0000 </r>
      </set>
     </set>
    </set>
   </array>
  </eigenvalues>
  <separator name="orbital magnetization" >
   <v name="MAGDIPOLOUT">      0.00000000      0.00000000      0.00000000</v>
  </separator>
  <dos>
   <i name="efermi">     11.56236707 </i>
   <total>
    <array>
     <dimension dim="1">gridpoints</dimension>
     <dimension dim="2">spin</dimension>
     <field>energy</field>
     <field>total</field>
     <field>integrated</field>
     <set>
      <set comment="spin 1">
       <r>    -3.9074     0.0000     0.0000 </r>
       <r>    -3.8306     0.0000     0.0000 </r>
       <r>    -3.7537     0.0000     0.0000 </r>
       <r>    -3.6769     0.0000     0.0000 </r>
       <r>    -3.6000     0.0000     0.0000 </r>
       <r>    -3.5231    -0.0000    -0.0000 </r>
       <r>    -3.4463    -0.0000    -0.0000 </r>
       <r>    -3.3694    -0.0000    -0.0000 </r>
       <r>    -3.2926    -0.0000    -0.0000 </r>
       <r>    -3.2157    -0.0000    -0.0000 </r>
       <r>    -3.1389    -0.0000    -0.0000 </r>
       <r>    -3.0620    -0.0000    -0.0000 </r>
       <r>    -2.9852    -0.0000    -0.0000 </r>
       <r>    -2.9083    -0.0000    -0.0000 </r>
       <r>    -2.8314    -0.0000    -0.0000 </r>
       <r>    -2.7546    -0.0000    -0.0000 </r>
       <r>    -2.6777    -0.0000    -0.0000 </r>
       <r>    -2.6009    -0.0000    -0.0000 </r>
       <r>    -2.5240    -0.0000    -0.0000 </r>
       <r>    -2.4472    -0.0003    -0.0000 </r>
       <r>    -2.3703    -0.0018    -0.0002 </r>
       <r>    -2.2934    -0.0071    -0.0007 </r>
       <r>    -2.2166    -0.0186    -0.0021 </r>
       <r>    -2.1397    -0.0287    -0.0043 </r>
       <r>    -2.0629    -0.0055    -0.0048 </r>
       <r>    -1.9860     0.1028     0.0031 </r>
       <r>    -1.9092     0.3338     0.0288 </r>
       <r>    -1.8323     0.6628     0.0797 </r>
       <r>    -1.7554     0.9893     0.1558 </r>
       <r>    -1.6786     1.2141     0.2491 </r>
       <r>    -1.6017     1.3558     0.3533 </r>
       <r>    -1.5249     1.5416     0.4718 </r>
       <r>    -1.4480     1.8494     0.6139 </r>
       <r>    -1.3712     2.1734     0.7809 </r>
       <r>    -1.2943     2.3058     0.9582 </r>
       <r>    -1.2174     2.2431     1.1306 </r>
       <r>    -1.1406     2.2716     1.3051 </r>
       <r>    -1.0637     2.5314     1.4997 </r>
       <r>    -0.9869     2.7211     1.7088 </r>
       <r>    -0.9100     2.5121     1.9019 </r>
       <r>    -0.8332     2.0348     2.0583 </r>
       <r>    -0.7563     1.7294     2.1912 </r>
       <r>    -0.6794     1.8902     2.3365 </r>
       <r>    -0.6026     2.4620     2.5257 </r>
       <r>    -0.5257     3.0764     2.7622 </r>
       <r>    -0.4489     3.2487     3.0118 </r>
       <r>    -0.3720     2.8706     3.2325 </r>
       <r>    -0.2952     2.5314     3.4270 </r>
       <r>    -0.2183     2.8447     3.6457 </r>
       <r>    -0.1414     3.4782     3.9130 </r>
       <r>    -0.0646     3.5793     4.1881 </r>
       <r>     0.0123     3.1516     4.4303 </r>
       <r>     0.0891     3.0698     4.6662 </r>
       <r>     0.1660     3.5824     4.9416 </r>
       <r>     0.2428     3.8713     5.2391 </r>
       <r>     0.3197     3.4906     5.5074 </r>
       <r>     0.3966     3.1845     5.7521 </r>
       <r>     0.4734     3.6939     6.0360 </r>
       <r>     0.5503     4.5636     6.3868 </r>
       <r>     0.6271     4.7995     6.7556 </r>
       <r>     0.7040     4.2166     7.0797 </r>
       <r>     0.7808     3.4545     7.3452 </r>
       <r>     0.8577     2.9848     7.5746 </r>
       <r>     0.9346     2.7998     7.7898 </r>
       <r>     1.0114     2.8517     8.0090 </r>
       <r>     1.0883     3.2312     8.2573 </r>
       <r>     1.1651     3.9793     8.5632 </r>
       <r>     1.2420     4.9116     8.9406 </r>
       <r>     1.3188     5.5555     9.3676 </r>
       <r>     1.3957     5.3811     9.7812 </r>
       <r>     1.4725     4.3613    10.1164 </r>
       <r>     1.5494     3.2415    10.3655 </r>
       <r>     1.6263     2.9234    10.5902 </r>
       <r>     1.7031     3.5169    10.8605 </r>
       <r>     1.7800     4.3088    11.1917 </r>
       <r>     1.8568     4.6990    11.5528 </r>
       <r>     1.9337     4.7591    11.9186 </r>
       <r>     2.0105     4.8277    12.2896 </r>
       <r>     2.0874     4.9901    12.6732 </r>
       <r>     2.1643     5.0930    13.0646 </r>
       <r>     2.2411     5.0070    13.4494 </r>
       <r>     2.3180     4.6933    13.8101 </r>
       <r>     2.3948     4.1901    14.1322 </r>
       <r>     2.4717     3.7654    14.4216 </r>
       <r>     2.5485     3.8503    14.7175 </r>
       <r>     2.6254     4.5875    15.0701 </r>
       <r>     2.7023     5.6555    15.5047 </r>
       <r>     2.7791     6.5409    16.0074 </r>
       <r>     2.8560     6.7939    16.5296 </r>
       <r>     2.9328     6.2723    17.0117 </r>
       <r>     3.0097     5.3238    17.4208 </r>
       <r>     3.0865     4.5061    17.7672 </r>
       <r>     3.1634     4.1594    18.0868 </r>
       <r>     3.2403     4.3410    18.4205 </r>
       <r>     3.3171     4.8717    18.7949 </r>
       <r>     3.3940     5.4402    19.2130 </r>
       <r>     3.4708     5.9198    19.6680 </r>
       <r>     3.5477     6.3541    20.1564 </r>
       <r>     3.6245     6.5383    20.6589 </r>
       <r>     3.7014     6.1423    21.1310 </r>
       <r>     3.7783     5.3687    21.5436 </r>
       <r>     3.8551     4.9376    21.9231 </r>
       <r>     3.9320     5.2681    22.3280 </r>
       <r>     4.0088     6.0280    22.7913 </r>
       <r>     4.0857     6.5762    23.2967 </r>
       <r>     4.1625     6.6343    23.8066 </r>
       <r>     4.2394     6.4481    24.3021 </r>
       <r>     4.3163     6.4049    24.7944 </r>
       <r>     4.3931     6.5509    25.2979 </r>
       <r>     4.4700     6.5305    25.7998 </r>
       <r>     4.5468     6.1349    26.2713 </r>
       <r>     4.6237     5.7007    26.7095 </r>
       <r>     4.7005     5.6303    27.1422 </r>
       <r>     4.7774     5.8600    27.5926 </r>
       <r>     4.8543     6.1650    28.0664 </r>
       <r>     4.9311     6.5525    28.5700 </r>
       <r>     5.0080     6.9364    29.1031 </r>
       <r>     5.0848     6.9087    29.6341 </r>
       <r>     5.1617     6.4143    30.1271 </r>
       <r>     5.2385     6.1485    30.5996 </r>
       <r>     5.3154     6.6747    31.1126 </r>
       <r>     5.3922     7.6120    31.6977 </r>
       <r>     5.4691     8.1372    32.3231 </r>
       <r>     5.5460     7.9923    32.9373 </r>
       <r>     5.6228     7.7302    33.5314 </r>
       <r>     5.6997     7.9084    34.1393 </r>
       <r>     5.7765     8.2163    34.7707 </r>
       <r>     5.8534     7.9124    35.3789 </r>
       <r>     5.9302     6.9413    35.9123 </r>
       <r>     6.0071     5.9321    36.3683 </r>
       <r>     6.0840     5.3864    36.7823 </r>
       <r>     6.1608     5.3807    37.1958 </r>
       <r>     6.2377     5.7881    37.6406 </r>
       <r>     6.3145     6.5412    38.1434 </r>
       <r>     6.3914     7.6376    38.7304 </r>
       <r>     6.4682     8.7894    39.4059 </r>
       <r>     6.5451     9.3488    40.1244 </r>
       <r>     6.6220     8.9176    40.8098 </r>
       <r>     6.6988     7.8508    41.4132 </r>
       <r>     6.7757     6.9320    41.9460 </r>
       <r>     6.8525     6.6250    42.4551 </r>
       <r>     6.9294     6.7919    42.9771 </r>
       <r>     7.0062     7.0859    43.5217 </r>
       <r>     7.0831     7.3387    44.0858 </r>
       <r>     7.1600     7.4995    44.6622 </r>
       <r>     7.2368     7.4860    45.2375 </r>
       <r>     7.3137     7.2566    45.7952 </r>
       <r>     7.3905     6.8826    46.3242 </r>
       <r>     7.4674     6.5329    46.8263 </r>
       <r>     7.5442     6.5040    47.3262 </r>
       <r>     7.6211     6.9871    47.8632 </r>
       <r>     7.6980     7.6809    48.4535 </r>
       <r>     7.7748     8.1175    49.0774 </r>
       <r>     7.8517     8.2921    49.7147 </r>
       <r>     7.9285     8.4586    50.3648 </r>
       <r>     8.0054     8.6723    51.0313 </r>
       <r>     8.0822     8.9039    51.7157 </r>
       <r>     8.1591     9.1760    52.4209 </r>
       <r>     8.2360     9.4866    53.1500 </r>
       <r>     8.3128     9.7008    53.8956 </r>
       <r>     8.3897     9.4704    54.6235 </r>
       <r>     8.4665     8.6595    55.2890 </r>
       <r>     8.5434     7.7476    55.8845 </r>
       <r>     8.6202     7.2302    56.4401 </r>
       <r>     8.6971     7.0808    56.9843 </r>
       <r>     8.7740     7.1408    57.5332 </r>
       <r>     8.8508     7.3646    58.0992 </r>
       <r>     8.9277     7.6526    58.6873 </r>
       <r>     9.0045     7.8763    59.2927 </r>
       <r>     9.0814     7.9225    59.9016 </r>
       <r>     9.1582     7.7715    60.4989 </r>
       <r>     9.2351     7.7105    61.0915 </r>
       <r>     9.3120     8.0653    61.7114 </r>
       <r>     9.3888     8.6155    62.3735 </r>
       <r>     9.4657     8.8014    63.0500 </r>
       <r>     9.5425     8.4695    63.7009 </r>
       <r>     9.6194     7.9753    64.3139 </r>
       <r>     9.6962     7.7527    64.9097 </r>
       <r>     9.7731     8.0142    65.5257 </r>
       <r>     9.8499     8.6236    66.1885 </r>
       <r>     9.9268     9.2271    66.8976 </r>
       <r>    10.0037     9.6316    67.6379 </r>
       <r>    10.0805     9.8815    68.3973 </r>
       <r>    10.1574     9.9515    69.1622 </r>
       <r>    10.2342     9.7435    69.9110 </r>
       <r>    10.3111     9.4617    70.6382 </r>
       <r>    10.3879     9.5125    71.3693 </r>
       <r>    10.4648     9.8516    72.1265 </r>
       <r>    10.5417     9.9508    72.8913 </r>
       <r>    10.6185     9.5705    73.6268 </r>
       <r>    10.6954     8.9942    74.3181 </r>
       <r>    10.7722     8.4266    74.9658 </r>
       <r>    10.8491     7.7699    75.5629 </r>
       <r>    10.9259     7.0760    76.1068 </r>
       <r>    11.0028     6.6479    76.6177 </r>
       <r>    11.0797     6.5938    77.1245 </r>
       <r>    11.1565     6.7484    77.6431 </r>
       <r>    11.2334     7.0326    78.1836 </r>
       <r>    11.3102     7.5354    78.7628 </r>
       <r>    11.3871     8.2343    79.3956 </r>
       <r>    11.4639     8.8784    80.0780 </r>
       <r>    11.5408     9.3146    80.7939 </r>
       <r>    11.6177     9.7179    81.5408 </r>
       <r>    11.6945    10.2042    82.3251 </r>
       <r>    11.7714    10.4959    83.1317 </r>
       <r>    11.8482    10.3311    83.9258 </r>
       <r>    11.9251     9.9704    84.6920 </r>
       <r>    12.0019     9.9377    85.4558 </r>
       <r>    12.0788    10.3302    86.2498 </r>
       <r>    12.1557    10.6917    87.0715 </r>
       <r>    12.2325    10.5679    87.8837 </r>
       <r>    12.3094     9.9101    88.6454 </r>
       <r>    12.3862     8.9709    89.3348 </r>
       <r>    12.4631     8.1138    89.9585 </r>
       <r>    12.5399     7.6608    90.5472 </r>
       <r>    12.6168     7.6998    91.1390 </r>
       <r>    12.6937     8.1195    91.7631 </r>
       <r>    12.7705     8.7730    92.4373 </r>
       <r>    12.8474     9.4577    93.1642 </r>
       <r>    12.9242     9.9694    93.9304 </r>
       <r>    13.0011    10.2574    94.7188 </r>
       <r>    13.0779    10.3740    95.5161 </r>
       <r>    13.1548    10.3881    96.3145 </r>
       <r>    13.2317    10.3469    97.1097 </r>
       <r>    13.3085    10.2043    97.8940 </r>
       <r>    13.3854     9.9448    98.6583 </r>
       <r>    13.4622     9.7180    99.4052 </r>
       <r>    13.5391     9.5674   100.1405 </r>
       <r>    13.6159     9.2711   100.8531 </r>
       <r>    13.6928     8.7666   101.5269 </r>
       <r>    13.7696     8.3633   102.1696 </r>
       <r>    13.8465     8.3393   102.8106 </r>
       <r>    13.9234     8.7352   103.4819 </r>
       <r>    14.0002     9.4376   104.2073 </r>
       <r>    14.0771    10.0712   104.9813 </r>
       <r>    14.1539    10.2048   105.7656 </r>
       <r>    14.2308     9.9141   106.5276 </r>
       <r>    14.3076     9.6503   107.2693 </r>
       <r>    14.3845     9.6288   108.0093 </r>
       <r>    14.4614     9.7459   108.7584 </r>
       <r>    14.5382     9.7752   109.5096 </r>
       <r>    14.6151     9.5480   110.2435 </r>
       <r>    14.6919     9.2679   110.9558 </r>
       <r>    14.7688     9.3102   111.6713 </r>
       <r>    14.8456     9.5219   112.4032 </r>
       <r>    14.9225     9.3895   113.1248 </r>
       <r>    14.9994     8.9843   113.8153 </r>
       <r>    15.0762     8.9635   114.5042 </r>
       <r>    15.1531     9.6179   115.2434 </r>
       <r>    15.2299    10.6076   116.0587 </r>
       <r>    15.3068    11.4827   116.9412 </r>
       <r>    15.3836    11.9117   117.8567 </r>
       <r>    15.4605    11.7235   118.7577 </r>
       <r>    15.5374    11.0779   119.6091 </r>
       <r>    15.6142    10.3523   120.4048 </r>
       <r>    15.6911     9.8725   121.1636 </r>
       <r>    15.7679     9.7955   121.9164 </r>
       <r>    15.8448     9.9885   122.6841 </r>
       <r>    15.9216    10.1016   123.4605 </r>
       <r>    15.9985     9.9239   124.2232 </r>
       <r>    16.0754     9.4821   124.9520 </r>
       <r>    16.1522     8.8028   125.6285 </r>
       <r>    16.2291     7.7937   126.2275 </r>
       <r>    16.3059     6.4169   126.7207 </r>
       <r>    16.3828     4.9212   127.0989 </r>
       <r>    16.4596     3.6895   127.3825 </r>
       <r>    16.5365     2.8047   127.5980 </r>
       <r>    16.6134     2.0452   127.7552 </r>
       <r>    16.6902     1.2952   127.8548 </r>
       <r>    16.7671     0.6690   127.9062 </r>
       <r>    16.8439     0.2829   127.9279 </r>
       <r>    16.9208     0.1241   127.9375 </r>
       <r>    16.9976     0.1187   127.9466 </r>
       <r>    17.0745     0.1871   127.9610 </r>
       <r>    17.1514     0.2331   127.9789 </r>
       <r>    17.2282     0.1914   127.9936 </r>
       <r>    17.3051     0.0934   128.0008 </r>
       <r>    17.3819     0.0160   128.0020 </r>
       <r>    17.4588    -0.0113   128.0012 </r>
       <r>    17.5356    -0.0099   128.0004 </r>
       <r>    17.6125    -0.0040   128.0001 </r>
       <r>    17.6894    -0.0010   128.0000 </r>
       <r>    17.7662    -0.0002   128.0000 </r>
       <r>    17.8431    -0.0000   128.0000 </r>
       <r>    17.9199    -0.0000   128.0000 </r>
       <r>    17.9968    -0.0000   128.0000 </r>
       <r>    18.0736    -0.0000   128.0000 </r>
       <r>    18.1505    -0.0000   128.0000 </r>
       <r>    18.2273    -0.0000   128.0000 </r>
       <r>    18.3042    -0.0000   128.0000 </r>
       <r>    18.3811    -0.0000   128.0000 </r>
       <r>    18.4579     0.0000   128.0000 </r>
       <r>    18.5348     0.0000   128.0000 </r>
       <r>    18.6116     0.0000   128.0000 </r>
       <r>    18.6885     0.0000   128.0000 </r>
       <r>    18.7653     0.0000   128.0000 </r>
       <r>    18.8422     0.0000   128.0000 </r>
       <r>    18.9191     0.0000   128.0000 </r>
       <r>    18.9959     0.0000   128.0000 </r>
       <r>    19.0728     0.0000   128.0000 </r>
       <r>    19.1496     0.0000   128.0000 </r>
      </set>
     </set>
    </array>
   </total>
  </dos>
 </calculation>
 <structure name="finalpos" >
  <crystal>
   <varray name="basis" >
    <v>       0.00000000       5.46750000       5.46750000 </v>
    <v>       5.46750000       0.00000000       5.46750000 </v>
    <v>       5.46750000       5.46750000       0.00000000 </v>
   </varray>
   <i name="volume">    326.88603759 </i>
   <varray name="rec_basis" >
    <v>      -0.09144947       0.09144947       0.09144947 </v>
    <v>       0.09144947      -0.09144947       0.09144947 </v>
    <v>       0.09144947       0.09144947      -0.09144947 </v>
   </varray>
  </crystal>
  <varray name="positions" >
   <v>       0.04079223       0.96565805       0.00533359 </v>
   <v>       0.01715641       0.03111664       0.32626946 </v>
   <v>       0.95843014       0.03469088       0.67537452 </v>
   <v>       0.03475898       0.29495675       0.01452081 </v>
   <v>       0.03479805       0.32262890       0.29487685 </v>
   <v>       0.96232860       0.33790976       0.70583014 </v>
   <v>       0.03775573       0.64215929       0.01455147 </v>
   <v>       0.01368470       0.63086866       0.36985972 </v>
   <v>       0.95374633       0.69156570       0.68075784 </v>
   <v>       0.33739118       0.98695473       0.04180088 </v>
   <v>       0.33095592       0.96699931       0.32562377 </v>
   <v>       0.37477643       0.98875753       0.63271536 </v>
   <v>       0.37232569       0.32444825       0.96305904 </v>
   <v>       0.33755809       0.34212860       0.36444457 </v>
   <v>       0.30820138       0.36886931       0.63841971 </v>
   <v>       0.36963111       0.62565710       0.00272257 </v>
   <v>       0.30306848       0.70264484       0.31067805 </v>
   <v>       0.35298461       0.69988189       0.64810184 </v>
   <v>       0.69902605       0.95675431       0.00957276 </v>
   <v>       0.66456287       0.95595807       0.35736811 </v>
   <v>       0.62128707       0.02499026       0.68457491 </v>
   <v>       0.62653381       0.35050415       0.03199408 </v>
   <v>       0.68922533       0.36326329       0.29640122 </v>
   <v>       0.62533293       0.34170228       0.70170744 </v>
   <v>       0.68898423       0.69258199       0.99429279 </v>
   <v>       0.69950649       0.64166247       0.30415369 </v>
   <v>       0.71021087       0.64048950       0.66978427 </v>
  </varray>
 </structure>
</modeling>
